c Result of efficient AIG-to-CNF conversion using package CNF
p cnf 617 1861
2 3 -165 -175 -197 0
-2 197 0
-2 -3 0
-2 175 0
-2 165 0
-3 4 154 0
3 -4 0
3 -154 0
4 5 -6 0
4 5 -152 0
-4 -5 0
-4 6 152 0
5 -551 603 605 0
-5 551 0
-5 -605 0
-5 -603 0
6 -7 -149 0
-6 7 0
-6 149 0
-7 605 8 0
-7 -551 605 0
7 -605 0
7 551 -8 0
8 -9 72 0
8 -9 -70 0
-8 9 0
-8 70 -72 0
9 -10 13 0
-9 10 0
-9 -13 0
-10 483 484 11 0
10 -11 0
10 -484 0
10 -483 0
-11 486 489 12 0
11 -12 0
11 -489 0
11 -486 0
-12 485 487 0
12 -485 0
12 -487 0
13 14 -15 0
-13 -14 0
-13 15 0
-14 479 480 488 0
14 -479 0
14 -488 0
14 -480 0
15 481 482 -16 0
-15 16 0
-15 -482 0
-15 -481 0
16 -481 17 0
16 17 64 -66 0
-16 -17 0
-16 481 66 0
-16 481 -64 0
-17 42 52 0
-17 -34 52 0
-17 -18 52 0
17 -52 0
17 18 34 -42 0
18 481 -20 0
18 481 14 -19 0
-18 -481 0
-18 -14 20 0
-18 19 20 0
19 -483 484 11 0
-19 483 0
-19 -484 0
-19 -11 0
-20 22 27 0
-20 21 27 0
20 -27 0
20 -21 -22 0
21 -479 -488 0
-21 479 0
-21 488 0
22 -483 -23 0
-22 483 0
-22 23 0
23 -24 -25 0
-23 24 0
-23 25 0
24 485 -487 0
-24 -485 0
-24 487 0
25 484 -26 0
-25 -484 0
-25 26 0
26 -487 -489 0
26 486 -489 0
-26 489 0
-26 -486 487 0
-27 29 31 0
-27 28 32 0
-27 29 32 0
-27 28 31 0
27 -28 -29 0
27 -31 -32 0
28 -479 488 0
-28 479 0
-28 -488 0
29 -483 484 -30 0
-29 483 0
-29 -484 0
-29 30 0
30 489 -24 0
-30 -489 0
-30 24 0
31 479 -480 0
-31 -479 0
-31 480 0
32 -483 484 -33 0
-32 483 0
-32 -484 0
-32 33 0
33 485 -486 487 0
-33 -485 0
-33 486 0
-33 -487 0
34 -35 -39 0
34 -21 -35 -36 0
-34 35 0
-34 21 39 0
-34 36 39 0
35 -481 482 0
-35 481 0
-35 -482 0
36 -24 -37 0
-36 24 0
-36 37 0
37 -26 -38 0
-37 26 0
-37 38 0
38 -483 -484 0
-38 483 0
-38 484 0
-39 40 41 0
-39 28 31 0
-39 31 41 0
-39 28 40 0
39 -31 -40 0
39 -28 -41 0
40 -33 -38 0
-40 33 0
-40 38 0
41 -30 -38 0
-41 30 0
-41 38 0
42 -490 45 46 0
42 -490 43 46 0
-42 -46 0
-42 490 0
-42 -43 -45 0
43 -35 -44 0
-43 35 0
-43 44 0
44 479 480 -488 0
-44 488 0
-44 -480 0
-44 -479 0
45 12 -37 0
-45 -12 0
-45 37 0
-46 48 49 0
-46 47 50 0
-46 48 50 0
-46 47 49 0
46 -47 -48 0
46 -49 -50 0
47 14 -35 0
-47 -14 0
-47 35 0
48 11 -38 0
-48 -11 0
-48 38 0
49 481 482 -44 0
-49 44 0
-49 -482 0
-49 -481 0
50 -483 -51 0
-50 483 0
-50 51 0
51 12 -25 0
-51 -12 0
-51 25 0
-52 47 53 58 0
-52 53 58 63 0
52 -53 0
52 -58 0
52 -47 -63 0
-53 54 55 0
-53 43 49 0
-53 49 55 0
-53 43 54 0
53 -49 -54 0
53 -43 -55 0
54 483 -51 0
-54 -483 0
-54 51 0
55 12 -56 0
-55 -12 0
-55 56 0
56 -26 -57 0
-56 26 0
-56 57 0
57 483 -484 0
-57 -483 0
-57 484 0
58 -481 -60 0
58 -481 -21 -59 0
-58 481 0
-58 21 60 0
-58 59 60 0
59 -24 -56 0
-59 24 0
-59 56 0
-60 31 61 0
-60 28 62 0
-60 61 62 0
-60 28 31 0
60 -28 -61 0
60 -31 -62 0
61 -30 -57 0
-61 30 0
-61 57 0
62 -33 -57 0
-62 33 0
-62 57 0
63 11 -57 0
-63 -11 0
-63 57 0
64 -21 -65 0
-64 21 0
-64 65 0
65 483 -23 0
-65 -483 0
-65 23 0
66 67 -68 0
66 28 -68 0
-66 68 0
-66 -28 -67 0
67 483 484 -30 0
-67 30 0
-67 -484 0
-67 -483 0
68 -14 31 0
68 -10 69 0
68 -14 69 0
68 -10 31 0
-68 10 14 0
-68 -31 -69 0
69 483 484 -33 0
-69 33 0
-69 -484 0
-69 -483 0
-70 493 71 0
70 -493 0
70 -71 0
-71 491 492 494 0
71 -491 0
71 -494 0
71 -492 0
72 -73 128 0
-72 73 0
-72 -128 0
73 -76 115 0
73 74 -76 -101 0
-73 76 0
-73 -74 -115 0
-73 101 -115 0
-74 493 494 0
-74 493 -75 0
74 -493 0
74 -494 75 0
75 491 -492 0
-75 -491 0
-75 492 0
76 77 -88 98 0
76 77 -88 97 0
-76 -77 0
-76 88 0
-76 -97 -98 0
-77 78 86 0
-77 78 85 0
-77 78 84 0
77 -78 0
77 -84 -85 -86 0
78 -79 -81 0
-78 79 0
-78 81 0
-79 29 -80 0
-79 28 29 0
79 -29 0
79 -28 80 0
-80 481 482 16 0
80 -481 0
80 -16 0
80 -482 0
81 -82 -83 0
-81 82 0
-81 83 0
82 -491 493 494 0
-82 491 0
-82 -494 0
-82 -493 0
-83 67 15 0
-83 28 67 0
83 -67 0
83 -28 -15 0
-84 50 -16 0
-84 49 50 0
84 -50 0
84 -49 16 0
85 491 492 493 -494 0
-85 494 0
-85 -493 0
-85 -491 0
-85 -492 0
-86 54 87 0
86 -54 0
86 -87 0
87 -44 -15 0
-87 44 0
-87 15 0
88 89 -96 0
88 90 -94 0
88 90 -96 0
88 89 -94 0
-88 -89 -90 0
-88 94 96 0
-89 32 -80 0
-89 31 32 0
89 -32 0
89 -31 80 0
90 -91 -93 0
-90 91 0
-90 93 0
-91 69 92 0
91 -69 0
91 -92 0
92 -31 -15 0
-92 31 0
-92 15 0
93 493 -75 0
-93 -493 0
-93 75 0
94 19 -95 0
-94 -19 0
-94 95 0
-95 14 80 0
95 -14 0
95 -80 0
-96 9 70 0
96 -9 0
96 -70 0
-97 22 -80 0
-97 21 22 0
97 -22 0
97 -21 80 0
98 -99 -100 0
-98 99 0
-98 100 0
99 -491 493 -494 0
-99 491 0
-99 -493 0
-99 494 0
-100 65 15 0
-100 21 65 0
100 -65 0
100 -21 -15 0
-101 103 113 0
-101 103 111 0
-101 -102 103 0
101 -103 0
101 102 -111 -113 0
-102 491 492 0
102 -491 0
102 -492 0
103 -104 -107 0
-103 104 0
-103 107 0
-104 62 105 0
104 -62 0
104 -105 0
105 -31 -106 0
-105 31 0
-105 106 0
106 -35 17 0
-106 35 0
-106 -17 0
107 -75 -108 0
-107 75 0
-107 108 0
-108 40 109 0
108 -40 0
108 -109 0
109 -31 -110 0
-109 31 0
-109 110 0
110 -35 -17 0
-110 35 0
-110 17 0
-111 48 112 0
111 -48 0
111 -112 0
112 14 -110 0
-112 -14 0
-112 110 0
-113 63 114 0
113 -63 0
113 -114 0
114 14 -106 0
-114 -14 0
-114 106 0
115 -495 116 126 0
115 -495 116 125 0
-115 495 0
-115 -116 0
-115 -125 -126 0
-116 117 122 0
-116 118 120 0
-116 118 122 0
-116 117 120 0
116 -117 -118 0
116 -120 -122 0
-117 41 110 0
-117 28 41 0
117 -41 0
117 -28 -110 0
118 -82 -119 0
-118 82 0
-118 119 0
-119 61 106 0
-119 28 61 0
119 -61 0
119 -28 -106 0
-120 45 121 0
120 -45 0
120 -121 0
121 -44 -110 0
-121 44 0
-121 110 0
122 -85 -123 0
-122 85 0
-122 123 0
-123 55 124 0
123 -55 0
123 -124 0
124 -44 -106 0
-124 44 0
-124 106 0
-125 36 110 0
-125 21 36 0
125 -36 0
125 -21 -110 0
126 -99 -127 0
-126 99 0
-126 127 0
-127 59 106 0
-127 21 59 0
127 -59 0
127 -21 -106 0
-128 86 130 0
-128 129 130 0
128 -130 0
128 -86 -129 0
129 -85 -73 0
-129 85 0
-129 73 0
-130 -73 131 0
-130 122 131 0
130 -131 0
130 -122 73 0
-131 73 132 0
-131 90 132 -148 0
131 -132 0
131 -73 148 0
131 -90 -73 0
-132 -133 136 0
-132 134 135 136 0
132 -136 0
132 133 -135 0
132 133 -134 0
-133 493 73 0
133 -493 0
133 -73 0
134 -75 -104 0
-134 75 0
-134 104 0
-135 -71 118 126 0
-135 113 118 126 0
135 -126 0
135 -118 0
135 71 -113 0
136 117 138 -143 0
136 137 138 -143 0
-136 143 0
-136 -138 0
-136 -117 -137 0
137 -82 73 0
-137 82 0
-137 -73 0
-138 84 139 0
-138 129 139 0
138 -139 0
138 -84 -129 0
139 -140 141 0
139 -79 -82 -140 0
-139 140 0
-139 79 -141 0
-139 82 -141 0
140 493 -73 0
-140 -493 0
-140 73 0
141 89 -142 0
141 75 -142 0
-141 142 0
-141 -75 -89 0
142 -94 99 0
142 -71 97 0
142 -94 97 0
142 -71 99 0
-142 -97 -99 0
-142 71 94 0
143 -496 120 145 0
143 -496 144 145 0
-143 496 0
-143 -145 0
-143 -120 -144 0
144 -85 73 0
-144 85 0
-144 -73 0
145 133 -147 0
145 -125 133 -146 0
-145 -133 0
-145 125 147 0
-145 146 147 0
146 -491 -494 0
-146 491 0
-146 494 0
-147 107 111 0
-147 -71 107 0
147 -107 0
147 71 -111 0
148 81 -96 98 0
-148 -81 0
-148 -98 0
-148 96 0
149 -150 151 0
-149 150 0
-149 -151 0
150 -551 606 0
150 606 -13 0
-150 -606 0
-150 551 13 0
-151 -551 607 0
-151 607 10 0
151 -607 0
151 551 -10 0
152 602 -153 0
-152 -602 0
-152 153 0
-153 551 8 0
153 -551 0
153 -8 0
154 155 -156 0
154 155 -163 0
-154 -155 0
-154 156 163 0
155 -551 568 569 0
-155 551 0
-155 -569 0
-155 -568 0
156 -157 -160 0
-156 157 0
-156 160 0
-157 568 158 0
-157 -551 568 0
157 -568 0
157 551 -158 0
158 -71 -94 0
158 -94 159 0
-158 94 0
-158 71 -159 0
159 -140 -128 0
-159 140 0
-159 128 0
160 161 -162 0
-160 -161 0
-160 162 0
-161 -551 572 0
-161 572 95 0
161 -572 0
161 551 -95 0
162 -551 573 0
162 573 -19 0
-162 -573 0
-162 551 19 0
163 570 -164 0
-163 -570 0
-163 164 0
-164 551 158 0
164 -551 0
164 -158 0
-165 166 -167 0
-165 166 173 0
165 -166 0
165 167 -173 0
166 -551 597 598 0
-166 551 0
-166 -598 0
-166 -597 0
167 168 -170 0
-167 -168 0
-167 170 0
168 598 -169 0
168 -551 598 0
-168 -598 0
-168 551 169 0
-169 91 72 0
-169 91 93 0
169 -91 0
169 -93 -72 0
170 -171 -172 0
-170 171 0
-170 172 0
171 -551 600 0
171 600 -92 0
-171 -600 0
-171 551 92 0
172 -551 601 0
172 601 -69 0
-172 -601 0
-172 551 69 0
-173 599 174 0
173 -599 0
173 -174 0
174 551 -169 0
-174 -551 0
-174 169 0
175 -176 -187 0
-175 176 0
-175 187 0
-176 177 -178 0
-176 177 185 0
176 -177 0
176 178 -185 0
177 -551 581 582 0
-177 551 0
-177 -582 0
-177 -581 0
178 179 -182 0
-178 -179 0
-178 182 0
179 582 -180 0
179 -551 582 0
-179 -582 0
-179 551 180 0
-180 108 128 0
-180 108 181 0
180 -108 0
180 -128 -181 0
181 -93 73 0
-181 93 0
-181 -73 0
182 -183 -184 0
-182 183 0
-182 184 0
183 -551 584 0
183 584 -109 0
-183 -584 0
-183 551 109 0
184 -551 585 0
184 585 -40 0
-184 -585 0
-184 551 40 0
-185 583 186 0
185 -583 0
185 -186 0
186 551 -180 0
-186 -551 0
-186 180 0
-187 188 -189 0
-187 188 195 0
187 -188 0
187 189 -195 0
188 -551 555 556 0
-188 551 0
-188 -556 0
-188 -555 0
189 190 -192 0
-189 -190 0
-189 192 0
190 556 -191 0
190 -551 556 0
-190 -556 0
-190 551 191 0
-191 104 181 0
-191 104 -128 0
191 -104 0
191 128 -181 0
192 -193 -194 0
-192 193 0
-192 194 0
193 -551 552 0
193 552 -105 0
-193 -552 0
-193 551 105 0
194 -551 553 0
194 553 -62 0
-194 -553 0
-194 551 62 0
-195 580 196 0
195 -580 0
195 -196 0
196 551 -191 0
-196 -551 0
-196 191 0
197 -198 -220 -241 0
-197 198 0
-197 220 0
-197 241 0
198 -199 210 0
-198 199 0
-198 -210 0
-199 -557 200 0
-199 -558 200 0
-199 551 200 0
199 -200 0
199 -551 557 558 0
200 -201 205 0
-200 201 0
-200 -205 0
-201 559 202 0
201 -559 0
201 -202 0
202 551 -203 0
-202 -551 0
-202 203 0
-203 111 128 0
-203 111 -204 0
203 -111 0
203 -128 204 0
-204 71 133 0
204 -71 0
204 -133 0
205 206 -207 0
-205 -206 0
-205 207 0
-206 558 202 0
206 -558 0
206 -202 0
207 -208 -209 0
-207 208 0
-207 209 0
208 -551 560 0
208 560 -112 0
-208 -560 0
-208 551 112 0
209 -551 561 0
209 561 -48 0
-209 -561 0
-209 551 48 0
210 211 -212 0
210 211 -218 0
-210 -211 0
-210 212 218 0
211 -551 562 566 0
-211 551 0
-211 -566 0
-211 -562 0
212 -213 -215 0
-212 213 0
-212 215 0
-213 566 214 0
-213 -551 566 0
213 -566 0
213 551 -214 0
214 113 -204 0
214 113 -128 0
-214 -113 0
-214 128 204 0
215 -216 -217 0
-215 216 0
-215 217 0
216 -551 564 0
216 564 -114 0
-216 -564 0
-216 551 114 0
217 -551 565 0
217 565 -63 0
-217 -565 0
-217 551 63 0
218 567 -219 0
-218 -567 0
-218 219 0
-219 551 214 0
219 -551 0
219 -214 0
220 -221 -231 0
-220 221 0
-220 231 0
-221 222 -223 0
-221 222 229 0
221 -222 0
221 223 -229 0
222 -551 574 575 0
-222 551 0
-222 -575 0
-222 -574 0
223 224 -226 0
-223 -224 0
-223 226 0
224 575 -225 0
224 -551 575 0
-224 -575 0
-224 551 225 0
-225 120 130 0
-225 120 144 0
225 -120 0
225 -144 -130 0
226 -227 -228 0
-226 227 0
-226 228 0
227 -551 577 0
227 577 -45 0
-227 -577 0
-227 551 45 0
228 -551 578 0
228 578 -121 0
-228 -578 0
-228 551 121 0
-229 576 230 0
229 -576 0
229 -230 0
230 551 -225 0
-230 -551 0
-230 225 0
-231 232 -233 0
-231 232 239 0
231 -232 0
231 233 -239 0
232 -551 586 587 0
-232 551 0
-232 -587 0
-232 -586 0
233 234 -236 0
-233 -234 0
-233 236 0
234 587 -235 0
234 -551 587 0
-234 -587 0
-234 551 235 0
-235 123 -132 0
-235 123 144 0
235 -123 0
235 -144 132 0
236 -237 -238 0
-236 237 0
-236 238 0
237 -551 589 0
237 589 -124 0
-237 -589 0
-237 551 124 0
238 -551 590 0
238 590 -55 0
-238 -590 0
-238 551 55 0
-239 588 240 0
239 -588 0
239 -240 0
240 551 -235 0
-240 -551 0
-240 235 0
-241 -592 242 0
-241 -593 242 0
-241 551 242 0
241 -242 0
241 -551 592 593 0
242 243 -249 0
-242 -243 0
-242 249 0
243 244 -246 0
-243 -244 0
-243 246 0
244 593 -245 0
244 -551 593 0
-244 -593 0
-244 551 245 0
-245 86 -131 0
-245 86 129 0
245 -86 0
245 -129 131 0
246 -247 -248 0
-246 247 0
-246 248 0
247 -551 595 0
247 595 -87 0
-247 -595 0
-247 551 87 0
248 -551 596 0
248 596 -54 0
-248 -596 0
-248 551 54 0
-249 594 250 0
249 -594 0
249 -250 0
250 551 -245 0
-250 -551 0
-250 245 0
251 -252 -253 0
-251 252 0
-251 253 0
252 183 -184 0
252 -183 184 0
-252 -183 -184 0
-252 183 184 0
-253 177 254 0
253 -177 0
253 -254 0
254 -255 -349 0
-254 255 0
-254 349 0
255 -256 -319 0
-255 256 0
-255 319 0
-256 257 311 0
-256 257 308 0
256 -257 0
256 -308 -311 0
257 -500 258 -264 0
257 -500 175 -264 0
-257 264 0
-257 500 0
-257 -175 -258 0
258 -259 -260 0
-258 259 0
-258 260 0
259 497 -165 0
-259 -497 0
-259 165 0
-260 261 263 0
-260 -504 261 -262 0
260 -261 0
260 262 -263 0
260 504 -263 0
261 551 -89 0
261 551 -75 -159 0
-261 -551 0
-261 75 89 0
-261 89 159 0
262 507 508 -551 0
-262 551 0
-262 -508 0
-262 -507 0
-263 -505 506 0
-263 506 551 0
-263 -504 506 0
263 -506 0
263 504 505 -551 0
264 -265 -287 0
-264 265 0
-264 287 0
-265 498 266 0
265 -498 0
265 -266 0
266 -267 -276 0
-266 267 0
-266 276 0
267 -268 -272 0
-267 268 0
-267 272 0
-268 269 271 0
-268 -509 269 -270 0
268 -269 0
268 270 -271 0
268 509 -271 0
269 551 -100 0
269 551 -99 -72 0
-269 -551 0
-269 99 100 0
-269 100 72 0
270 510 511 -551 0
-270 551 0
-270 -511 0
-270 -510 0
-271 -531 532 0
-271 532 551 0
-271 -509 532 0
271 -532 0
271 509 531 -551 0
-272 551 273 0
-272 -513 273 0
-272 -514 273 0
272 -273 0
272 513 514 -551 0
273 274 -275 0
273 -97 274 0
273 -512 274 0
-273 -274 0
-273 512 97 275 0
274 512 -551 0
274 -514 546 -551 0
-274 551 0
-274 -512 514 0
-274 -512 -546 0
275 -491 -494 -159 0
-275 491 0
-275 494 0
-275 159 0
276 -277 -282 0
-276 277 0
-276 282 0
-277 551 278 0
-277 -533 278 0
-277 -534 278 0
277 -278 0
277 533 534 -551 0
278 551 -280 0
278 -535 279 -280 0
-278 280 0
-278 -551 -279 0
-278 535 -551 0
279 -534 547 0
-279 534 0
-279 -547 0
-280 535 127 -128 0
-280 535 127 281 0
280 -535 0
280 -127 0
280 128 -281 0
281 -99 73 0
-281 99 0
-281 -73 0
-282 125 283 0
-282 -551 283 0
282 -283 0
282 551 -125 0
-283 281 286 0
-283 284 -285 0
-283 284 286 0
-283 281 -285 0
283 -281 -284 0
283 285 -286 0
284 551 -128 0
-284 -551 0
-284 128 0
285 -537 539 540 -551 0
-285 551 0
-285 -540 0
-285 537 0
-285 -539 0
-286 -537 538 0
-286 538 551 0
-286 -536 538 0
286 -538 0
286 536 537 -551 0
-287 498 303 0
-287 498 288 0
287 -498 0
287 -288 -303 0
288 -289 -299 0
-288 289 0
-288 299 0
289 -290 -295 0
-289 290 0
-289 295 0
-290 551 291 0
-290 -516 291 0
-290 -517 291 0
290 -291 0
290 516 517 -551 0
291 551 -292 0
291 -548 -292 0
291 517 -292 0
-291 292 0
-291 -517 548 -551 0
-292 515 -551 293 0
-292 515 79 293 0
292 -515 0
292 -293 0
292 551 -79 0
293 -284 -294 0
-293 284 0
-293 294 0
294 -82 -73 0
-294 82 0
-294 73 0
-295 296 298 0
-295 -518 296 -297 0
295 -296 0
295 297 -298 0
295 518 -298 0
296 551 -119 0
296 551 -137 128 0
-296 -551 0
-296 119 137 0
-296 119 -128 0
297 521 522 -551 0
-297 551 0
-297 -522 0
-297 -521 0
-298 -519 520 0
-298 520 551 0
-298 -518 520 0
298 -520 0
298 518 519 -551 0
-299 551 300 0
-299 -529 300 0
-299 -530 300 0
299 -300 0
299 529 530 -551 0
300 551 -302 0
300 -528 301 -302 0
-300 302 0
-300 -551 -301 0
-300 528 -551 0
301 -530 549 0
-301 530 0
-301 -549 0
-302 528 83 -128 0
-302 528 83 294 0
302 -528 0
302 -83 0
302 128 -294 0
303 497 -304 0
-303 -497 0
-303 304 0
-304 551 305 0
-304 -524 305 0
-304 -525 305 0
304 -305 0
304 524 525 -551 0
305 -306 307 0
305 551 -117 307 0
-305 -307 0
-305 117 306 0
-305 -551 306 0
-306 523 284 0
-306 523 137 0
306 -523 0
306 -137 -284 0
307 -525 526 527 -551 0
-307 551 0
-307 -527 0
-307 525 0
-307 -526 0
308 3 -309 0
-308 -3 0
-308 309 0
309 -198 -287 -310 0
-309 198 0
-309 287 0
-309 310 0
310 497 -265 0
-310 -497 0
-310 265 0
311 -220 -312 0
-311 220 0
-311 312 0
312 -241 -313 0
-312 241 0
-312 313 0
-313 314 318 0
-313 314 -315 316 0
313 -314 0
313 315 -318 0
313 -316 -318 0
314 544 -551 608 0
-314 -544 0
-314 551 0
-314 -608 0
315 542 543 -551 0
-315 551 0
-315 -543 0
-315 -542 0
-316 -608 0
-316 551 317 0
316 608 -317 0
316 -551 608 0
-317 84 128 0
-317 84 129 0
317 -84 0
317 -129 -128 0
-318 -551 609 0
-318 609 317 0
318 -609 0
318 551 -317 0
319 497 -320 0
-319 -497 0
-319 320 0
-320 321 337 0
-320 -264 312 337 0
320 -337 0
320 -312 -321 0
320 264 -321 0
321 -267 -322 0
321 -498 -322 0
-321 322 0
-321 498 267 0
322 497 -323 0
-322 -497 0
-322 323 0
-323 324 333 0
-323 -497 324 0
-323 324 326 0
323 -324 0
323 497 -326 -333 0
324 -308 256 0
324 -501 256 325 0
-324 -256 0
-324 308 -325 0
-324 501 308 0
325 287 -310 0
325 -310 -311 0
-325 310 0
-325 -287 311 0
326 -327 -332 0
-326 327 0
-326 332 0
327 -299 264 0
327 -499 264 -328 0
-327 -264 0
-327 299 328 0
-327 499 299 0
328 541 -329 0
-328 -541 0
-328 329 0
329 -550 331 0
329 -550 288 330 0
-329 550 0
-329 -288 -331 0
-329 -330 -331 0
330 498 -303 0
-330 -498 0
-330 303 0
331 -266 -290 -299 0
331 -266 -290 -295 0
331 -266 -295 -299 0
-331 290 295 0
-331 290 299 0
-331 266 0
-331 295 299 0
-332 -499 290 0
-332 290 328 0
332 -290 0
332 499 -328 0
333 -334 -336 0
-333 334 0
-333 336 0
-334 -499 304 0
-334 304 335 0
334 -304 0
334 499 -335 0
335 -541 -329 0
-335 541 0
-335 329 0
-336 499 295 0
-336 295 335 0
336 -295 0
336 -499 -335 0
-337 259 338 347 0
-337 338 346 347 0
337 -347 0
337 -338 0
337 -259 -346 0
338 276 339 -344 0
338 339 343 -344 0
-338 344 0
-338 -339 0
-338 -276 -343 0
-339 333 340 0
-339 220 -341 0
-339 340 -341 0
-339 220 333 0
339 -220 -340 0
339 -333 341 0
340 -264 -322 0
-340 264 0
-340 322 0
-341 264 342 0
341 -264 0
341 -342 0
-342 497 323 0
342 -497 0
342 -323 0
343 264 -322 0
-343 -264 0
-343 322 0
344 -502 345 0
344 -502 -342 0
-344 502 0
-344 342 -345 0
345 -175 -309 0
345 -257 256 0
345 -175 -257 0
345 -309 256 0
-345 257 309 0
-345 175 -256 0
346 -260 -256 0
-346 260 0
-346 256 0
347 -326 342 0
347 3 342 -348 0
-347 -342 0
-347 326 348 0
-347 -3 326 0
348 -264 256 0
-348 264 0
-348 -256 0
-349 -320 350 0
-349 350 366 367 0
349 -350 0
349 320 -367 0
349 320 -366 0
-350 231 352 363 0
-350 351 352 363 0
350 -363 0
350 -352 0
350 -231 -351 0
351 -340 -320 0
-351 340 0
-351 320 0
352 313 354 -360 0
352 353 354 -360 0
-352 360 0
-352 -354 0
-352 -313 -353 0
353 -340 320 0
-353 340 0
-353 -320 0
-354 199 -355 0
-354 356 359 0
-354 -355 359 0
-354 199 356 0
354 355 -356 0
354 -199 -359 0
-355 497 320 0
355 -497 0
355 -320 0
-356 -341 346 357 0
-356 332 346 357 0
356 -357 0
356 -346 0
356 -332 341 0
-357 -154 343 0
-357 272 358 0
-357 -154 272 0
-357 343 358 0
357 154 -358 0
357 -272 -343 0
358 323 -348 0
-358 -323 0
-358 348 0
359 -319 -358 0
-359 319 0
-359 358 0
360 -503 176 361 0
360 -503 255 361 0
-360 -361 0
-360 503 0
-360 -176 -255 0
-361 320 0
-361 221 362 0
-361 340 362 0
361 -320 -362 0
361 -221 -340 -320 0
-362 282 -341 0
-362 334 343 0
-362 282 334 0
-362 -341 343 0
362 -282 -343 0
362 -334 341 0
363 -319 -364 0
363 -336 341 -319 0
-363 319 0
-363 336 364 0
-363 -341 364 0
-364 256 365 0
-364 187 365 0
364 -365 0
364 -187 -256 0
-365 -210 343 0
-365 277 358 0
-365 -210 277 0
-365 343 358 0
365 210 -358 0
365 -277 -343 0
366 -259 -256 0
-366 259 0
-366 256 0
-367 241 368 370 0
-367 340 368 370 0
367 -370 0
367 -368 0
367 -241 -340 0
368 -327 342 0
368 342 -369 0
-368 -342 0
-368 327 369 0
369 4 -348 0
-369 -4 0
-369 348 0
370 -268 -343 0
-370 268 0
-370 343 0
371 193 -372 0
-371 -193 0
-371 372 0
372 554 -195 0
-372 -554 0
-372 195 0
373 193 -194 0
373 -193 194 0
-373 -193 -194 0
-373 193 194 0
374 -375 -192 0
-374 375 0
-374 192 0
-375 555 196 0
375 -555 0
375 -196 0
-376 375 377 0
-376 -554 377 0
376 -377 0
376 554 -375 0
-377 189 378 0
377 -189 0
377 -378 0
378 -255 349 0
-378 255 0
-378 -349 0
379 190 -377 0
379 -190 -375 0
-379 -190 375 0
-379 190 377 0
380 -206 -381 0
380 381 -382 0
-380 206 -381 0
-380 381 382 0
381 557 -203 0
381 -551 557 0
-381 -557 0
-381 551 203 0
-382 207 383 0
382 -207 0
382 -383 0
383 -359 -349 0
-383 359 0
-383 349 0
-384 -206 383 -385 0
-384 206 207 383 0
384 -383 0
384 -206 385 0
384 206 -207 0
385 -201 -386 0
-385 201 0
-385 386 0
386 -381 387 389 0
386 -381 387 -388 0
-386 381 0
-386 -387 0
-386 388 -389 0
-387 208 209 0
387 -208 0
387 -209 0
388 613 -70 0
388 -551 613 0
-388 -613 0
-388 551 70 0
389 -615 616 390 0
389 616 -284 390 0
-389 -390 0
-389 -616 0
-389 615 284 0
390 -551 614 0
390 614 -73 0
-390 -614 0
-390 551 73 0
-391 199 383 0
-391 -206 383 -386 0
391 -383 0
391 206 -199 0
391 -199 386 0
392 -201 208 386 0
-392 201 0
-392 -386 0
-392 -208 0
393 382 -387 0
-393 -382 0
-393 387 0
394 -395 396 0
394 -563 396 0
-394 -396 0
-394 563 395 0
395 562 -219 0
-395 -562 0
-395 219 0
-396 212 397 0
396 -212 0
396 -397 0
397 -359 349 0
-397 359 0
-397 -349 0
398 395 -215 0
-398 -395 0
-398 215 0
-399 216 400 0
399 -216 0
399 -400 0
-400 563 218 0
400 -563 0
400 -218 0
401 216 -217 0
401 -216 217 0
-401 -216 -217 0
-401 216 217 0
-402 -213 -396 0
-402 213 395 0
402 213 -395 0
402 -213 396 0
403 211 -212 397 0
403 211 397 -400 0
-403 -211 0
-403 -397 0
-403 212 400 0
-404 -157 -406 0
-404 157 405 0
404 157 -405 0
404 -157 406 0
405 569 -164 0
-405 -569 0
-405 164 0
-406 156 407 0
406 -156 0
406 -407 0
407 355 -358 -349 0
-407 -355 0
-407 358 0
-407 349 0
408 -405 406 0
408 -571 406 0
-408 -406 0
-408 571 405 0
409 155 -156 407 0
409 155 407 -410 0
-409 -155 0
-409 -407 0
-409 156 410 0
-410 571 163 0
410 -571 0
410 -163 0
411 405 -160 0
-411 -405 0
-411 160 0
412 -161 410 0
-412 161 0
-412 -410 0
-413 -161 -162 0
-413 161 162 0
413 161 -162 0
413 -161 162 0
-414 415 416 0
-414 -579 416 0
414 -416 0
414 579 -415 0
-415 574 230 0
415 -574 0
415 -230 0
-416 223 417 0
416 -223 0
416 -417 0
417 -351 -350 0
-417 351 0
-417 350 0
418 222 -419 0
-418 -222 0
-418 419 0
-419 224 416 0
419 -224 0
419 -416 0
-420 222 -223 417 0
-420 222 417 421 0
420 -222 0
420 -417 0
420 223 -421 0
421 579 -229 0
-421 -579 0
-421 229 0
422 227 -228 0
422 -227 228 0
-422 -227 -228 0
-422 227 228 0
423 228 -421 0
-423 -228 0
-423 421 0
424 -415 -226 0
-424 415 0
-424 226 0
-425 188 -189 378 0
-425 188 372 378 0
425 -188 0
425 -378 0
425 189 -372 0
-426 427 428 0
-426 -612 428 0
426 -428 0
426 612 -427 0
-427 581 186 0
427 -581 0
427 -186 0
-428 178 254 0
428 -178 0
428 -254 0
429 179 -428 0
429 -179 -427 0
-429 -179 427 0
-429 179 428 0
-430 -178 253 0
-430 253 431 0
430 -253 0
430 178 -431 0
431 612 -185 0
-431 -612 0
-431 185 0
432 183 -431 0
-432 -183 0
-432 431 0
-433 434 435 0
-433 -591 435 0
433 -435 0
433 591 -434 0
-434 586 240 0
434 -586 0
434 -240 0
-435 233 436 0
435 -233 0
435 -436 0
436 -351 350 0
-436 351 0
-436 -350 0
437 232 -438 0
-437 -232 0
-437 438 0
-438 234 435 0
438 -234 0
438 -435 0
-439 232 -233 436 0
-439 232 436 440 0
439 -232 0
439 -436 0
439 233 -440 0
440 591 -239 0
-440 -591 0
-440 239 0
441 237 -440 0
-441 -237 0
-441 440 0
442 237 -238 0
442 -237 238 0
-442 -237 -238 0
-442 237 238 0
443 -434 -236 0
-443 434 0
-443 236 0
-444 445 446 0
-444 -611 446 0
444 -446 0
444 611 -445 0
-445 592 250 0
445 -592 0
445 -250 0
-446 243 447 0
446 -243 0
446 -447 0
447 -353 349 0
-447 353 0
-447 -349 0
448 -592 -449 0
448 -593 -449 0
448 551 -449 0
-448 449 0
-448 -551 592 593 0
-449 244 446 0
449 -244 0
449 -446 0
-450 -611 447 0
-450 241 447 0
450 -447 0
450 611 -241 0
451 611 247 -249 0
-451 -611 0
-451 249 0
-451 -247 0
452 247 -248 0
452 -247 248 0
-452 -247 -248 0
-452 247 248 0
-453 454 455 0
-453 -610 455 0
453 -455 0
453 610 -454 0
-454 597 174 0
454 -597 0
454 -174 0
-455 167 456 0
455 -167 0
455 -456 0
456 -256 457 0
-456 256 0
-456 -457 0
-457 355 349 0
457 -355 0
457 -349 0
458 166 -455 0
458 -168 166 0
-458 -166 0
-458 168 455 0
-459 166 -167 456 0
-459 166 456 460 0
459 -166 0
459 -456 0
459 167 -460 0
460 610 -173 0
-460 -610 0
-460 173 0
461 171 -460 0
-461 -171 0
-461 460 0
462 171 -172 0
462 -171 172 0
-462 -171 -172 0
-462 171 172 0
463 5 -6 465 0
463 5 -464 465 0
-463 -5 0
-463 -465 0
-463 6 464 0
-464 604 152 0
464 -604 0
464 -152 0
465 -358 457 0
-465 358 0
-465 -457 0
466 -467 468 0
466 -604 468 0
-466 -468 0
-466 604 467 0
467 603 -153 0
-467 -603 0
-467 153 0
-468 6 465 0
468 -6 0
468 -465 0
469 467 -149 0
-469 -467 0
-469 149 0
-470 5 -468 0
-470 7 5 0
470 -5 0
470 -7 468 0
-471 150 464 0
471 -150 0
471 -464 0
-472 150 151 0
-472 -150 -151 0
472 -150 151 0
472 150 -151 0
473 314 -474 0
473 314 -316 0
473 314 -315 0
-473 -314 0
-473 315 316 474 0
474 -353 -349 0
-474 353 0
-474 349 0
-475 313 474 0
-475 -545 314 474 0
475 -474 0
475 -314 -313 0
475 545 -313 0
476 -454 -170 0
-476 454 0
-476 170 0
477 -445 -246 0
-477 445 0
-477 246 0
478 -427 -182 0
-478 427 0
-478 182 0
-617 0
2 0
251 0
-617 0
-371 0
-373 0
374 0
376 0
-379 0
-380 0
384 0
391 0
-392 0
-393 0
-394 0
398 0
399 0
-401 0
402 0
-403 0
404 0
-408 0
-409 0
411 0
-412 0
413 0
414 0
-418 0
420 0
-422 0
-423 0
424 0
425 0
426 0
-429 0
430 0
-432 0
-252 0
433 0
-437 0
439 0
-441 0
-442 0
443 0
444 0
-448 0
450 0
-451 0
-452 0
453 0
-458 0
459 0
-461 0
-462 0
-463 0
-466 0
469 0
470 0
471 0
472 0
-473 0
475 0
476 0
477 0
478 0
-497 0
320 0
349 0
-358 0

