c Result of efficient AIG-to-CNF conversion using package CNF
p cnf 429 1321
2 -413 -3 0
-2 413 0
-2 3 0
3 -380 -4 0
-3 380 0
-3 4 0
4 -403 -5 0
-4 403 0
-4 5 0
5 -366 -6 0
-5 366 0
-5 6 0
6 -352 -7 0
-6 352 0
-6 7 0
7 -364 -8 0
-7 364 0
-7 8 0
8 -412 -9 0
-8 412 0
-8 9 0
9 -404 -407 -410 0
-9 404 0
-9 407 0
-9 410 0
10 340 -413 0
-10 -340 0
-10 413 0
11 329 -413 0
-11 -329 0
-11 413 0
12 358 -413 0
-12 -358 0
-12 413 0
13 -319 -344 0
-13 319 0
-13 344 0
-14 -421 15 0
-14 341 421 0
-14 -421 24 0
14 -341 421 0
14 -421 -15 -24 0
-15 -348 -16 18 0
-15 348 16 18 0
15 -18 0
15 -348 16 0
15 348 -16 0
16 -360 -17 0
-16 360 0
-16 17 0
17 -369 -420 0
-17 369 0
-17 420 0
-18 -394 19 0
-18 19 22 0
-18 -388 19 0
18 -19 0
18 388 394 -22 0
19 -411 -20 0
-19 411 0
-19 20 0
20 -365 -21 0
-20 365 0
-20 21 0
21 -348 -16 0
-21 348 0
-21 16 0
22 334 -23 0
-22 -334 0
-22 23 0
23 -365 411 0
23 365 -411 21 0
-23 -365 -411 0
-23 365 411 0
-23 -411 -21 0
-24 334 388 394 23 0
24 -23 0
24 -394 0
24 -334 0
24 -388 0
25 -386 26 0
25 -349 -26 0
-25 349 -26 0
-25 386 26 0
-26 400 401 428 0
26 -400 0
26 -428 0
26 -401 0
27 -350 28 0
27 -339 -28 0
-27 350 28 0
-27 339 -28 0
28 347 -29 0
-28 -347 0
-28 29 0
29 -329 -340 -30 -33 0
-29 33 0
-29 329 0
-29 30 0
-29 340 0
30 342 -31 0
-30 -342 0
-30 31 0
31 327 -32 0
-31 -327 0
-31 32 0
32 -321 -322 323 -325 0
-32 325 0
-32 321 0
-32 322 0
-32 -323 0
33 -306 314 -324 -351 0
-33 351 0
-33 306 0
-33 324 0
-33 -314 0
34 -35 41 0
34 35 -41 0
-34 35 41 0
-34 -35 -41 0
-35 357 -36 -37 40 0
-35 357 36 37 40 0
-35 -357 36 37 -40 0
-35 -357 -36 -37 -40 0
35 -357 40 0
35 357 -40 0
35 -36 37 0
35 36 -37 0
36 318 -330 0
36 -318 330 0
-36 -318 -330 0
-36 318 330 0
-37 -38 -39 0
-37 38 39 0
37 38 -39 0
37 -38 39 0
38 345 -346 0
38 -345 346 0
-38 -345 -346 0
-38 345 346 0
39 333 -335 0
39 -333 335 0
-39 -333 -335 0
-39 333 335 0
-40 -331 -332 0
-40 331 332 0
40 331 -332 0
40 -331 332 0
-41 -42 -45 0
-41 42 45 0
41 42 -45 0
41 -42 45 0
42 43 -44 0
42 -43 44 0
-42 -43 -44 0
-42 43 44 0
-43 -312 -313 0
-43 312 313 0
43 312 -313 0
43 -312 313 0
44 308 -310 0
44 -308 310 0
-44 -308 -310 0
-44 308 310 0
45 305 -307 0
45 -305 307 0
-45 -305 -307 0
-45 305 307 0
46 -301 352 -7 0
46 -301 -352 7 0
-46 301 0
-46 -352 -7 0
-46 352 7 0
-47 -391 48 0
-47 337 48 0
47 -48 0
47 -337 391 0
48 353 -49 -50 0
48 -353 49 -50 0
-48 50 0
-48 353 49 0
-48 -353 -49 0
49 -368 -422 0
-49 368 0
-49 422 0
50 -391 -51 52 0
-50 391 0
-50 -52 0
-50 51 0
-51 338 371 387 0
51 -338 0
51 -387 0
51 -371 0
52 -377 -53 0
-52 377 0
-52 53 0
53 -409 -54 0
-53 409 0
-53 54 0
54 -378 -55 0
-54 378 0
-54 55 0
55 -353 -49 0
-55 353 0
-55 49 0
56 302 -343 -354 0
56 -302 -343 354 0
-56 343 0
-56 -302 -354 0
-56 302 354 0
-57 355 -428 0
-57 428 58 0
57 -355 -428 0
57 428 -58 0
-58 387 72 73 0
-58 -59 72 73 0
58 -73 0
58 -72 0
58 -387 59 0
59 -52 -60 0
59 371 -387 -52 0
-59 52 0
-59 -371 60 0
-59 387 60 0
-60 371 0
-60 61 70 0
-60 387 61 0
60 -371 -61 0
60 -371 -387 -70 0
61 -377 -409 -62 0
61 377 409 -62 0
-61 62 0
-61 -377 409 0
-61 377 -409 0
62 -338 63 0
62 338 -63 0
-62 338 63 0
-62 -338 -63 0
-63 64 68 0
-63 -353 64 0
-63 64 -67 0
63 -64 0
63 353 67 -68 0
64 -347 -65 -66 0
64 49 -65 -66 0
-64 66 0
-64 65 0
-64 347 -49 0
65 -339 -353 0
65 -353 -368 0
65 -353 422 0
-65 353 0
-65 339 368 -422 0
66 -422 0
66 -341 368 0
66 -337 -368 0
-66 341 368 422 0
-66 337 -368 422 0
67 329 -368 422 0
-67 -329 0
-67 368 0
-67 -422 0
68 -340 69 0
68 -368 69 0
68 -422 69 0
-68 -69 0
-68 340 368 422 0
-69 422 0
-69 -342 -368 0
-69 -327 368 0
69 327 368 -422 0
69 342 -368 -422 0
-70 -338 71 0
-70 338 -377 -409 0
-70 338 -71 0
-70 377 409 71 0
70 -338 -71 0
70 338 377 -409 71 0
70 338 -377 409 71 0
71 -377 409 -54 0
-71 377 0
-71 -409 0
-71 54 0
72 52 -60 0
-72 -52 0
-72 60 0
73 -371 387 -52 62 0
-73 52 0
-73 -62 0
-73 371 0
-73 -387 0
-74 356 75 0
74 -356 0
74 -75 0
75 -388 -394 -87 0
75 -388 -394 -76 0
-75 388 0
-75 394 0
-75 76 87 0
76 77 -78 0
-76 -77 0
-76 78 0
-77 -365 -411 0
-77 365 411 0
77 365 -411 0
77 -365 411 0
-78 -334 -79 0
-78 334 79 0
78 334 -79 0
78 -334 79 0
79 80 -82 84 86 0
-79 -86 0
-79 -84 0
-79 -80 0
-79 82 0
80 329 360 -81 0
80 337 -360 -81 0
-80 81 0
-80 -337 -360 0
-80 -329 360 0
81 -369 420 0
-81 369 0
-81 -420 0
-82 340 360 83 0
-82 341 -360 83 0
82 -83 0
82 -341 -360 0
82 -340 360 0
-83 369 420 0
83 -369 0
83 -420 0
84 327 360 -85 0
84 339 -360 -85 0
-84 85 0
-84 -339 -360 0
-84 -327 360 0
85 369 -420 0
-85 -369 0
-85 420 0
86 342 360 -17 0
86 347 -360 -17 0
-86 17 0
-86 -347 -360 0
-86 -342 360 0
87 -334 -77 23 0
87 334 -77 -23 0
-87 77 0
-87 -334 -23 0
-87 334 23 0
88 89 -92 0
88 -89 92 0
-88 -89 -92 0
-88 89 92 0
89 -90 91 0
89 90 -91 0
-89 90 91 0
-89 -90 -91 0
90 379 -423 0
90 -379 423 0
-90 -379 -423 0
-90 379 423 0
-91 -361 -370 0
-91 361 370 0
91 361 -370 0
91 -361 370 0
92 93 -94 0
92 -93 94 0
-92 -93 -94 0
-92 93 94 0
-93 -415 -424 0
-93 415 424 0
93 415 -424 0
93 -415 424 0
94 389 -395 0
94 -389 395 0
-94 -389 -395 0
-94 389 395 0
95 -301 358 0
-95 301 0
-95 -358 0
96 359 -428 0
96 428 -97 0
-96 -359 -428 0
-96 428 97 0
97 59 -72 -99 0
97 59 98 -99 0
-97 -59 0
-97 99 0
-97 72 -98 0
98 -371 -387 0
98 -371 70 0
-98 371 0
-98 387 -70 0
-99 338 371 387 100 0
99 -100 0
99 -387 0
99 -338 0
99 -371 0
100 377 -409 0
100 -377 409 54 0
-100 -377 -409 0
-100 409 -54 0
-100 377 409 0
-101 -421 102 0
-101 337 102 0
101 -102 0
101 -337 421 0
102 360 -17 -103 0
102 -360 17 -103 0
-102 103 0
-102 360 17 0
-102 -360 -17 0
103 18 -104 0
-103 -18 0
-103 104 0
104 -421 -24 0
-104 421 0
-104 24 0
105 101 -111 0
105 106 -111 0
-105 111 0
-105 -101 -106 0
106 326 -107 0
-106 -326 0
-106 107 0
107 321 323 325 -108 0
-107 108 0
-107 -325 0
-107 -321 0
-107 -323 0
108 -351 -109 0
-108 351 0
-108 109 0
109 -314 319 -344 -110 0
-109 110 0
-109 314 0
-109 344 0
-109 -319 0
110 -306 -324 0
-110 306 0
-110 324 0
111 112 -113 130 0
111 47 -113 130 0
-111 -130 0
-111 113 0
-111 -47 -112 0
112 -326 -107 0
-112 326 0
-112 107 0
-113 114 121 123 125 0
113 -125 0
113 -123 0
113 -114 0
113 -121 0
-114 115 118 120 0
114 -115 0
114 -120 0
114 -118 0
115 -337 -339 -116 -117 0
-115 117 0
-115 337 0
-115 116 0
-115 339 0
116 341 -109 0
-116 -341 0
-116 109 0
117 -321 -323 -325 0
-117 321 0
-117 323 0
-117 325 0
118 339 -341 -109 -119 0
-118 -339 0
-118 119 0
-118 109 0
-118 341 0
119 -321 -323 -325 337 0
-119 325 0
-119 -337 0
-119 321 0
-119 323 0
120 -116 -119 0
-120 116 0
-120 119 0
121 -109 -122 0
-121 109 0
-121 122 0
122 329 -340 -32 0
-122 32 0
-122 340 0
-122 -329 0
123 -321 325 -108 0
123 -321 -108 124 0
-123 321 0
-123 108 0
-123 -325 -124 0
-124 322 323 0
124 -322 0
124 -323 0
-125 107 126 128 129 0
125 -129 0
125 -128 0
125 -107 0
125 -126 0
126 -30 -127 0
-126 30 0
-126 127 0
127 -329 -340 -109 0
-127 329 0
-127 340 0
-127 109 0
128 -327 -32 -127 0
-128 327 0
-128 32 0
-128 127 0
129 -342 -31 -127 0
-129 342 0
-129 31 0
-129 127 0
-130 131 132 133 134 0
130 -134 0
130 -131 0
130 -133 0
130 -132 0
-131 121 129 0
-131 359 397 0
-131 397 129 0
-131 359 121 0
131 -397 -121 0
131 -359 -129 0
-132 337 115 0
-132 297 123 0
-132 115 123 0
-132 297 337 0
132 -297 -115 0
132 -337 -123 0
-133 126 0
-133 -347 417 0
-133 347 401 0
133 347 -401 -126 0
133 -347 -417 -126 0
-134 135 136 0
-134 385 390 0
-134 390 136 0
-134 385 135 0
134 -390 -135 0
134 -385 -136 0
135 347 -128 0
-135 -347 0
-135 128 0
136 -347 -128 0
-136 347 0
-136 128 0
137 -343 362 -138 0
137 -343 -362 138 0
-137 343 0
-137 -362 -138 0
-137 362 138 0
138 -408 -139 0
-138 408 0
-138 139 0
139 -302 -354 -375 0
-139 302 0
-139 354 0
-139 375 0
140 -343 363 -141 0
140 -343 -363 141 0
-140 343 0
-140 -363 -141 0
-140 363 141 0
141 -362 -138 0
-141 362 0
-141 138 0
142 -301 364 -8 0
142 -301 -364 8 0
-142 301 0
-142 -364 -8 0
-142 364 8 0
143 -342 144 0
143 -421 144 0
-143 -144 0
-143 342 421 0
144 -365 -21 -103 0
144 365 21 -103 0
-144 103 0
-144 -365 21 0
-144 365 -21 0
145 -301 366 -6 0
145 -301 -366 6 0
-145 301 0
-145 -366 -6 0
-145 366 6 0
146 -392 26 0
146 -367 -26 0
-146 367 -26 0
-146 392 26 0
-147 -368 -391 0
-147 347 50 0
-147 347 -368 0
-147 -391 50 0
147 -347 391 0
147 368 -50 0
-148 -369 -421 0
-148 347 103 0
-148 347 -369 0
-148 -421 103 0
148 -347 421 0
148 369 -103 0
149 106 -150 152 0
149 148 -150 152 0
-149 -152 0
-149 150 0
-149 -106 -148 0
150 -113 151 0
150 373 -113 0
-150 113 0
-150 -373 -151 0
151 -347 -126 0
-151 347 0
-151 126 0
-152 112 153 156 0
-152 147 153 156 0
152 -156 0
152 -153 0
152 -112 -147 0
-153 154 155 0
-153 356 155 0
153 -155 0
153 -356 -154 0
154 339 -120 0
-154 -339 0
-154 120 0
-155 383 135 0
-155 349 136 0
-155 135 136 0
-155 349 383 0
155 -349 -135 0
155 -383 -136 0
-156 402 157 158 0
-156 129 157 158 0
156 -158 0
156 -157 0
156 -402 -129 0
-157 347 115 0
-157 299 123 0
-157 115 123 0
-157 299 347 0
157 -299 -115 0
157 -347 -123 0
-158 -336 160 0
-158 159 160 0
158 -160 0
158 336 -159 0
159 -339 -120 0
-159 339 0
-159 120 0
-160 421 118 0
-160 376 121 0
-160 118 121 0
-160 376 421 0
160 -376 -118 0
160 -421 -121 0
-161 -391 -97 0
-161 329 391 0
161 -391 97 0
161 -329 391 0
162 -390 26 0
162 -372 -26 0
-162 372 -26 0
-162 390 26 0
-163 373 164 0
163 -373 0
163 -164 0
164 -347 -29 0
-164 347 0
-164 29 0
165 -414 26 0
165 -374 -26 0
-165 374 -26 0
-165 414 26 0
166 -343 375 -167 0
166 -343 -375 167 0
-166 343 0
-166 -375 -167 0
-166 375 167 0
167 -302 -354 0
-167 302 0
-167 354 0
168 -315 376 0
168 376 -34 0
-168 -376 0
-168 315 34 0
-169 50 170 0
-169 377 53 170 0
169 -170 0
169 -53 -50 0
169 -377 -50 0
-170 -391 -52 0
-170 327 391 0
-170 -391 -99 0
170 -327 391 0
170 -391 52 99 0
171 -341 391 172 0
171 -391 -99 172 0
-171 -172 0
-171 -391 99 0
-171 341 391 0
172 -378 -55 -50 0
172 378 55 -50 0
-172 50 0
-172 -378 55 0
-172 378 -55 0
173 14 -174 0
173 106 -174 0
-173 174 0
-173 -14 -106 0
174 112 -113 175 0
174 -113 171 175 0
-174 -175 0
-174 113 0
-174 -112 -171 0
-175 176 177 178 180 0
175 -180 0
175 -176 0
175 -178 0
175 -177 0
-176 384 115 0
-176 296 121 0
-176 115 121 0
-176 296 384 0
176 -296 -115 0
176 -384 -121 0
-177 355 123 0
-177 341 129 0
-177 123 129 0
-177 341 355 0
177 -341 -123 0
177 -355 -129 0
-178 179 135 0
-178 372 400 0
-178 400 135 0
-178 372 179 0
178 -400 -179 0
178 -372 -135 0
179 347 -126 0
-179 -347 0
-179 126 0
-180 151 136 0
-180 425 427 0
-180 427 136 0
-180 425 151 0
180 -427 -151 0
180 -425 -136 0
181 -301 380 -4 0
181 -301 -380 4 0
-181 301 0
-181 -380 -4 0
-181 380 4 0
182 -381 -26 0
182 -349 26 0
-182 381 -26 0
-182 349 26 0
183 -425 26 0
183 -382 -26 0
-183 382 -26 0
-183 425 26 0
184 26 -185 0
184 -383 -26 0
-184 26 185 0
-184 383 -26 0
185 -338 -350 0
185 -334 350 0
-185 334 350 0
-185 338 -350 0
186 -384 187 0
186 -341 -187 0
-186 384 187 0
-186 341 -187 0
187 -33 -122 0
-187 33 0
-187 122 0
188 -419 26 0
188 -385 -26 0
-188 385 -26 0
-188 419 26 0
189 -386 -26 0
189 -374 26 0
-189 386 -26 0
-189 374 26 0
-190 -391 58 0
-190 340 391 0
190 -391 -58 0
190 -340 391 0
-191 -421 192 0
-191 340 421 0
191 -421 -192 0
191 -340 421 0
-192 193 -195 0
-192 388 193 194 0
192 -193 0
192 -388 195 0
192 -194 195 0
193 388 -394 -19 78 0
-193 -388 0
-193 -78 0
-193 19 0
-193 394 0
194 388 -394 -76 0
-194 76 0
-194 394 0
-194 -388 0
195 -19 -196 0
195 -388 394 -19 0
-195 19 0
-195 388 196 0
-195 -394 196 0
-196 394 0
-196 76 87 0
-196 388 76 0
196 -394 -76 0
196 -388 -394 -87 0
197 106 198 -199 0
197 191 198 -199 0
-197 199 0
-197 -198 0
-197 -106 -191 0
198 -112 -190 0
-198 112 0
-198 190 0
199 426 -150 200 0
199 135 -150 200 0
-199 -200 0
-199 150 0
-199 -426 -135 0
-200 136 201 0
-200 386 201 0
200 -201 0
200 -386 -136 0
-201 340 115 0
-201 292 123 0
-201 115 123 0
-201 292 340 0
201 -292 -115 0
201 -340 -123 0
202 -390 -26 0
202 -381 26 0
-202 390 -26 0
-202 381 26 0
203 -391 187 0
203 -339 -187 0
-203 391 187 0
-203 339 -187 0
204 -398 26 0
204 -392 -26 0
-204 392 -26 0
-204 398 26 0
205 -343 393 -206 0
205 -343 -393 206 0
-205 343 0
-205 -393 -206 0
-205 393 206 0
206 -396 -207 0
-206 396 0
-206 207 0
207 -416 -208 0
-207 416 0
-207 208 0
208 -363 -141 0
-208 363 0
-208 141 0
-209 -421 -210 0
-209 329 421 0
209 -421 210 0
209 -329 421 0
210 -24 193 195 211 0
-210 -211 0
-210 -195 0
-210 24 0
-210 -193 0
211 -388 -394 212 0
211 -394 87 212 0
-211 394 0
-211 -212 0
-211 388 -87 0
212 19 -196 0
-212 -19 0
-212 196 0
213 106 214 -215 0
213 209 214 -215 0
-213 215 0
-213 -214 0
-213 -106 -209 0
214 -112 -161 0
-214 112 0
-214 161 0
215 374 -150 216 0
215 136 -150 216 0
-215 -216 0
-215 150 0
-215 -374 -136 0
-216 135 217 0
-216 367 217 0
216 -217 0
216 -367 -135 0
-217 329 115 0
-217 293 123 0
-217 115 123 0
-217 293 329 0
217 -293 -115 0
217 -329 -123 0
218 -343 396 -207 0
218 -343 -396 207 0
-218 343 0
-218 -396 -207 0
-218 396 207 0
219 -397 187 0
219 -337 -187 0
-219 397 187 0
-219 337 -187 0
220 -398 -26 0
220 -372 26 0
-220 398 -26 0
-220 372 26 0
221 -399 164 0
221 -339 -164 0
-221 399 164 0
-221 339 -164 0
222 -400 28 0
222 -341 -28 0
222 28 -223 0
-222 341 -28 0
-222 400 28 223 0
223 350 -19 224 0
223 -350 224 -52 0
-223 -224 0
-223 -350 52 0
-223 350 19 0
-224 401 428 0
224 -401 0
224 -428 0
-225 28 -226 0
-225 337 -28 0
-225 401 28 0
225 -337 -28 0
225 -401 28 226 0
226 -350 428 -71 0
226 350 428 -227 0
-226 -428 0
-226 -350 71 0
-226 350 227 0
227 365 -411 -21 0
-227 21 0
-227 411 0
-227 -365 0
228 402 -428 0
228 428 -210 0
-228 -402 -428 0
-228 428 210 0
229 -301 403 -5 0
229 -301 -403 5 0
-229 301 0
-229 -403 -5 0
-229 403 5 0
230 -301 404 231 0
230 -301 -404 -231 0
-230 301 0
-230 -404 231 0
-230 404 -231 0
231 -407 -410 0
-231 407 0
-231 410 0
232 -315 405 0
232 405 -35 0
232 -314 405 0
-232 -405 0
-232 314 315 35 0
-233 406 234 0
233 -406 0
233 -234 0
234 -371 -387 -70 0
234 -371 -387 -61 0
-234 371 0
-234 387 0
-234 61 70 0
235 -301 407 0
-235 301 0
-235 -407 0
236 -343 408 -139 0
236 -343 -408 139 0
-236 343 0
-236 -408 -139 0
-236 408 139 0
237 -342 238 0
237 -391 238 0
-237 -238 0
-237 342 391 0
238 -409 -54 -50 0
238 409 54 -50 0
-238 50 0
-238 -409 54 0
-238 409 -54 0
239 -301 407 -410 0
239 -301 -407 410 0
-239 301 0
-239 -407 -410 0
-239 407 410 0
-240 -421 -18 0
-240 327 421 0
-240 -421 -241 0
240 -327 421 0
240 -421 18 241 0
241 411 20 -24 0
-241 -411 0
-241 24 0
-241 -20 0
242 -301 412 -9 0
242 -301 -412 9 0
-242 301 0
-242 -412 -9 0
-242 412 9 0
243 -301 -413 0
243 -301 -3 0
-243 301 0
-243 413 3 0
244 -414 -26 0
244 -382 26 0
-244 414 -26 0
-244 382 26 0
245 112 246 -247 0
245 169 246 -247 0
-245 247 0
-245 -246 0
-245 -112 -169 0
246 -106 -240 0
-246 106 0
-246 240 0
247 392 -113 248 0
247 -113 135 248 0
-247 -248 0
-247 113 0
-247 -392 -135 0
-248 136 249 0
-248 414 249 0
248 -249 0
248 -414 -136 0
-249 327 115 0
-249 294 123 0
-249 115 123 0
-249 294 327 0
249 -294 -115 0
249 -327 -123 0
250 -343 416 -208 0
250 -343 -416 208 0
-250 343 0
-250 -416 -208 0
-250 416 208 0
251 -417 164 0
251 -337 -164 0
-251 417 164 0
-251 337 -164 0
-252 418 -428 0
-252 428 192 0
252 -418 -428 0
252 428 -192 0
253 -419 -26 0
253 -383 26 0
-253 419 -26 0
-253 383 26 0
-254 -421 255 0
-254 339 255 0
254 -255 0
254 -339 421 0
255 369 -420 -103 0
255 -369 420 -103 0
-255 103 0
-255 369 420 0
-255 -369 -420 0
256 -421 187 0
256 -347 -187 0
-256 421 187 0
-256 347 -187 0
-257 -391 258 0
-257 339 258 0
257 -258 0
257 -339 391 0
258 368 -422 -50 0
258 -368 422 -50 0
-258 50 0
-258 368 422 0
-258 -368 -422 0
259 254 -260 0
259 106 -260 0
-259 260 0
-259 -106 -254 0
260 112 261 -266 0
260 257 261 -266 0
-260 266 0
-260 -261 0
-260 -112 -257 0
-261 405 262 263 0
-261 118 262 263 0
261 -263 0
261 -262 0
261 -405 -118 0
-262 418 123 0
-262 339 129 0
-262 123 129 0
-262 339 418 0
262 -339 -123 0
262 -418 -129 0
-263 -328 264 265 0
-263 159 264 265 0
263 -265 0
263 -264 0
263 328 -159 0
-264 391 115 0
-264 298 121 0
-264 115 121 0
-264 298 391 0
264 -298 -115 0
264 -391 -121 0
-265 406 151 0
-265 399 154 0
-265 151 154 0
-265 399 406 0
265 -399 -151 0
265 -406 -154 0
266 381 -113 267 0
266 -113 135 267 0
-266 -267 0
-266 113 0
-266 -381 -135 0
-267 419 179 0
-267 350 136 0
-267 179 136 0
-267 350 419 0
267 -350 -179 0
267 -419 -136 0
268 237 269 -270 0
268 112 269 -270 0
-268 270 0
-268 -269 0
-268 -112 -237 0
269 -106 -143 0
-269 106 0
-269 143 0
270 398 -113 271 0
270 -113 135 271 0
-270 -271 0
-270 113 0
-270 -398 -135 0
-271 136 272 0
-271 382 272 0
271 -272 0
271 -382 -136 0
-272 342 115 0
-272 295 123 0
-272 115 123 0
-272 295 342 0
272 -295 -115 0
272 -342 -123 0
273 -425 -26 0
273 -385 26 0
-273 425 -26 0
-273 385 26 0
274 -426 -26 0
274 -367 26 0
-274 426 -26 0
-274 367 26 0
275 -427 164 0
275 -341 -164 0
-275 427 164 0
-275 341 -164 0
-276 375 251 277 278 0
-276 -375 -251 277 278 0
276 -277 0
276 375 -251 0
276 -278 0
276 -375 251 0
277 -408 275 0
-277 408 0
-277 -275 0
-278 354 221 279 281 0
-278 -354 -221 279 281 0
278 -281 0
278 -354 221 0
278 -279 0
278 354 -221 0
-279 362 -408 280 0
-279 362 275 280 0
279 -362 0
279 -280 0
279 408 -275 0
-280 363 393 0
280 -363 0
280 -393 0
-281 302 396 416 163 0
-281 -302 -396 -416 -163 0
281 396 -163 0
281 -302 163 0
281 -396 416 0
281 302 -416 0
-429 0
429 0
429 0
429 0
429 0
2 0
10 0
11 0
12 0
415 0
303 0
304 0
305 0
307 0
308 0
-311 0
312 0
313 0
318 0
-339 0
335 0
361 0
370 0
379 0
389 0
338 0
395 0
-347 0
330 0
320 0
345 0
333 0
332 0
346 0
319 0
-13 0
423 0
424 0
331 0
14 0
25 0
27 0
34 0
46 0
47 0
56 0
57 0
74 0
-88 0
-95 0
-96 0
101 0
-105 0
137 0
140 0
142 0
143 0
145 0
146 0
147 0
148 0
-149 0
161 0
162 0
163 0
165 0
166 0
-168 0
169 0
171 0
-173 0
181 0
182 0
183 0
184 0
186 0
188 0
189 0
190 0
191 0
-197 0
202 0
203 0
204 0
205 0
209 0
-213 0
218 0
219 0
220 0
221 0
222 0
225 0
-228 0
229 0
-230 0
-232 0
233 0
235 0
236 0
237 0
239 0
240 0
242 0
243 0
244 0
-245 0
250 0
251 0
252 0
253 0
254 0
256 0
257 0
-259 0
-268 0
273 0
274 0
275 0
276 0

