c Result of efficient AIG-to-CNF conversion using package CNF
p cnf 1662 6410
2 1306 3 -4 0
-2 -1306 0
-2 4 0
-2 -3 0
3 -1340 -1341 -1342 0
-3 1340 0
-3 1341 0
-3 1342 0
-4 1656 5 0
-4 1328 1656 0
4 -1656 0
4 -1328 -5 0
-5 1307 1322 0
-5 1308 1322 0
-5 1305 1322 0
5 -1322 0
5 -1305 -1307 -1308 0
6 -1312 -1345 -7 0
-6 1312 0
-6 1345 0
-6 7 0
7 -1311 -8 0
-7 1311 0
-7 8 0
8 -1310 -1374 0
-8 1310 0
-8 1374 0
9 -1312 -1345 -10 0
-9 1312 0
-9 1345 0
-9 10 0
10 1310 -1311 -1374 0
-10 1374 0
-10 1311 0
-10 -1310 0
11 -1312 -1345 -12 0
-11 1312 0
-11 1345 0
-11 12 0
12 1311 -8 0
-12 -1311 0
-12 8 0
13 -1345 -14 0
-13 1345 0
-13 14 0
14 1310 1311 -1312 -1374 0
-14 -1310 0
-14 1374 0
-14 1312 0
-14 -1311 0
15 -1345 -16 0
-15 1345 0
-15 16 0
16 1312 -7 0
-16 -1312 0
-16 7 0
17 -1345 -18 0
-17 1345 0
-17 18 0
18 1310 -1311 1312 -1374 0
-18 1311 0
-18 -1312 0
-18 -1310 0
-18 1374 0
19 -1345 -20 0
-19 1345 0
-19 20 0
20 1312 -12 0
-20 -1312 0
-20 12 0
21 -1345 -22 0
-21 1345 0
-21 22 0
22 1310 1311 1312 -1374 0
-22 1374 0
-22 -1312 0
-22 -1310 0
-22 -1311 0
23 -1362 1369 -1371 24 0
-23 1371 0
-23 -24 0
-23 1362 0
-23 -1369 0
24 -1299 -1344 0
-24 1299 0
-24 1344 0
25 -1347 26 0
-25 1347 0
-25 -26 0
26 1346 -1572 0
-26 -1346 0
-26 1572 0
27 -1344 -1347 0
-27 1344 0
-27 1347 0
28 -29 -30 0
-28 29 0
-28 30 0
29 -1348 1350 -1351 0
-29 1348 0
-29 -1350 0
-29 1351 0
30 1358 1359 -31 0
-30 31 0
-30 -1359 0
-30 -1358 0
31 -1297 -32 0
-31 1297 0
-31 32 0
32 -1296 1349 0
-32 1296 0
-32 -1349 0
33 -1349 -34 0
-33 1349 0
-33 34 0
34 -1358 1359 0
-34 1358 0
-34 -1359 0
35 -30 -36 0
-35 30 0
-35 36 0
36 -1352 -1362 0
-36 1352 0
-36 1362 0
37 31 -36 0
-37 -31 0
-37 36 0
38 36 -39 0
-38 -36 0
-38 39 0
39 -34 -40 0
-39 34 0
-39 40 0
40 -1297 -41 0
-40 1297 0
-40 41 0
41 -42 -65 0
-41 42 0
-41 65 0
-42 1348 49 0
-42 -43 49 0
42 -49 0
42 -1348 43 0
-43 1360 48 0
-43 30 44 48 0
43 -48 0
43 -1360 -44 0
43 -1360 -30 0
44 1352 -1362 -45 0
44 -1359 -1362 -45 0
-44 45 0
-44 1362 0
-44 -1352 1359 0
45 -46 -47 0
-45 46 0
-45 47 0
46 -1185 -1295 0
-46 1185 0
-46 1295 0
47 1186 -1187 1188 -1295 0
-47 1187 0
-47 -1188 0
-47 -1186 0
-47 1295 0
-48 1348 0
-48 -1350 0
-48 -1351 32 0
48 -1348 1350 1351 0
48 -1348 1350 -32 0
49 -50 61 0
49 -1353 -50 -60 0
-49 50 0
-49 1353 -61 0
-49 60 -61 0
-50 -1348 51 0
-50 1350 51 0
-50 51 58 0
50 -51 0
50 1348 -1350 -58 0
-51 1356 43 52 0
-51 43 52 -57 0
51 -43 0
51 -52 0
51 -1356 57 0
52 -1353 -53 0
52 -1353 -55 -56 0
-52 1353 0
-52 53 56 0
-52 53 55 0
53 1358 1359 -54 0
-53 54 0
-53 -1359 0
-53 -1358 0
54 1297 -32 0
-54 -1297 0
-54 32 0
55 -1185 1186 -1295 0
-55 1185 0
-55 -1186 0
-55 1295 0
56 -1296 1297 34 0
-56 1296 0
-56 -34 0
-56 -1297 0
-57 1348 1350 1351 0
57 -1348 0
57 -1351 0
57 -1350 0
-58 1351 59 0
58 -1351 0
58 -59 0
59 -1182 1183 -1295 0
-59 1182 0
-59 -1183 0
-59 1295 0
60 -1359 -54 -55 0
-60 1359 0
-60 54 0
-60 55 0
61 -58 62 -63 0
61 -1350 62 -63 0
-61 63 0
-61 -62 0
-61 1350 58 0
62 -29 54 0
-62 29 0
-62 -54 0
63 1297 -57 64 0
63 1370 -57 64 0
-63 -64 0
-63 57 0
-63 -1297 -1370 0
64 -1360 -36 0
-64 1360 0
-64 36 0
65 -1350 66 0
65 -51 66 0
-65 -66 0
-65 1350 51 0
66 1353 -50 67 0
66 -50 -60 67 0
-66 -67 0
-66 50 0
-66 -1353 60 0
-67 59 62 69 0
-67 68 62 69 0
67 -69 0
67 -62 0
67 -68 -59 0
68 -1348 1350 1351 0
-68 1348 0
-68 -1351 0
-68 -1350 0
-69 1360 1370 0
-69 -36 -70 0
-69 1360 -70 0
-69 1370 -36 0
69 -1360 36 0
69 -1370 70 0
70 -1296 1297 0
-70 1296 0
-70 -1297 0
71 1380 -54 72 0
-71 -1380 0
-71 54 0
-71 -72 0
72 -1366 -26 -73 0
-72 1366 0
-72 26 0
-72 73 0
-73 1363 74 0
73 -1363 0
73 -74 0
-74 1364 1365 0
74 -1364 0
74 -1365 0
75 -1381 -76 0
-75 1381 0
-75 76 0
76 -1380 -72 0
-76 1380 0
-76 72 0
-77 1570 76 0
-77 1381 -76 0
-77 -1381 76 0
77 -1381 -76 0
77 1381 -1570 76 0
-78 -79 -82 0
-78 79 82 0
78 79 -82 0
78 -79 82 0
79 1340 73 -80 0
-79 80 0
-79 -73 0
-79 -1340 0
80 -1347 -81 0
-80 1347 0
-80 81 0
81 -1341 1342 0
-81 1341 0
-81 -1342 0
82 -1381 -1570 0
-82 1381 0
-82 1570 0
83 -1393 -84 0
-83 1393 0
-83 84 0
84 -1392 -85 0
-84 1392 0
-84 85 0
85 -1391 -86 0
-85 1391 0
-85 86 0
86 -1390 -87 0
-86 1390 0
-86 87 0
87 -1389 -88 0
-87 1389 0
-87 88 0
88 -1388 -89 0
-88 1388 0
-88 89 0
89 -1387 -90 0
-89 1387 0
-89 90 0
90 -1386 -91 0
-90 1386 0
-90 91 0
91 -1385 -92 0
-91 1385 0
-91 92 0
92 -1382 -1383 -1384 0
-92 1382 0
-92 1383 0
-92 1384 0
93 -53 55 -94 0
-93 53 0
-93 -55 0
-93 94 0
94 95 -96 0
-94 -95 0
-94 96 0
-95 42 65 0
95 -42 0
95 -65 0
96 -50 -98 0
96 -1351 50 0
96 -50 -97 0
-96 1351 50 0
-96 -50 97 98 0
97 -29 -54 0
-97 29 0
-97 54 0
-98 1353 1360 70 0
-98 1353 1360 1370 0
98 -1353 0
98 -1360 0
98 -1370 -70 0
99 -1361 -1573 0
-99 1361 0
-99 1573 0
100 -101 -106 111 0
-100 101 0
-100 106 0
-100 -111 0
101 -102 -104 0
-101 102 0
-101 104 0
-102 1295 103 0
-102 1187 1188 103 0
102 -103 0
102 -1188 -1295 0
102 -1187 -1295 0
-103 1295 0
-103 1185 1186 0
103 -1186 -1295 0
103 -1185 -1295 0
-104 1161 1162 105 0
104 -1161 0
104 -105 0
104 -1162 0
105 -1187 1188 -1295 0
-105 1187 0
-105 -1188 0
-105 1295 0
106 107 -109 0
-106 -107 0
-106 109 0
107 1573 -108 0
-107 -1573 0
-107 108 0
-108 1361 1371 0
108 -1361 0
108 -1371 0
-109 1395 110 0
-109 -1394 110 0
-109 1398 110 0
109 -110 0
109 1394 -1395 -1398 0
110 -1394 1395 1397 1398 0
-110 -1398 0
-110 -1397 0
-110 1394 0
-110 -1395 0
111 46 -47 0
111 1361 -47 0
-111 47 0
-111 -1361 -46 0
112 107 -113 0
-112 -107 0
-112 113 0
-113 1395 1399 0
-113 -1394 1399 0
-113 -1398 1399 0
113 -1399 0
113 1394 -1395 1398 0
114 1396 107 -115 0
-114 115 0
-114 -107 0
-114 -1396 0
115 -111 -116 0
-115 111 0
-115 116 0
116 -1394 1395 1397 -1398 0
116 -1394 -1395 1397 1398 0
-116 -1397 0
-116 -1395 -1398 0
-116 1394 0
-116 1395 1398 0
117 -118 121 0
-117 118 0
-117 -121 0
118 -107 119 0
-118 107 0
-118 -119 0
119 -113 -120 0
-119 113 0
-119 120 0
120 -1162 102 0
120 -1161 102 0
-120 -102 0
-120 1161 1162 0
-121 1394 1395 1398 0
121 -1394 0
121 -1398 0
121 -1395 0
122 -113 123 0
-122 113 0
-122 -123 0
123 -107 109 115 124 0
-123 -109 0
-123 -124 0
-123 107 0
-123 -115 0
124 1395 -1397 125 0
-124 -1395 0
-124 1397 0
-124 -125 0
125 -1396 -126 0
-125 1396 0
-125 126 0
126 -107 111 0
-126 107 0
-126 -111 0
-127 -107 -128 0
-127 107 128 0
-127 -107 119 0
127 107 -128 0
127 -107 -119 128 0
128 113 -121 -130 0
128 -121 129 -130 0
-128 130 0
-128 121 0
-128 -113 -129 0
129 -101 126 0
-129 101 0
-129 -126 0
-130 -120 123 0
-130 123 -129 0
-130 109 123 0
130 -123 0
130 -109 120 129 0
131 -132 143 0
-131 132 0
-131 -143 0
-132 -110 139 0
-132 -133 139 0
-132 134 139 0
132 -139 0
132 110 133 -134 0
133 1394 -1395 0
-133 -1394 0
-133 1395 0
-134 108 135 136 0
-134 135 136 138 0
134 -135 0
134 -136 0
134 -108 -138 0
-135 1573 125 0
135 -1573 0
135 -125 0
136 -1396 -108 -116 0
136 1396 -116 -137 0
-136 116 0
-136 1396 137 0
-136 -1396 108 0
137 47 -135 0
137 46 -47 0
137 1361 -47 0
-137 47 135 0
-137 -1361 -46 -47 0
138 -1394 -1395 1397 -1398 0
-138 1398 0
-138 1394 0
-138 1395 0
-138 -1397 0
-139 140 141 0
-139 -101 137 141 0
139 -141 0
139 -140 -137 0
139 101 -140 0
140 1394 -1395 1398 0
-140 -1394 0
-140 1395 0
-140 -1398 0
141 -110 142 0
141 1394 -1398 142 0
-141 -142 0
-141 -1394 110 0
-141 1398 110 0
142 -104 137 0
142 102 -104 0
-142 104 0
-142 -102 -137 0
-143 1573 121 0
143 -1573 0
143 -121 0
-144 -108 -132 0
-144 1573 132 0
144 108 -132 0
144 -1573 132 0
145 -1400 146 108 0
-145 1400 0
-145 -146 0
-145 -108 0
-146 1295 0
-146 1187 1188 0
146 -1188 -1295 0
146 -1187 -1295 0
-147 143 148 0
-147 -143 -148 0
147 -143 148 0
147 143 -148 0
-148 1396 108 0
148 -1396 0
148 -108 0
149 -150 151 0
149 150 -151 0
-149 150 151 0
-149 -150 -151 0
-150 1376 1377 0
150 -1376 0
150 -1377 0
-151 1328 1378 1379 0
151 -1328 0
151 -1379 0
151 -1378 0
152 -153 -161 0
-152 153 0
-152 161 0
153 -1425 154 0
-153 1425 0
-153 -154 0
-154 -1424 155 158 -160 0
-154 1424 155 158 160 0
154 -158 0
154 1424 -160 0
154 -155 0
154 -1424 160 0
-155 1423 156 157 0
-155 -1423 156 -157 0
155 -156 0
155 -1423 157 0
155 1423 -157 0
-156 -1173 1175 -1421 1422 0
-156 1173 -1175 1421 -1422 0
-156 1173 1175 1421 1422 0
-156 -1173 -1175 -1421 -1422 0
156 -1173 1421 0
156 1173 -1421 0
156 1175 -1422 0
156 -1175 1422 0
157 -1177 -1295 0
-157 1177 0
-157 1295 0
158 -1176 -1295 0
158 -1295 -159 0
158 -1178 -1295 0
-158 1295 0
-158 1176 1178 159 0
-159 1174 1181 0
159 -1174 0
159 -1181 0
160 -1180 -1295 0
-160 1180 0
-160 1295 0
161 -1408 162 0
-161 1408 0
-161 -162 0
-162 1406 157 158 163 0
-162 -1406 -157 158 163 0
162 -158 0
162 1406 -157 0
162 -163 0
162 -1406 157 0
-163 -1407 -160 164 0
-163 1407 160 164 0
163 -164 0
163 -1407 160 0
163 1407 -160 0
-164 -1173 1175 -1404 1405 0
-164 1173 -1175 1404 -1405 0
-164 1173 1175 1404 1405 0
-164 -1173 -1175 -1404 -1405 0
164 -1173 1404 0
164 1173 -1404 0
164 1175 -1405 0
164 -1175 1405 0
165 -166 -171 0
-165 166 0
-165 171 0
-166 161 167 0
166 -161 0
166 -167 0
167 -1413 168 0
-167 1413 0
-167 -168 0
-168 1411 157 158 169 0
-168 -1411 -157 158 169 0
168 -158 0
168 1411 -157 0
168 -169 0
168 -1411 157 0
-169 -1412 -160 170 0
-169 1412 160 170 0
169 -170 0
169 -1412 160 0
169 1412 -160 0
-170 -1173 1175 -1409 1410 0
-170 1173 -1175 1409 -1410 0
-170 1173 1175 1409 1410 0
-170 -1173 -1175 -1409 -1410 0
170 -1173 1409 0
170 1173 -1409 0
170 1175 -1410 0
170 -1175 1410 0
171 -1419 172 0
-171 1419 0
-171 -172 0
-172 1417 157 158 173 0
-172 -1417 -157 158 173 0
172 -158 0
172 1417 -157 0
172 -173 0
172 -1417 157 0
-173 -1418 -160 174 0
-173 1418 160 174 0
173 -174 0
173 -1418 160 0
173 1418 -160 0
-174 -1173 1175 -1415 1416 0
-174 1173 -1175 1415 -1416 0
-174 1173 1175 1415 1416 0
-174 -1173 -1175 -1415 -1416 0
174 -1173 1415 0
174 1173 -1415 0
174 1175 -1416 0
174 -1175 1416 0
175 -153 -176 0
-175 153 0
-175 176 0
-176 166 171 0
176 -166 0
176 -171 0
177 -171 -178 0
-177 171 0
-177 178 0
-178 153 167 0
178 -153 0
178 -167 0
179 -1443 -180 0
-179 1443 0
-179 180 0
180 -1442 -181 0
-180 1442 0
-180 181 0
181 -1441 -182 0
-181 1441 0
-181 182 0
182 -1440 -183 0
-182 1440 0
-182 183 0
183 -1439 -184 0
-183 1439 0
-183 184 0
184 -1438 -185 0
-184 1438 0
-184 185 0
185 -1437 -186 0
-185 1437 0
-185 186 0
186 -1436 -187 0
-186 1436 0
-186 187 0
187 -1435 -188 0
-187 1435 0
-187 188 0
188 -1434 -189 0
-188 1434 0
-188 189 0
189 -1433 -190 0
-189 1433 0
-189 190 0
-190 191 192 0
190 -191 0
190 -192 0
191 1402 -150 0
-191 -1402 0
-191 150 0
-192 1429 1430 1431 193 0
192 -193 0
192 -1431 0
192 -1429 0
192 -1430 0
-193 1428 1432 0
193 -1428 0
193 -1432 0
194 195 -231 0
194 -195 231 0
-194 -195 -231 0
-194 195 231 0
-195 -1440 -196 0
-195 1440 196 0
195 1440 -196 0
195 -1440 196 0
196 197 218 225 -228 0
-196 228 0
-196 -197 0
-196 -225 0
-196 -218 0
-197 198 204 209 214 0
197 -214 0
197 -198 0
197 -209 0
197 -204 0
-198 -1529 199 0
-198 -1528 202 0
-198 -1528 -1529 0
-198 199 202 0
198 1529 -202 0
198 1528 -199 0
199 200 -201 0
-199 -200 0
-199 201 0
-200 1444 1445 0
200 -1444 0
200 -1445 0
201 1446 -1447 0
-201 -1446 0
-201 1447 0
202 -201 -203 0
-202 201 0
-202 203 0
203 -1444 1445 0
-203 1444 0
-203 -1445 0
-204 -1253 205 0
-204 -1521 207 0
-204 -1253 -1521 0
-204 205 207 0
204 1253 -207 0
204 1521 -205 0
205 -203 206 0
-205 203 0
-205 -206 0
-206 1446 1447 0
206 -1446 0
206 -1447 0
207 -201 -208 0
-207 201 0
-207 208 0
208 -1444 -1445 0
-208 1444 0
-208 1445 0
-209 -1522 210 0
-209 -1524 212 0
-209 -1522 -1524 0
-209 210 212 0
209 1522 -212 0
209 1524 -210 0
210 200 -211 0
-210 -200 0
-210 211 0
211 -1446 1447 0
-211 1446 0
-211 -1447 0
212 206 -213 0
-212 -206 0
-212 213 0
213 1444 -1445 0
-213 -1444 0
-213 1445 0
-214 -1523 215 0
-214 -1254 217 0
-214 -1254 -1523 0
-214 215 217 0
214 1523 -217 0
214 1254 -215 0
215 200 -216 0
-215 -200 0
-215 216 0
216 -1446 -1447 0
-216 1446 0
-216 1447 0
217 206 -208 0
-217 -206 0
-217 208 0
-218 -1527 219 223 0
-218 219 222 223 0
218 -219 0
218 -223 0
218 1527 -222 0
-219 -1255 220 0
-219 -1252 221 0
-219 -1252 -1255 0
-219 220 221 0
219 1255 -221 0
219 1252 -220 0
220 -208 -216 0
-220 208 0
-220 216 0
221 -203 -216 0
-221 203 0
-221 216 0
222 -208 -211 0
-222 208 0
-222 211 0
223 1256 -224 0
-223 -1256 0
-223 224 0
224 -213 -216 0
-224 213 0
-224 216 0
-225 -1530 226 0
-225 -1525 227 0
-225 -1525 -1530 0
-225 226 227 0
225 1530 -227 0
225 1525 -226 0
226 -203 -211 0
-226 203 0
-226 211 0
227 -201 -213 0
-227 201 0
-227 213 0
228 -1520 229 0
228 -1526 -230 0
228 -1520 -1526 0
228 229 -230 0
-228 1520 230 0
-228 1526 -229 0
229 -211 -213 0
-229 211 0
-229 213 0
-230 200 206 0
230 -200 0
230 -206 0
231 1439 -232 0
231 -232 -243 0
231 1439 -243 0
-231 232 243 0
-231 -1439 232 0
-231 -1439 243 0
232 233 -238 241 242 0
-232 -242 0
-232 -233 0
-232 -241 0
-232 238 0
-233 234 235 236 237 0
233 -237 0
233 -234 0
233 -236 0
233 -235 0
-234 -1510 199 0
-234 -1517 205 0
-234 -1510 -1517 0
-234 199 205 0
234 1510 -205 0
234 1517 -199 0
-235 -1519 210 0
-235 -1513 227 0
-235 -1513 -1519 0
-235 210 227 0
235 1519 -227 0
235 1513 -210 0
-236 -1515 207 0
-236 -1248 229 0
-236 -1248 -1515 0
-236 207 229 0
236 1515 -229 0
236 1248 -207 0
-237 -1514 221 0
-237 -1250 226 0
-237 -1250 -1514 0
-237 221 226 0
237 1514 -226 0
237 1250 -221 0
238 -1511 239 -240 0
238 212 239 -240 0
-238 -239 0
-238 240 0
-238 1511 -212 0
-239 -1247 202 0
-239 -1518 220 0
-239 -1247 -1518 0
-239 202 220 0
239 1247 -220 0
239 1518 -202 0
-240 1509 230 0
240 -1509 0
240 -230 0
-241 -1251 215 0
-241 -1249 224 0
-241 -1249 -1251 0
-241 215 224 0
241 1251 -224 0
241 1249 -215 0
-242 -1516 217 0
-242 -1512 222 0
-242 -1512 -1516 0
-242 217 222 0
242 1516 -222 0
242 1512 -217 0
243 1438 -244 0
243 -244 -255 0
243 1438 -255 0
-243 244 255 0
-243 -1438 244 0
-243 -1438 255 0
244 -245 250 253 254 0
-244 -254 0
-244 245 0
-244 -253 0
-244 -250 0
245 246 247 248 -249 0
-245 249 0
-245 -246 0
-245 -248 0
-245 -247 0
-246 -1504 210 0
-246 -1502 229 0
-246 -1502 -1504 0
-246 210 229 0
246 1504 -229 0
246 1502 -210 0
-247 -1503 215 0
-247 -1244 226 0
-247 -1244 -1503 0
-247 215 226 0
247 1503 -226 0
247 1244 -215 0
-248 -1242 205 0
-248 -1499 220 0
-248 -1242 -1499 0
-248 205 220 0
248 1242 -220 0
248 1499 -205 0
249 -1498 222 0
249 -1505 -230 0
249 -1498 -1505 0
249 222 -230 0
-249 1498 230 0
-249 1505 -222 0
-250 -1506 251 252 0
-250 199 251 252 0
250 -251 0
250 -252 0
250 1506 -199 0
-251 -1243 202 0
-251 -1507 207 0
-251 -1243 -1507 0
-251 202 207 0
251 1243 -207 0
251 1507 -202 0
252 1508 -227 0
-252 -1508 0
-252 227 0
-253 -1245 217 0
-253 -1501 221 0
-253 -1245 -1501 0
-253 217 221 0
253 1245 -221 0
253 1501 -217 0
-254 -1246 212 0
-254 -1500 224 0
-254 -1246 -1500 0
-254 212 224 0
254 1246 -224 0
254 1500 -212 0
255 1437 -256 0
255 -256 -267 0
255 1437 -267 0
-255 256 267 0
-255 -1437 256 0
-255 -1437 267 0
256 257 -262 265 266 0
-256 -266 0
-256 -257 0
-256 -265 0
-256 262 0
-257 258 259 260 261 0
257 -261 0
257 -258 0
257 -260 0
257 -259 0
-258 -1240 212 0
-258 -1489 221 0
-258 -1240 -1489 0
-258 212 221 0
258 1240 -221 0
258 1489 -212 0
-259 -1493 217 0
-259 -1490 229 0
-259 -1490 -1493 0
-259 217 229 0
259 1493 -229 0
259 1490 -217 0
-260 -1239 210 0
-260 -1491 215 0
-260 -1239 -1491 0
-260 210 215 0
260 1239 -215 0
260 1491 -210 0
-261 -1494 202 0
-261 -1496 222 0
-261 -1494 -1496 0
-261 202 222 0
261 1494 -222 0
261 1496 -202 0
262 -1487 263 264 0
262 -230 263 264 0
-262 -263 0
-262 -264 0
-262 1487 230 0
-263 -1492 207 0
-263 -1238 226 0
-263 -1238 -1492 0
-263 207 226 0
263 1492 -226 0
263 1238 -207 0
264 1237 -220 0
-264 -1237 0
-264 220 0
-265 -1497 199 0
-265 -1495 227 0
-265 -1495 -1497 0
-265 199 227 0
265 1497 -227 0
265 1495 -199 0
-266 -1241 205 0
-266 -1488 224 0
-266 -1241 -1488 0
-266 205 224 0
266 1241 -224 0
266 1488 -205 0
267 1436 -268 0
267 -268 -279 0
267 1436 -279 0
-267 268 279 0
-267 -1436 268 0
-267 -1436 279 0
268 -269 274 277 278 0
-268 -278 0
-268 269 0
-268 -277 0
-268 -274 0
269 270 271 272 -273 0
-269 273 0
-269 -270 0
-269 -272 0
-269 -271 0
-270 -1482 227 0
-270 -1486 229 0
-270 -1482 -1486 0
-270 227 229 0
270 1482 -229 0
270 1486 -227 0
-271 -1481 202 0
-271 -1485 226 0
-271 -1481 -1485 0
-271 202 226 0
271 1481 -226 0
271 1485 -202 0
-272 -1479 199 0
-272 -1484 217 0
-272 -1479 -1484 0
-272 199 217 0
272 1479 -217 0
272 1484 -199 0
273 -1476 212 0
273 -1478 -230 0
273 -1476 -1478 0
273 212 -230 0
-273 1476 230 0
-273 1478 -212 0
-274 -1483 275 276 0
-274 222 275 276 0
274 -275 0
274 -276 0
274 1483 -222 0
-275 -1480 207 0
-275 -1233 210 0
-275 -1233 -1480 0
-275 207 210 0
275 1480 -210 0
275 1233 -207 0
276 1234 -215 0
-276 -1234 0
-276 215 0
-277 -1232 205 0
-277 -1477 220 0
-277 -1232 -1477 0
-277 205 220 0
277 1232 -220 0
277 1477 -205 0
-278 -1236 221 0
-278 -1235 224 0
-278 -1235 -1236 0
-278 221 224 0
278 1236 -224 0
278 1235 -221 0
279 1435 -280 0
279 -280 -291 0
279 1435 -291 0
-279 280 291 0
-279 -1435 280 0
-279 -1435 291 0
280 -281 286 289 290 0
-280 -290 0
-280 281 0
-280 -289 0
-280 -286 0
281 282 283 284 -285 0
-281 285 0
-281 -282 0
-281 -284 0
-281 -283 0
-282 -1470 199 0
-282 -1474 210 0
-282 -1470 -1474 0
-282 199 210 0
282 1470 -210 0
282 1474 -199 0
-283 -1227 215 0
-283 -1229 227 0
-283 -1227 -1229 0
-283 215 227 0
283 1227 -227 0
283 1229 -215 0
-284 -1469 212 0
-284 -1468 217 0
-284 -1468 -1469 0
-284 212 217 0
284 1469 -217 0
284 1468 -212 0
285 -1466 226 0
285 -1471 -230 0
285 -1466 -1471 0
285 226 -230 0
-285 1466 230 0
-285 1471 -226 0
-286 222 287 288 0
-286 -1473 287 288 0
286 -288 0
286 -287 0
286 1473 -222 0
287 1226 -220 0
-287 -1226 0
-287 220 0
-288 -1230 207 0
-288 -1228 221 0
-288 -1228 -1230 0
-288 207 221 0
288 1230 -221 0
288 1228 -207 0
-289 -1467 202 0
-289 -1475 205 0
-289 -1467 -1475 0
-289 202 205 0
289 1467 -205 0
289 1475 -202 0
-290 -1472 224 0
-290 -1231 229 0
-290 -1231 -1472 0
-290 224 229 0
290 1472 -229 0
290 1231 -224 0
291 1434 -292 0
291 1434 303 -307 0
291 -292 303 -307 0
-291 292 307 0
-291 -1434 -303 0
-291 -1434 307 0
-291 292 -303 0
-291 -1434 292 0
292 -293 298 301 302 0
-292 -302 0
-292 293 0
-292 -301 0
-292 -298 0
293 294 295 296 -297 0
-293 297 0
-293 -294 0
-293 -296 0
-293 -295 0
-294 -1224 212 0
-294 -1459 221 0
-294 -1224 -1459 0
-294 212 221 0
294 1224 -221 0
294 1459 -212 0
-295 -1460 205 0
-295 -1458 217 0
-295 -1458 -1460 0
-295 205 217 0
295 1460 -217 0
295 1458 -205 0
-296 -1221 207 0
-296 -1222 227 0
-296 -1221 -1222 0
-296 207 227 0
296 1221 -227 0
296 1222 -207 0
297 -1457 199 0
297 -1465 -230 0
297 -1457 -1465 0
297 199 -230 0
-297 1457 230 0
-297 1465 -199 0
-298 -1463 299 300 0
-298 229 299 300 0
298 -299 0
298 -300 0
298 1463 -229 0
-299 -1462 224 0
-299 -1225 226 0
-299 -1225 -1462 0
-299 224 226 0
299 1462 -226 0
299 1225 -224 0
300 1223 -215 0
-300 -1223 0
-300 215 0
-301 -1464 220 0
-301 -1219 222 0
-301 -1219 -1464 0
-301 220 222 0
301 1464 -222 0
301 1219 -220 0
-302 -1461 202 0
-302 -1220 210 0
-302 -1220 -1461 0
-302 202 210 0
302 1461 -210 0
302 1220 -202 0
-303 1433 202 304 0
-303 -1213 1433 304 0
303 -304 0
303 -1433 0
303 1213 -202 0
-304 210 305 306 0
-304 -1455 305 306 0
304 -306 0
304 -305 0
304 1455 -210 0
305 1210 -226 0
-305 -1210 0
-305 226 0
-306 -1211 207 0
-306 -1215 229 0
-306 -1211 -1215 0
-306 207 229 0
306 1211 -229 0
306 1215 -207 0
307 -1212 308 -309 0
307 199 308 -309 0
-307 309 0
-307 -308 0
-307 1212 -199 0
-308 -1214 205 0
-308 -1453 227 0
-308 -1214 -1453 0
-308 205 227 0
308 1214 -227 0
308 1453 -205 0
309 310 311 -312 313 0
-309 -313 0
-309 -310 0
-309 312 0
-309 -311 0
-310 -1216 212 0
-310 -1209 215 0
-310 -1209 -1216 0
-310 212 215 0
310 1216 -215 0
310 1209 -212 0
-311 -1218 220 0
-311 -1208 224 0
-311 -1208 -1218 0
-311 220 224 0
311 1218 -224 0
311 1208 -220 0
312 -1452 221 0
312 -1217 -230 0
312 -1217 -1452 0
312 221 -230 0
-312 1452 230 0
-312 1217 -221 0
-313 -1456 217 0
-313 -1454 222 0
-313 -1454 -1456 0
-313 217 222 0
313 1456 -222 0
313 1454 -217 0
-314 315 316 0
-314 -315 -316 0
314 -315 316 0
314 315 -316 0
315 1440 -196 0
-315 -1440 0
-315 196 0
-316 -1441 -317 0
-316 1441 317 0
316 1441 -317 0
316 -1441 317 0
317 318 323 -326 327 0
-317 -327 0
-317 -318 0
-317 326 0
-317 -323 0
-318 319 320 321 322 0
318 -322 0
318 -319 0
318 -321 0
318 -320 0
-319 -1257 217 0
-319 -1534 220 0
-319 -1257 -1534 0
-319 217 220 0
319 1257 -220 0
319 1534 -217 0
-320 -1533 207 0
-320 -1258 212 0
-320 -1258 -1533 0
-320 207 212 0
320 1533 -212 0
320 1258 -207 0
-321 -1537 224 0
-321 -1261 229 0
-321 -1261 -1537 0
-321 224 229 0
321 1537 -229 0
321 1261 -224 0
-322 -1259 210 0
-322 -1535 215 0
-322 -1259 -1535 0
-322 210 215 0
322 1259 -215 0
322 1535 -210 0
-323 -1532 324 325 0
-323 205 324 325 0
323 -324 0
323 -325 0
323 1532 -205 0
-324 -1541 226 0
-324 -1536 227 0
-324 -1536 -1541 0
-324 226 227 0
324 1541 -227 0
324 1536 -226 0
325 1260 -221 0
-325 -1260 0
-325 221 0
326 -1531 199 0
326 -1539 -230 0
326 -1531 -1539 0
326 199 -230 0
-326 1531 230 0
-326 1539 -199 0
-327 -1538 202 0
-327 -1540 222 0
-327 -1538 -1540 0
-327 202 222 0
327 1538 -222 0
327 1540 -202 0
-328 329 330 0
-328 -329 -330 0
328 -329 330 0
328 329 -330 0
329 1441 -317 0
-329 -1441 0
-329 317 0
-330 -1442 -331 0
-330 1442 331 0
330 1442 -331 0
330 -1442 331 0
331 332 -337 340 341 0
-331 -341 0
-331 -332 0
-331 -340 0
-331 337 0
-332 333 334 335 336 0
332 -336 0
332 -333 0
332 -335 0
332 -334 0
-333 -1266 207 0
-333 -1263 224 0
-333 -1263 -1266 0
-333 207 224 0
333 1266 -224 0
333 1263 -207 0
-334 -1552 202 0
-334 -1551 227 0
-334 -1551 -1552 0
-334 202 227 0
334 1552 -227 0
334 1551 -202 0
-335 -1549 215 0
-335 -1264 222 0
-335 -1264 -1549 0
-335 215 222 0
335 1549 -222 0
335 1264 -215 0
-336 -1547 205 0
-336 -1543 226 0
-336 -1543 -1547 0
-336 205 226 0
336 1547 -226 0
336 1543 -205 0
337 -1548 -338 339 0
337 229 -338 339 0
-337 338 0
-337 -339 0
-337 1548 -229 0
338 -1542 212 0
338 -1544 -230 0
338 -1542 -1544 0
338 212 -230 0
-338 1542 230 0
-338 1544 -212 0
339 1265 -221 0
-339 -1265 0
-339 221 0
-340 -1262 217 0
-340 -1545 220 0
-340 -1262 -1545 0
-340 217 220 0
340 1262 -220 0
340 1545 -217 0
-341 -1546 199 0
-341 -1550 210 0
-341 -1546 -1550 0
-341 199 210 0
341 1546 -210 0
341 1550 -199 0
342 315 -329 0
-342 -315 0
-342 329 0
-343 344 342 0
343 -344 0
343 -342 0
344 -315 316 0
-344 315 0
-344 -316 0
-345 -346 -347 0
-345 346 347 0
345 346 -347 0
345 -346 347 0
346 1442 -331 0
-346 -1442 0
-346 331 0
347 -1443 348 0
-347 1443 0
-347 -348 0
348 349 -354 357 358 0
-348 -358 0
-348 -349 0
-348 -357 0
-348 354 0
-349 350 351 352 353 0
349 -353 0
349 -350 0
349 -352 0
349 -351 0
-350 -1558 221 0
-350 -1270 226 0
-350 -1270 -1558 0
-350 221 226 0
350 1558 -226 0
350 1270 -221 0
-351 -1271 205 0
-351 -1554 224 0
-351 -1271 -1554 0
-351 205 224 0
351 1271 -224 0
351 1554 -205 0
-352 -1269 202 0
-352 -1562 215 0
-352 -1269 -1562 0
-352 202 215 0
352 1269 -215 0
352 1562 -202 0
-353 -1559 199 0
-353 -1561 229 0
-353 -1559 -1561 0
-353 199 229 0
353 1559 -229 0
353 1561 -199 0
354 -1556 355 -356 0
354 217 355 -356 0
-354 -355 0
-354 356 0
-354 1556 -217 0
-355 -1555 207 0
-355 -1268 212 0
-355 -1268 -1555 0
-355 207 212 0
355 1555 -212 0
355 1268 -207 0
-356 1553 230 0
356 -1553 0
356 -230 0
-357 -1560 210 0
-357 -1557 222 0
-357 -1557 -1560 0
-357 210 222 0
357 1560 -222 0
357 1557 -210 0
-358 -1563 220 0
-358 -1267 227 0
-358 -1267 -1563 0
-358 220 227 0
358 1563 -227 0
358 1267 -220 0
359 1443 -348 0
-359 -1443 0
-359 348 0
360 329 -346 0
-360 -329 0
-360 346 0
-361 362 360 0
361 -362 0
361 -360 0
362 -329 330 0
-362 329 0
-362 -330 0
363 -1569 -364 0
-363 1569 0
-363 364 0
364 -1568 -365 0
-364 1568 0
-364 365 0
365 -1565 -1566 -1567 0
-365 1565 0
-365 1566 0
-365 1567 0
366 -367 -371 0
-366 367 0
-366 371 0
-367 1289 -1577 0
-367 368 369 0
-367 -1577 368 0
-367 1289 369 0
367 1577 -369 0
367 -1289 -368 0
368 -1179 -1295 0
-368 1179 0
-368 1295 0
369 -1281 370 0
-369 1281 0
-369 -370 0
-370 1295 0
-370 1172 1179 0
370 -1179 -1295 0
370 -1172 -1295 0
371 -372 -373 0
-371 372 0
-371 373 0
-372 1288 -1576 0
-372 368 369 0
-372 -1576 368 0
-372 1288 369 0
372 1576 -369 0
372 -1288 -368 0
373 -374 -375 0
-373 374 0
-373 375 0
-374 1287 -1575 0
-374 368 369 0
-374 -1575 368 0
-374 1287 369 0
374 1575 -369 0
374 -1287 -368 0
375 -376 377 0
-375 376 0
-375 -377 0
-376 1574 368 0
-376 1286 369 0
-376 368 369 0
-376 1286 1574 0
376 -1286 -368 0
376 -1574 -369 0
-377 -1285 -368 0
-377 1285 370 0
377 1285 -370 0
377 -1285 368 0
378 -379 -384 0
-378 379 0
-378 384 0
-379 1294 -1580 0
-379 380 381 0
-379 -1580 380 0
-379 1294 381 0
379 1580 -381 0
379 -1294 -380 0
380 -1169 -1295 0
-380 1169 0
-380 1295 0
381 -1283 382 0
-381 1283 0
-381 -382 0
-382 380 383 0
382 -380 0
382 -383 0
383 -1168 -1295 0
-383 1168 0
-383 1295 0
384 -385 -390 0
-384 385 0
-384 390 0
385 -386 -387 0
-385 386 0
-385 387 0
-386 1291 -1292 0
-386 380 381 0
-386 -1292 380 0
-386 1291 381 0
386 1292 -381 0
386 -1291 -380 0
387 -388 389 0
-387 388 0
-387 -389 0
-388 1578 380 0
-388 1290 381 0
-388 380 381 0
-388 1290 1578 0
388 -1290 -380 0
388 -1578 -381 0
389 1284 -382 0
389 -1284 380 0
-389 -1284 -380 0
-389 1284 382 0
-390 1293 -1579 0
-390 380 381 0
-390 -1579 380 0
-390 1293 381 0
390 1579 -381 0
390 -1293 -380 0
391 372 374 -392 393 0
-391 -393 0
-391 -372 0
-391 392 0
-391 -374 0
392 376 -377 0
-392 -376 0
-392 377 0
-393 367 394 0
393 -367 0
393 -394 0
394 1281 -370 0
394 368 -370 0
-394 370 0
-394 -1281 -368 0
395 1581 1582 -396 0
-395 396 0
-395 -1582 0
-395 -1581 0
396 1583 1584 -397 0
-396 397 0
-396 -1584 0
-396 -1583 0
397 1585 -398 0
-397 -1585 0
-397 398 0
-398 399 401 0
398 -399 0
398 -401 0
399 -1298 400 0
-399 1298 0
-399 -400 0
-400 1340 1343 0
400 -1340 0
400 -1343 0
401 1340 79 -402 0
401 -1341 79 -402 0
-401 402 0
-401 -79 0
-401 -1340 1341 0
-402 1366 81 0
-402 -1340 1366 0
402 -1366 0
402 1340 -81 0
403 -404 407 0
-403 404 0
-403 -407 0
-404 396 405 0
404 -396 0
404 -405 0
405 -1583 -1584 -406 0
-405 1583 0
-405 1584 0
-405 406 0
406 -1585 398 0
-406 1585 0
-406 -398 0
-407 -1585 -398 0
-407 -1581 398 0
-407 1585 398 0
407 1585 -398 0
407 1581 -1585 398 0
408 -1282 -382 0
408 380 -382 0
-408 382 0
-408 1282 -380 0
409 386 -387 0
409 -386 387 0
-409 -386 -387 0
-409 386 387 0
410 1302 -1372 0
410 -1302 1372 0
-410 -1302 -1372 0
-410 1302 1372 0
411 1303 -412 0
411 -1303 412 0
-411 -1303 -412 0
-411 1303 412 0
412 -1302 -1372 0
-412 1302 0
-412 1372 0
413 1304 -1656 0
-413 -1304 0
-413 1656 0
414 -1305 416 0
414 -415 416 0
-414 -416 0
-414 1305 415 0
415 -1309 -1323 0
-415 1309 0
-415 1323 0
416 -415 -417 0
-416 415 0
-416 417 0
417 -1317 418 -426 0
417 418 425 -426 0
-417 426 0
-417 -418 0
-417 1317 -425 0
-418 -1196 421 423 0
-418 419 421 423 0
418 -423 0
418 -421 0
418 1196 -419 0
419 -1303 -420 0
-419 1303 0
-419 420 0
420 1373 -410 0
-420 -1373 0
-420 410 0
-421 422 0
-421 1303 -1318 0
-421 -1195 -1303 0
421 1303 1318 -422 0
421 1195 -1303 -422 0
422 -1302 -1373 0
-422 1302 0
-422 1373 0
-423 424 0
-423 1303 -1320 0
-423 -1197 -1303 0
423 1303 1320 -424 0
423 1197 -1303 -424 0
424 1302 -1373 0
-424 -1302 0
-424 1373 0
425 -1302 1303 -1372 1373 0
425 1302 -1303 1372 1373 0
-425 -1302 -1303 0
-425 1303 1372 0
-425 -1373 0
-425 1302 -1372 0
426 -1319 -427 0
426 -1321 428 0
426 -1319 -1321 0
426 -427 428 0
-426 1319 -428 0
-426 1321 427 0
-427 1302 1303 1372 1373 0
-427 -1302 -1303 -1372 1373 0
427 -1303 1372 0
427 1302 -1372 0
427 -1373 0
427 -1302 1303 0
428 1303 -420 0
-428 -1303 0
-428 420 0
429 -1657 -430 0
429 -430 4 0
-429 430 0
-429 1657 -4 0
-430 1306 3 0
430 -1306 0
430 -3 0
-431 1657 415 0
431 -1657 0
431 -415 0
-432 -415 -433 0
-432 1308 415 0
432 -415 433 0
432 -1308 415 0
433 -1194 434 -441 0
433 425 434 -441 0
-433 441 0
-433 -434 0
-433 1194 -425 0
-434 -1314 435 438 0
-434 428 435 438 0
434 -438 0
434 -435 0
434 1314 -428 0
-435 -1193 436 0
-435 -1191 437 0
-435 -1191 -1193 0
-435 436 437 0
435 1193 -437 0
435 1191 -436 0
436 -1302 -1303 -1373 0
-436 1302 0
-436 1303 0
-436 1373 0
437 1302 -1303 -1373 0
-437 1373 0
-437 1303 0
-437 -1302 0
-438 -1315 439 0
-438 -1313 440 0
-438 -1313 -1315 0
-438 439 440 0
438 1315 -440 0
438 1313 -439 0
439 -1302 1303 -1373 0
-439 1302 0
-439 -1303 0
-439 1373 0
440 1302 1303 -1373 0
-440 1373 0
-440 -1303 0
-440 -1302 0
441 -1316 419 0
441 -1192 -427 0
441 -1192 -1316 0
441 419 -427 0
-441 1316 427 0
-441 1192 -419 0
442 -443 -445 0
442 -445 -447 0
442 415 443 -447 0
-442 -443 445 0
-442 443 447 0
-442 -415 445 0
443 -1301 -4 0
443 -4 -444 0
-443 4 0
-443 1301 444 0
444 -1322 -1328 0
444 -1305 -1308 -1328 0
-444 1328 0
-444 1305 1322 0
-444 1308 1322 0
445 -1323 -446 0
-445 1323 0
-445 446 0
446 417 -433 0
-446 -417 0
-446 433 0
-447 1309 3 0
447 -1309 0
447 -3 0
448 1310 -1374 0
448 -1310 1374 0
-448 -1310 -1374 0
-448 1310 1374 0
-449 -1311 -8 0
-449 1311 8 0
449 1311 -8 0
449 -1311 8 0
-450 -1312 -7 0
-450 1312 7 0
450 1312 -7 0
450 -1312 7 0
-451 -1346 -16 0
-451 1313 16 0
451 -1313 16 0
451 1346 -16 0
-452 -1346 -18 0
-452 1314 18 0
452 -1314 18 0
452 1346 -18 0
-453 -1346 -20 0
-453 1315 20 0
453 -1315 20 0
453 1346 -20 0
-454 -1346 -22 0
-454 1316 22 0
454 -1316 22 0
454 1346 -22 0
-455 -1369 -14 0
-455 1317 14 0
455 -1317 14 0
455 1369 -14 0
-456 -1369 -16 0
-456 1318 16 0
456 -1318 16 0
456 1369 -16 0
-457 -1369 -18 0
-457 1319 18 0
457 -1319 18 0
457 1369 -18 0
-458 -1369 -20 0
-458 1320 20 0
458 -1320 20 0
458 1369 -20 0
-459 -1369 -22 0
-459 1321 22 0
459 -1321 22 0
459 1369 -22 0
-460 416 461 0
460 -416 0
460 -461 0
461 1328 -5 0
-461 -1328 0
-461 5 0
-462 431 461 0
462 -431 0
462 -461 0
463 -1324 -1585 0
463 -1585 -464 0
-463 1585 0
-463 1324 464 0
464 -1571 -1588 0
-464 1571 0
-464 1588 0
465 -1325 466 0
465 -466 -504 0
465 -466 -502 0
-465 1325 466 0
-465 -466 502 504 0
-466 467 485 488 0
-466 467 -487 488 0
466 -467 0
466 -488 0
466 -485 487 0
467 -1328 -468 -481 0
467 -1328 -468 482 0
-467 1328 0
-467 468 0
-467 481 -482 0
-468 1660 469 475 479 0
468 -469 0
468 -479 0
468 -1660 0
468 -475 0
-469 470 473 0
-469 1325 470 0
469 -470 0
469 -1325 -473 0
470 -471 -472 0
-470 471 0
-470 472 0
471 1327 -1375 0
-471 -1327 0
-471 1375 0
472 -1170 1171 -1295 0
-472 1170 0
-472 -1171 0
-472 1295 0
473 1326 380 -474 0
-473 474 0
-473 -380 0
-473 -1326 0
474 -1327 1375 0
-474 1327 0
-474 -1375 0
475 -1326 -476 0
-475 1326 0
-475 476 0
476 1325 -477 0
-476 -1325 0
-476 477 0
477 -471 478 0
-477 471 0
-477 -478 0
478 -1171 -1295 0
-478 1171 0
-478 1295 0
479 -474 -480 0
-479 474 0
-479 480 0
480 380 -383 0
-480 -380 0
-480 383 0
481 1327 -1375 -472 -480 0
481 -1327 1375 -472 -480 0
-481 480 0
-481 1327 1375 0
-481 472 0
-481 -1327 -1375 0
482 -1660 -483 0
-482 1660 0
-482 483 0
-483 382 484 0
483 -382 0
483 -484 0
-484 1295 0
-484 1170 1171 0
484 -1171 -1295 0
484 -1170 -1295 0
485 -1377 -486 0
-485 1377 0
-485 486 0
486 1376 -480 0
-486 -1376 0
-486 480 0
487 1660 -484 0
487 -1660 472 0
487 1375 -1660 0
-487 1660 484 0
-487 -1375 -1660 -472 0
-488 491 497 0
-488 489 490 497 0
488 -497 0
488 -489 -491 0
488 -490 -491 0
489 -1327 -1379 -1660 -480 0
-489 480 0
-489 1327 0
-489 1660 0
-489 1379 0
-490 1379 0
-490 -1660 -472 0
-490 -382 -472 0
490 -1379 472 0
490 -1379 1660 382 0
-491 472 493 496 0
-491 472 492 493 0
491 -472 0
491 -493 0
491 -492 -496 0
492 -1327 -1375 0
-492 1327 0
-492 1375 0
-493 479 494 495 0
493 -479 0
493 -495 0
493 -494 0
494 -1660 -492 0
-494 1660 0
-494 492 0
495 -1325 -1326 380 -474 0
-495 474 0
-495 1325 0
-495 1326 0
-495 -380 0
496 1325 -1326 0
-496 -1325 0
-496 1326 0
497 -498 -500 0
497 -492 -498 -499 0
-497 498 0
-497 492 500 0
-497 499 500 0
498 -1378 480 0
-498 1378 0
-498 -480 0
499 -1325 1326 0
-499 1325 0
-499 -1326 0
-500 470 494 501 0
500 -470 0
500 -501 0
500 -494 0
501 -1325 -1326 -477 0
-501 1325 0
-501 1326 0
-501 477 0
502 -485 -503 0
-502 485 0
-502 503 0
-503 1660 484 0
503 -1660 0
503 -484 0
504 1379 -1660 -479 0
504 -1379 -472 -479 0
-504 479 0
-504 -1379 472 0
-504 1379 1660 0
505 -1326 466 0
505 -466 -507 0
505 -466 -506 0
-505 1326 466 0
-505 -466 506 507 0
506 -470 -485 0
-506 470 0
-506 485 0
507 1378 -1379 -508 0
507 1378 479 -508 0
-507 -1378 0
-507 508 0
-507 1379 -479 0
508 -482 490 0
508 -1379 490 0
-508 -490 0
-508 1379 482 0
509 -510 -533 0
509 -1327 510 0
509 -510 -527 0
-509 1327 510 0
-509 -510 527 533 0
-510 512 516 0
-510 472 511 516 0
510 -516 0
510 -472 -512 0
510 -511 -512 0
-511 -1325 493 0
-511 473 492 493 0
511 -493 0
511 1325 -473 0
511 1325 -492 0
512 -1379 515 0
512 -1379 382 513 0
-512 1379 0
-512 -382 -515 0
-512 -513 -515 0
513 -1660 -514 0
-513 1660 0
-513 514 0
-514 1327 1375 0
514 -1327 0
514 -1375 0
515 -1660 -472 0
515 -472 480 0
515 -472 -514 0
-515 472 0
-515 1660 -480 514 0
-516 498 518 521 0
-516 517 518 521 0
516 -521 0
516 -518 0
516 -498 -517 0
-517 -1326 500 0
-517 476 492 500 0
517 -500 0
517 1326 -476 0
517 1326 -492 0
518 483 -519 0
518 514 -519 -520 0
-518 519 0
-518 -483 520 0
-518 -483 -514 0
519 -1328 -1660 0
-519 1328 0
-519 1660 0
-520 472 480 0
-520 -382 -484 0
-520 472 -484 0
-520 -382 480 0
520 382 -472 0
520 -480 484 0
-521 485 524 0
-521 -522 524 0
521 -524 0
521 -485 522 0
-522 1660 478 514 0
-522 478 523 514 0
-522 1660 478 523 0
522 -1660 -523 0
522 -1660 -514 0
522 -478 0
522 -523 -514 0
523 -1170 -1295 0
-523 1170 0
-523 1295 0
524 -470 -525 0
524 -525 -526 0
524 -476 -525 0
-524 525 0
-524 470 476 526 0
525 -1328 1660 0
-525 1328 0
-525 -1660 0
-526 473 479 0
526 -473 0
526 -479 0
527 490 -529 0
527 -1326 -528 -529 0
-527 529 0
-527 -490 528 0
-527 1326 -490 0
528 -474 -480 0
528 -1660 474 0
-528 -474 480 0
-528 1660 474 0
-529 1379 -531 0
-529 1379 1660 530 0
529 -1379 0
529 -1660 531 0
529 -530 531 0
530 -1326 -472 0
530 -1326 -474 0
-530 1326 0
-530 472 474 0
-531 1378 -480 0
-531 1378 532 0
531 -1378 0
531 480 -532 0
-532 1660 474 0
532 -1660 0
532 -474 0
-533 -472 534 0
-533 502 534 0
533 -534 0
533 472 -502 0
534 -1326 -498 -535 0
-534 1326 0
-534 498 0
-534 535 0
-535 -471 472 0
-535 1660 471 0
535 -471 -472 0
535 -1660 471 0
-536 -537 538 539 0
-536 1328 538 539 0
536 -539 0
536 -538 0
536 -1328 537 0
-537 -514 524 0
-537 525 524 0
537 -524 0
537 514 -525 0
538 -494 -498 0
538 523 -498 -501 0
-538 498 0
-538 -523 494 0
-538 494 501 0
-539 540 542 0
-539 -480 540 0
539 -540 0
539 480 -542 0
540 -541 -494 0
540 383 -541 -495 0
-540 541 0
-540 -383 494 0
-540 494 495 0
541 -1379 472 0
-541 1379 0
-541 -472 0
542 -1660 150 472 0
-542 1660 0
-542 -150 0
-542 -472 0
543 -1172 1179 -1295 0
-543 1172 0
-543 -1179 0
-543 1295 0
-544 -1184 -543 0
-544 1330 543 0
544 -1330 543 0
544 1184 -543 0
-545 -1190 -543 0
-545 1331 543 0
545 -1331 543 0
545 1190 -543 0
-546 -1160 -543 0
-546 1332 543 0
546 -1332 543 0
546 1160 -543 0
-547 1333 543 0
-547 1163 -543 0
547 -1333 543 0
547 -1163 -543 0
-548 -1164 -543 0
-548 1334 543 0
548 -1334 543 0
548 1164 -543 0
-549 1335 543 0
-549 1167 -543 0
549 -1335 543 0
549 -1167 -543 0
-550 1336 543 0
-550 1159 -543 0
550 -1336 543 0
550 -1159 -543 0
-551 1337 543 0
-551 1189 -543 0
551 -1337 543 0
551 -1189 -543 0
552 1338 -553 0
552 -1338 553 0
-552 -1338 -553 0
-552 1338 553 0
553 -1366 -1367 0
-553 1366 0
-553 1367 0
-554 -1339 -555 0
-554 1339 555 0
554 1339 -555 0
554 -1339 555 0
555 -1338 -1366 -1367 0
-555 1338 0
-555 1366 0
-555 1367 0
556 -1340 569 0
556 -557 569 0
-556 -569 0
-556 1340 557 0
-557 1342 558 566 0
-557 558 565 566 0
557 -566 0
557 -558 0
557 -1342 -565 0
558 -1362 559 -564 0
558 559 -562 -564 0
-558 564 0
-558 -559 0
-558 1362 562 0
559 -1362 1572 560 0
559 -1362 560 561 0
-559 1362 0
-559 -560 0
-559 -1572 -561 0
560 -1347 -1362 -1371 -73 0
-560 1371 0
-560 73 0
-560 1347 0
-560 1362 0
561 -1346 -1369 0
-561 1346 0
-561 1369 0
562 73 -563 0
-562 -73 0
-562 563 0
563 -1369 -26 0
-563 1369 0
-563 26 0
564 -1340 -81 0
-564 1340 0
-564 81 0
-565 1340 -1341 0
-565 1340 26 0
565 -1340 0
565 1341 -26 0
-566 567 399 568 0
-566 -103 399 568 0
566 -568 0
566 -399 0
566 -567 103 0
567 -1341 -1342 0
-567 1341 0
-567 1342 0
568 1340 -81 0
-568 -1340 0
-568 81 0
569 -570 -572 0
569 -74 -80 -572 0
-569 572 0
-569 74 570 0
-569 80 570 0
-570 1340 -563 0
-570 1340 571 0
570 -1340 0
570 563 -571 0
571 1341 -1342 0
-571 -1341 0
-571 1342 0
572 -1343 564 0
572 -560 -573 0
572 -1343 -560 0
572 564 -573 0
-572 560 -564 0
-572 1343 573 0
573 1369 -1572 0
573 -1299 -1344 -1572 0
-573 1572 0
-573 1344 -1369 0
-573 1299 -1369 0
574 -1341 575 0
574 -575 -576 0
-574 1341 575 0
-574 -575 576 0
-575 1572 557 0
-575 1344 557 0
575 -557 0
575 -1344 -1572 0
-576 1344 -562 577 0
-576 1344 571 577 0
576 -1344 0
576 -577 0
576 562 -571 0
-577 1342 0
-577 1340 1341 0
-577 -1340 -1341 0
577 1340 -1341 -1342 0
577 -1340 1341 -1342 0
578 -1342 575 0
578 -575 -579 0
-578 1342 575 0
-578 -575 579 0
-579 1341 1342 0
-579 -1340 -1341 -1342 0
-579 1340 1341 562 0
579 1340 -1341 0
579 -1340 1341 -1342 0
579 -1341 1342 0
579 1340 -1342 -562 0
-580 574 578 0
580 -574 0
580 -578 0
581 -556 580 0
-581 556 0
-581 -580 0
-582 580 583 0
582 -580 0
582 -583 0
583 1650 -556 0
-583 -1650 0
-583 556 0
-584 -3 581 0
-584 -1651 -581 0
-584 1346 581 0
584 1651 -581 0
584 -1346 3 581 0
-585 586 -587 0
-585 1347 586 0
585 -586 0
585 -1347 587 0
586 -1344 -26 0
-586 1344 0
-586 26 0
587 -556 -588 0
-587 556 0
-587 588 0
588 574 -578 0
-588 -574 0
-588 578 0
589 1347 -81 0
589 -1349 81 -590 0
-589 81 590 0
-589 -1347 -81 0
-589 1349 81 0
-590 1340 1342 0
590 -1340 0
590 -1342 0
-591 -1370 32 0
-591 1352 1370 0
-591 1370 592 0
591 -1370 -32 0
591 -1352 1370 -592 0
-592 95 96 0
592 -95 0
592 -96 0
593 -1354 595 0
593 -594 -595 0
593 -94 595 0
-593 594 -595 0
-593 1354 94 595 0
594 -1359 -54 0
-594 1359 0
-594 54 0
595 1350 -1351 -56 0
-595 56 0
-595 1351 0
-595 -1350 0
596 -1355 587 0
596 -588 587 0
-596 -587 0
-596 1355 588 0
597 1355 -574 578 0
-597 -1355 0
-597 574 0
-597 -578 0
-598 -399 586 0
-598 1357 586 0
598 -586 0
598 -1357 399 0
-599 -1358 -600 605 0
-599 1358 604 605 0
599 -605 0
599 1358 -604 0
599 -1358 600 0
-600 1356 601 603 0
600 -603 0
600 -601 0
600 -1356 0
601 -96 -602 0
-601 96 0
-601 602 0
602 42 -65 0
-602 -42 0
-602 65 0
-603 1352 0
-603 1362 54 0
-603 1354 1362 0
603 -1352 -1362 0
603 -1352 -1354 -54 0
604 1356 -603 0
-604 -1356 0
-604 603 0
605 -1356 -1357 0
-605 1356 0
-605 1357 0
-606 1359 605 607 0
-606 -600 605 607 0
606 -607 0
606 -605 0
606 -1359 600 0
607 -1358 -1359 -604 0
607 1358 1359 -604 0
-607 604 0
-607 -1358 1359 0
-607 1358 -1359 0
608 -1361 609 0
608 609 -610 0
608 -94 609 0
-608 -609 0
-608 1361 94 610 0
-609 39 601 0
609 -39 0
609 -601 0
610 -1359 -40 0
610 -1349 -40 0
-610 40 0
-610 1349 1359 0
-611 -103 612 0
-611 610 612 0
-611 1361 612 0
611 -612 0
611 -1361 103 -610 0
612 -1362 609 0
-612 1362 0
-612 -609 0
613 -1343 1363 -614 0
613 -1343 -1363 614 0
-613 1343 0
-613 -1363 -614 0
-613 1363 614 0
614 -1347 1362 615 0
614 -1347 24 615 0
-614 1347 0
-614 -615 0
-614 -1362 -24 0
615 1299 1362 -1369 0
615 1362 -1368 -1369 0
-615 1369 0
-615 -1362 0
-615 -1299 1368 0
616 -1343 1364 -617 0
616 -1343 -1364 617 0
-616 1343 0
-616 -1364 -617 0
-616 1364 617 0
617 1363 -614 0
-617 -1363 0
-617 614 0
618 -400 619 0
-618 400 0
-618 -619 0
619 -1343 1365 617 0
619 -1343 -1364 1365 0
619 -1343 1364 -1365 -617 0
-619 -1364 -1365 0
-619 -1365 617 0
-619 1343 0
-619 1364 1365 -617 0
620 1366 -1367 0
620 -1366 1367 0
-620 -1366 -1367 0
-620 1366 1367 0
621 -1369 622 0
-621 1369 0
-621 -622 0
-622 3 581 0
622 -3 0
622 -581 0
-623 -3 581 0
-623 -1653 -581 0
-623 1369 581 0
623 1653 -581 0
623 -1369 3 581 0
624 96 -602 0
-624 -96 0
-624 602 0
-625 59 626 0
-625 624 626 0
625 -626 0
625 -59 -624 0
626 1349 629 -631 0
626 627 629 -631 0
-626 631 0
-626 -629 0
-626 -1349 -627 0
-627 1361 628 0
-627 -1352 628 0
-627 40 628 0
627 -628 0
627 1352 -1361 -40 0
628 1297 -94 0
-628 -1297 0
-628 94 0
629 -29 -55 -630 0
629 -29 -53 -55 0
-629 29 0
-629 55 0
-629 53 630 0
630 1358 -1359 -31 0
-630 31 0
-630 1359 0
-630 -1358 0
631 1360 -1371 632 0
631 -1371 630 632 0
-631 1371 0
-631 -632 0
-631 -1360 -630 0
632 -1352 -1353 -34 -54 0
-632 54 0
-632 1352 0
-632 34 0
-632 1353 0
633 -1309 -1373 0
-633 1309 0
-633 1373 0
634 1309 -1373 0
634 -1309 1373 0
-634 -1309 -1373 0
-634 1309 1373 0
-635 -636 637 0
-635 636 638 0
-635 1361 636 0
635 -636 -637 0
635 -1361 636 -638 0
636 1340 -1341 -1342 0
-636 1342 0
-636 1341 0
-636 -1340 0
-637 1374 573 0
-637 1374 -103 0
637 -1374 0
637 103 -573 0
-638 74 639 0
-638 563 639 0
638 -639 0
638 -74 -563 0
639 1198 -1371 -561 -564 0
-639 -1198 0
-639 564 0
-639 561 0
-639 1371 0
640 -502 -510 0
640 -1375 510 0
640 -510 -641 0
-640 1375 510 0
-640 502 -510 641 0
641 1378 -642 0
641 -1325 -535 -642 0
-641 642 0
-641 -1378 535 0
-641 1325 -1378 0
-642 -480 643 0
-642 508 643 0
642 -643 0
642 480 -508 0
643 -1325 -1378 0
643 -1325 644 -645 0
-643 1325 0
-643 1378 645 0
-643 1378 -644 0
644 -474 480 0
-644 474 0
-644 -480 0
-645 1379 -1660 0
-645 -1379 -472 0
-645 1660 472 474 0
645 1660 472 -474 0
645 -1379 -1660 472 0
645 1379 1660 -472 0
-646 1376 -647 0
-646 1376 661 0
-646 647 657 661 0
646 -1376 -647 0
646 647 -661 0
646 -1376 -657 0
647 518 -648 656 0
-647 -518 0
-647 648 0
-647 -656 0
648 649 -651 0
648 472 -650 -651 0
-648 651 0
-648 -472 -649 0
-648 -649 650 0
-649 489 512 0
649 -489 0
649 -512 0
650 511 -514 0
-650 -511 0
-650 514 0
651 537 -652 -654 0
651 537 -653 -654 0
-651 654 0
-651 -537 0
-651 652 653 0
652 -514 517 0
-652 514 0
-652 -517 0
-653 1376 480 0
653 -1376 0
653 -480 0
654 -150 486 0
654 -150 655 -522 0
-654 150 0
-654 -486 -655 0
-654 -486 522 0
655 -1375 -1660 -472 0
-655 1375 0
-655 1660 0
-655 472 0
656 -1328 -1660 -481 0
-656 1328 0
-656 1660 0
-656 481 0
-657 644 659 660 0
-657 658 659 660 0
657 -660 0
657 -659 0
657 -644 -658 0
-658 1325 1326 0
658 -1325 0
658 -1326 0
659 -1379 -472 0
659 -1375 -472 0
-659 472 0
-659 1375 1379 0
-660 1660 0
-660 1375 1377 0
660 -1377 -1660 0
660 -1375 -1660 0
661 1376 480 662 -663 0
-661 663 0
-661 -662 0
-661 -1376 0
-661 -480 0
662 -1377 514 0
662 -1377 535 658 0
-662 1377 0
-662 -514 -658 0
-662 -514 -535 0
-663 1377 1660 472 0
663 -1377 0
663 -472 0
663 -1660 0
-664 665 669 0
-664 1377 -648 669 0
664 -669 0
664 -1377 -665 0
664 648 -665 0
-665 486 647 666 668 0
665 -668 0
665 -666 0
665 -486 0
665 -647 0
666 -1376 472 -514 -667 0
-666 667 0
-666 514 0
-666 1376 0
-666 -472 0
-667 528 658 0
-667 1375 1379 528 0
667 -528 0
667 -1375 -658 0
667 -1379 -658 0
668 -1328 -1660 0
668 -1328 -479 0
-668 1328 0
-668 1660 479 0
-669 514 542 0
-669 542 670 0
-669 1378 542 0
669 -542 0
669 -1378 -514 -670 0
-670 -472 671 0
-670 671 658 0
-670 -1327 671 0
670 -671 0
670 1327 472 -658 0
671 -1660 471 0
-671 1660 0
-671 -471 0
672 -652 -673 0
672 498 -673 0
-672 673 0
-672 -498 652 0
-673 1378 486 674 675 0
673 -675 0
673 -674 0
673 -1378 0
673 -486 0
674 -479 -525 0
674 523 -475 -525 0
-674 525 0
-674 -523 479 0
-674 475 479 0
675 -479 -541 0
675 -541 -496 -676 0
-675 541 0
-675 479 496 0
-675 479 676 0
676 1660 -492 0
-676 -1660 0
-676 492 0
-677 1379 678 0
-677 472 650 678 0
677 -678 0
677 -1379 -650 0
677 -1379 -472 0
-678 679 680 681 0
-678 498 679 680 0
678 -680 0
678 -679 0
678 -498 -681 0
679 383 -469 -525 0
679 -470 -469 -525 0
-679 525 0
-679 469 0
-679 -383 470 0
680 150 -472 480 0
-680 -150 0
-680 472 0
-680 -480 0
-681 -1326 470 0
-681 470 676 0
-681 1325 470 0
681 -470 0
681 -1325 1326 -676 0
682 -54 76 -400 0
-682 54 0
-682 400 0
-682 -76 0
683 -684 -400 0
-683 684 0
-683 400 0
-684 1381 76 0
684 -1381 0
684 -76 0
-685 1382 624 0
-685 1382 54 0
-685 -54 624 -686 0
685 -54 -624 0
685 -1382 54 0
685 -1382 686 0
686 1350 -1351 1358 -1359 0
-686 1351 0
-686 -1358 0
-686 -1350 0
-686 1359 0
687 1382 -1383 3 0
687 -1382 1383 3 0
-687 -3 0
-687 1382 1383 0
-687 -1382 -1383 0
688 -1384 3 689 0
688 1384 3 -689 0
-688 -3 0
-688 -1384 -689 0
-688 1384 689 0
689 -1382 -1383 0
-689 1382 0
-689 1383 0
690 -1385 3 92 0
690 1385 3 -92 0
-690 -3 0
-690 -1385 -92 0
-690 1385 92 0
691 -1386 3 91 0
691 1386 3 -91 0
-691 -3 0
-691 -1386 -91 0
-691 1386 91 0
692 -1387 3 90 0
692 1387 3 -90 0
-692 -3 0
-692 -1387 -90 0
-692 1387 90 0
693 -1388 3 89 0
693 1388 3 -89 0
-693 -3 0
-693 -1388 -89 0
-693 1388 89 0
694 -1389 3 88 0
694 1389 3 -88 0
-694 -3 0
-694 -1389 -88 0
-694 1389 88 0
695 -1390 3 87 0
695 1390 3 -87 0
-695 -3 0
-695 -1390 -87 0
-695 1390 87 0
696 -1391 3 86 0
696 1391 3 -86 0
-696 -3 0
-696 -1391 -86 0
-696 1391 86 0
697 -1392 3 85 0
697 1392 3 -85 0
-697 -3 0
-697 -1392 -85 0
-697 1392 85 0
698 -1393 3 0
698 3 -84 0
-698 -3 0
-698 1393 84 0
699 -1361 1371 0
-699 1361 0
-699 -1371 0
700 138 -701 0
700 135 138 -704 0
-700 -138 0
-700 701 704 0
-700 -135 701 0
701 102 -703 0
701 -108 702 -703 0
-701 703 0
-701 -102 108 0
-701 -102 -702 0
-702 47 135 0
702 -47 0
702 -135 0
703 -104 -110 0
-703 104 0
-703 110 0
704 47 -705 0
704 -1394 116 -705 0
-704 705 0
-704 -47 -116 0
-704 1394 -47 0
705 -108 110 -121 -706 0
-705 706 0
-705 121 0
-705 108 0
-705 -110 0
-706 1394 101 0
706 -1394 0
706 -101 0
-707 1400 45 0
-707 -1361 1371 0
-707 1371 1400 0
707 -1371 -45 0
707 1361 -1400 0
707 -1371 -1400 0
708 -370 -709 0
708 -370 714 0
-708 370 0
-708 709 -714 0
709 710 -712 -713 0
-709 -710 0
-709 713 0
-709 712 0
-710 1295 711 0
-710 -1163 711 0
-710 1160 711 0
710 -711 0
710 -1160 1163 -1295 0
711 -1164 1167 -1295 0
-711 1164 0
-711 -1167 0
-711 1295 0
-712 1295 0
-712 1159 1190 0
712 -1190 -1295 0
712 -1159 -1295 0
-713 1295 0
-713 1184 1189 0
713 -1189 -1295 0
713 -1184 -1295 0
714 -715 716 0
-714 715 0
-714 -716 0
-715 1190 710 0
-715 1295 710 0
-715 -1159 710 0
715 -710 0
715 1159 -1190 -1295 0
716 1190 -717 0
716 1295 -717 0
716 -1159 -717 0
-716 717 0
-716 1159 -1190 -1295 0
717 -1160 -1295 711 0
717 -1163 -1295 711 0
-717 1295 0
-717 -711 0
-717 1160 1163 0
-718 -1403 -719 0
-718 1403 719 0
718 1403 -719 0
718 -1403 719 0
719 1202 1203 -720 -739 0
719 -1202 -1203 720 -739 0
-719 -1202 -720 0
-719 1203 720 0
-719 739 0
-719 1202 -1203 0
720 -721 731 0
-720 721 0
-720 -731 0
721 -722 -726 0
-721 722 0
-721 726 0
-722 153 176 -723 0
-722 1427 153 176 0
722 -176 0
722 -153 0
722 -1427 723 0
-723 1207 158 160 724 0
-723 -1207 158 -160 724 0
723 -724 0
723 1207 -160 0
723 -158 0
723 -1207 160 0
-724 -1206 -157 725 0
-724 1206 157 725 0
724 -725 0
724 -1206 157 0
724 1206 -157 0
-725 -1173 1175 -1204 1205 0
-725 1173 -1175 1204 -1205 0
-725 1173 1175 1204 1205 0
-725 -1173 -1175 -1204 -1205 0
725 -1173 1204 0
725 1173 -1204 0
725 1175 -1205 0
725 -1175 1205 0
726 -370 -727 -728 0
726 1199 -370 -727 0
-726 727 0
-726 370 0
-726 -1199 728 0
727 -1159 -1295 -717 0
727 -1190 -1295 -717 0
-727 717 0
-727 1295 0
-727 1159 1190 0
728 -1200 368 727 0
728 -1200 368 729 0
-728 1200 0
-728 -368 0
-728 -727 -729 0
-729 1295 730 0
-729 1167 1189 730 0
729 -730 0
729 -1189 -1295 0
729 -1167 -1295 0
-730 1295 0
-730 1159 1163 0
730 -1163 -1295 0
730 -1159 -1295 0
731 1401 -708 0
731 -1201 -708 732 0
-731 708 0
-731 -1401 -732 0
-731 1201 -1401 0
-732 368 733 738 0
-732 368 714 733 0
732 -368 0
732 -733 0
732 -714 -738 0
733 715 -734 0
733 -716 -729 -734 0
-733 734 0
-733 -715 716 0
-733 -715 729 0
-734 715 735 0
734 -715 0
734 -735 0
-735 1189 736 0
-735 1295 736 0
735 -736 0
735 -1189 -1295 0
736 710 -730 0
736 1160 -737 710 0
-736 -710 0
-736 -1160 730 0
-736 737 730 0
737 -1167 -1295 0
-737 1167 0
-737 1295 0
738 -709 -735 0
-738 709 0
-738 735 0
739 158 -740 0
739 726 731 -740 0
-739 740 0
-739 -158 -731 0
-739 -158 -726 0
-740 720 -742 0
-740 720 741 0
740 -720 0
740 -741 742 0
741 722 -731 0
-741 -722 0
-741 731 0
-742 1403 726 0
-742 1202 1203 726 0
742 -726 0
742 -1203 -1403 0
742 -1202 -1403 0
-743 1404 744 0
-743 1173 -744 0
743 -1404 744 0
743 -1173 -744 0
744 -745 -747 0
744 178 -746 -747 0
-744 747 0
-744 745 746 0
-744 -178 745 0
745 -1414 1426 742 0
-745 1414 0
-745 -1426 0
-745 -742 0
746 -166 -721 0
-746 166 0
-746 721 0
747 158 -741 0
-747 -158 0
-747 741 0
-748 1405 744 0
-748 1175 -744 0
748 -1405 744 0
748 -1175 -744 0
-749 1406 744 0
-749 157 -744 0
749 -157 -744 0
749 -1406 744 0
-750 1407 744 0
-750 160 -744 0
750 -160 -744 0
750 -1407 744 0
751 -752 -754 0
751 -1408 -752 753 0
-751 752 0
-751 -753 754 0
-751 1408 754 0
-752 1408 1414 0
-752 1408 -1426 0
752 -1408 0
752 -1414 1426 0
753 162 -740 0
-753 -162 0
-753 740 0
754 -741 -739 0
-754 741 0
-754 739 0
-755 1409 756 0
-755 1173 -756 0
755 -1409 756 0
755 -1173 -756 0
756 -747 -757 0
756 -178 -746 -747 0
-756 747 0
-756 178 757 0
-756 746 757 0
757 -1414 -1426 742 0
-757 1414 0
-757 1426 0
-757 -742 0
-758 1410 756 0
-758 1175 -756 0
758 -1410 756 0
758 -1175 -756 0
-759 1411 756 0
-759 157 -756 0
759 -157 -756 0
759 -1411 756 0
-760 1412 756 0
-760 160 -756 0
760 -160 -756 0
760 -1412 756 0
-761 1413 762 0
-761 168 -740 762 0
761 -762 0
761 -1413 -168 0
761 -1413 740 0
762 -754 -763 0
-762 754 0
-762 763 0
-763 1413 1426 0
-763 1413 1414 0
763 -1413 0
763 -1414 -1426 0
-764 1414 739 765 0
-764 166 -739 765 0
764 -765 0
764 -1414 739 0
764 -166 -739 0
765 766 -768 0
765 -1425 -767 -768 0
-765 768 0
-765 -766 767 0
-765 1425 -766 0
766 -752 -763 0
-766 752 0
-766 763 0
767 -1414 -1427 0
-767 1414 0
-767 1427 0
768 -1420 -754 0
768 -1419 -754 0
-768 754 0
-768 1419 1420 0
-769 1415 770 0
-769 1173 -770 0
769 -1415 770 0
769 -1173 -770 0
770 -747 -771 0
770 -1420 742 -747 0
-770 747 0
-770 -742 771 0
-770 1420 771 0
771 -171 -721 0
-771 171 0
-771 721 0
-772 1416 770 0
-772 1175 -770 0
772 -1416 770 0
772 -1175 -770 0
-773 1417 770 0
-773 157 -770 0
773 -157 -770 0
773 -1417 770 0
-774 1418 770 0
-774 160 -770 0
774 -160 -770 0
774 -1418 770 0
-775 1419 768 0
-775 172 -740 768 0
775 -768 0
775 -1419 -172 0
775 -1419 740 0
-776 1420 781 0
-776 1420 739 0
-776 -739 777 781 0
776 -1420 739 0
776 -739 -781 0
776 -1420 -777 0
777 -766 -778 -780 0
-777 766 0
-777 778 0
-777 780 0
778 -1427 -741 0
778 1426 -741 779 0
-778 741 0
-778 -1426 1427 0
-778 1427 -779 0
-779 1414 1420 0
779 -1414 0
779 -1420 0
-780 -1420 1425 0
-780 1425 1426 0
-780 -1414 1425 0
780 -1425 0
780 1414 1420 -1426 0
-781 -1420 171 0
-781 171 741 0
-781 -1419 171 0
781 -171 0
781 1419 1420 -741 0
-782 1421 783 0
-782 1173 -783 0
782 -1421 783 0
782 -1173 -783 0
783 -747 -784 0
783 -153 -726 -747 0
-783 747 0
-783 726 784 0
-783 153 784 0
784 1414 1420 -1426 742 0
-784 -1414 0
-784 -742 0
-784 1426 0
-784 -1420 0
-785 1422 783 0
-785 1175 -783 0
785 -1422 783 0
785 -1175 -783 0
-786 1423 783 0
-786 157 -783 0
786 -157 -783 0
786 -1423 783 0
-787 1424 783 0
-787 160 -783 0
787 -160 -783 0
787 -1424 783 0
788 -754 -780 0
788 -1425 -780 789 0
-788 780 0
-788 754 -789 0
-788 1425 754 0
789 154 -740 0
-789 -154 0
-789 740 0
-790 1426 739 791 0
-790 178 -739 791 0
790 -791 0
790 -1426 739 0
790 -178 -739 0
791 763 -768 0
791 -752 -768 792 0
-791 768 0
-791 752 -763 0
-791 -763 -792 0
792 1426 -780 0
792 1427 -780 0
-792 780 0
-792 -1426 -1427 0
-793 1427 794 0
-793 723 -740 794 0
793 -794 0
793 -1427 -723 0
793 -1427 740 0
794 -739 -778 0
-794 739 0
-794 778 0
795 -1428 796 0
795 -796 800 -801 0
795 -796 -800 801 0
-795 1428 796 0
-795 -796 -800 -801 0
-795 -796 800 801 0
796 -191 797 0
796 191 -799 0
-796 191 799 0
-796 -191 -797 0
-797 1431 798 0
797 -1431 0
797 -798 0
798 1300 1329 -370 0
798 1329 368 -370 0
-798 370 0
-798 -1329 0
-798 -1300 -368 0
799 -192 -798 0
-799 192 0
-799 798 0
800 191 -798 0
-800 -191 0
-800 798 0
801 1428 -1432 0
801 -1428 1432 0
-801 -1428 -1432 0
-801 1428 1432 0
-802 -1429 -803 0
-802 1429 803 0
802 1429 -803 0
802 -1429 803 0
803 1428 1432 -796 -800 0
803 -1428 -1432 -796 800 0
-803 1432 800 0
-803 1428 -1432 0
-803 796 0
-803 -1428 -800 0
-804 -1430 -805 0
-804 1430 805 0
804 1430 -805 0
804 -1430 805 0
805 -1429 800 -806 0
805 1429 193 -800 -806 0
-805 -1429 -800 0
-805 1429 800 0
-805 806 0
-805 -193 -800 0
806 -796 -800 0
806 -1428 -1432 -796 0
-806 796 0
-806 1432 800 0
-806 1428 800 0
807 1431 -808 0
807 -1431 808 0
-807 -1431 -808 0
-807 1431 808 0
808 1430 -800 -805 0
808 -1430 800 -805 0
-808 805 0
-808 1430 800 0
-808 -1430 -800 0
-809 -1432 -796 0
-809 1432 796 0
809 1432 -796 0
809 -1432 796 0
810 -1433 190 0
810 1433 -190 0
-810 1433 190 0
-810 -1433 -190 0
811 1434 -189 0
811 -1434 189 0
-811 -1434 -189 0
-811 1434 189 0
812 1435 -188 0
812 -1435 188 0
-812 -1435 -188 0
-812 1435 188 0
813 1436 -187 0
813 -1436 187 0
-813 -1436 -187 0
-813 1436 187 0
814 1437 -186 0
814 -1437 186 0
-814 -1437 -186 0
-814 1437 186 0
815 1438 -185 0
815 -1438 185 0
-815 -1438 -185 0
-815 1438 185 0
816 1439 -184 0
816 -1439 184 0
-816 -1439 -184 0
-816 1439 184 0
817 1440 -183 0
817 -1440 183 0
-817 -1440 -183 0
-817 1440 183 0
818 1441 -182 0
818 -1441 182 0
-818 -1441 -182 0
-818 1441 182 0
819 1442 -181 0
819 -1442 181 0
-819 -1442 -181 0
-819 1442 181 0
-820 1443 180 0
820 -1443 0
820 -180 0
821 1444 -799 0
821 -1444 799 0
-821 -1444 -799 0
-821 1444 799 0
822 1445 -823 0
822 -1445 823 0
-822 -1445 -823 0
-822 1445 823 0
823 -1444 -799 0
-823 1444 0
-823 799 0
824 1446 -825 0
824 -1446 825 0
-824 -1446 -825 0
-824 1446 825 0
825 -1445 -823 0
-825 1445 0
-825 823 0
-826 799 -827 0
-826 1447 222 0
-826 222 -827 0
-826 1447 799 0
826 -222 -799 0
826 -1447 827 0
827 -1446 -825 0
-827 1446 0
-827 825 0
828 1448 -829 0
828 -1448 829 0
-828 -1448 -829 0
-828 1448 829 0
829 -191 797 0
829 -191 -799 0
-829 191 0
-829 -797 799 0
830 1449 -831 0
830 -1449 831 0
-830 -1449 -831 0
-830 1449 831 0
831 -1448 -829 0
-831 1448 0
-831 829 0
832 1450 -833 0
832 -1450 833 0
-832 -1450 -833 0
-832 1450 833 0
833 -1449 -831 0
-833 1449 0
-833 831 0
-834 -835 836 0
-834 1451 836 0
834 -836 0
834 -1451 835 0
835 -1450 -833 0
-835 1450 0
-835 833 0
836 -1450 1451 -833 0
-836 1450 0
-836 -1451 0
-836 833 0
-837 1452 838 0
-837 1433 -838 0
837 -1452 838 0
837 -1433 -838 0
838 1449 1450 1451 -839 0
-838 839 0
-838 -1451 0
-838 -1449 0
-838 -1450 0
839 1448 -829 0
-839 -1448 0
-839 829 0
-840 1453 841 0
-840 1433 -841 0
840 -1453 841 0
840 -1433 -841 0
841 1449 1450 1451 -831 0
-841 831 0
-841 -1451 0
-841 -1449 0
-841 -1450 0
-842 1454 843 0
-842 1433 -843 0
842 -1454 843 0
842 -1433 -843 0
843 1450 1451 -833 0
-843 833 0
-843 -1451 0
-843 -1450 0
-844 1455 845 0
-844 1433 -845 0
844 -1455 845 0
844 -1433 -845 0
845 1449 -1450 1451 -839 0
-845 1450 0
-845 -1451 0
-845 -1449 0
-845 839 0
-846 1456 836 0
-846 1433 -836 0
846 -1456 836 0
846 -1433 -836 0
-847 1457 838 0
-847 1434 -838 0
847 -1457 838 0
847 -1434 -838 0
-848 1458 841 0
-848 1434 -841 0
848 -1458 841 0
848 -1434 -841 0
-849 1459 850 0
-849 1434 -850 0
849 -1459 850 0
849 -1434 -850 0
850 1450 1451 -851 0
-850 851 0
-850 -1451 0
-850 -1450 0
851 -1449 -839 0
-851 1449 0
-851 839 0
-852 1460 843 0
-852 1434 -843 0
852 -1460 843 0
852 -1434 -843 0
-853 1461 845 0
-853 1434 -845 0
853 -1461 845 0
853 -1434 -845 0
-854 1462 855 0
-854 1434 -855 0
854 -1462 855 0
854 -1434 -855 0
855 1449 -1450 1451 -831 0
-855 1450 0
-855 -1451 0
-855 -1449 0
-855 831 0
-856 1463 857 0
-856 1434 -857 0
856 -1463 857 0
856 -1434 -857 0
857 -1450 1451 -851 0
-857 1450 0
-857 -1451 0
-857 851 0
-858 1464 836 0
-858 1434 -836 0
858 -1464 836 0
858 -1434 -836 0
-859 1465 860 0
-859 1434 -860 0
859 -1465 860 0
859 -1434 -860 0
860 1449 1450 -1451 -839 0
-860 -1449 0
-860 839 0
-860 1451 0
-860 -1450 0
-861 1466 838 0
-861 1435 -838 0
861 -1466 838 0
861 -1435 -838 0
-862 1467 841 0
-862 1435 -841 0
862 -1467 841 0
862 -1435 -841 0
-863 1468 850 0
-863 1435 -850 0
863 -1468 850 0
863 -1435 -850 0
-864 1469 843 0
-864 1435 -843 0
864 -1469 843 0
864 -1435 -843 0
-865 1470 845 0
-865 1435 -845 0
865 -1470 845 0
865 -1435 -845 0
-866 1471 855 0
-866 1435 -855 0
866 -1471 855 0
866 -1435 -855 0
-867 1472 857 0
-867 1435 -857 0
867 -1472 857 0
867 -1435 -857 0
-868 1473 836 0
-868 1435 -836 0
868 -1473 836 0
868 -1435 -836 0
-869 1474 860 0
-869 1435 -860 0
869 -1474 860 0
869 -1435 -860 0
-870 1475 871 0
-870 1435 -871 0
870 -1475 871 0
870 -1435 -871 0
871 1449 1450 -1451 -831 0
-871 -1449 0
-871 831 0
-871 1451 0
-871 -1450 0
-872 1476 838 0
-872 1436 -838 0
872 -1476 838 0
872 -1436 -838 0
-873 1477 841 0
-873 1436 -841 0
873 -1477 841 0
873 -1436 -841 0
-874 1478 850 0
-874 1436 -850 0
874 -1478 850 0
874 -1436 -850 0
-875 1479 843 0
-875 1436 -843 0
875 -1479 843 0
875 -1436 -843 0
-876 1480 845 0
-876 1436 -845 0
876 -1480 845 0
876 -1436 -845 0
-877 1481 855 0
-877 1436 -855 0
877 -1481 855 0
877 -1436 -855 0
-878 1482 857 0
-878 1436 -857 0
878 -1482 857 0
878 -1436 -857 0
-879 1483 836 0
-879 1436 -836 0
879 -1483 836 0
879 -1436 -836 0
-880 1484 860 0
-880 1436 -860 0
880 -1484 860 0
880 -1436 -860 0
-881 1485 871 0
-881 1436 -871 0
881 -1485 871 0
881 -1436 -871 0
-882 1486 883 0
-882 1436 -883 0
882 -1486 883 0
882 -1436 -883 0
883 1450 -1451 -851 0
-883 851 0
-883 1451 0
-883 -1450 0
-884 1487 838 0
-884 1437 -838 0
884 -1487 838 0
884 -1437 -838 0
-885 1488 841 0
-885 1437 -841 0
885 -1488 841 0
885 -1437 -841 0
-886 1489 850 0
-886 1437 -850 0
886 -1489 850 0
886 -1437 -850 0
-887 1490 843 0
-887 1437 -843 0
887 -1490 843 0
887 -1437 -843 0
-888 1491 845 0
-888 1437 -845 0
888 -1491 845 0
888 -1437 -845 0
-889 1492 855 0
-889 1437 -855 0
889 -1492 855 0
889 -1437 -855 0
-890 1493 857 0
-890 1437 -857 0
890 -1493 857 0
890 -1437 -857 0
-891 1494 836 0
-891 1437 -836 0
891 -1494 836 0
891 -1437 -836 0
-892 1495 860 0
-892 1437 -860 0
892 -1495 860 0
892 -1437 -860 0
-893 1496 871 0
-893 1437 -871 0
893 -1496 871 0
893 -1437 -871 0
-894 1497 883 0
-894 1437 -883 0
894 -1497 883 0
894 -1437 -883 0
-895 1498 838 0
-895 1438 -838 0
895 -1498 838 0
895 -1438 -838 0
-896 1499 841 0
-896 1438 -841 0
896 -1499 841 0
896 -1438 -841 0
-897 1500 850 0
-897 1438 -850 0
897 -1500 850 0
897 -1438 -850 0
-898 1501 843 0
-898 1438 -843 0
898 -1501 843 0
898 -1438 -843 0
-899 1502 845 0
-899 1438 -845 0
899 -1502 845 0
899 -1438 -845 0
-900 1503 855 0
-900 1438 -855 0
900 -1503 855 0
900 -1438 -855 0
-901 1504 857 0
-901 1438 -857 0
901 -1504 857 0
901 -1438 -857 0
-902 1505 836 0
-902 1438 -836 0
902 -1505 836 0
902 -1438 -836 0
-903 1506 860 0
-903 1438 -860 0
903 -1506 860 0
903 -1438 -860 0
-904 1507 871 0
-904 1438 -871 0
904 -1507 871 0
904 -1438 -871 0
-905 1508 883 0
-905 1438 -883 0
905 -1508 883 0
905 -1438 -883 0
-906 1509 838 0
-906 1439 -838 0
906 -1509 838 0
906 -1439 -838 0
-907 1510 841 0
-907 1439 -841 0
907 -1510 841 0
907 -1439 -841 0
-908 1511 850 0
-908 1439 -850 0
908 -1511 850 0
908 -1439 -850 0
-909 1512 843 0
-909 1439 -843 0
909 -1512 843 0
909 -1439 -843 0
-910 1513 845 0
-910 1439 -845 0
910 -1513 845 0
910 -1439 -845 0
-911 1514 855 0
-911 1439 -855 0
911 -1514 855 0
911 -1439 -855 0
-912 1515 857 0
-912 1439 -857 0
912 -1515 857 0
912 -1439 -857 0
-913 1516 836 0
-913 1439 -836 0
913 -1516 836 0
913 -1439 -836 0
-914 1517 860 0
-914 1439 -860 0
914 -1517 860 0
914 -1439 -860 0
-915 1518 871 0
-915 1439 -871 0
915 -1518 871 0
915 -1439 -871 0
-916 1519 883 0
-916 1439 -883 0
916 -1519 883 0
916 -1439 -883 0
-917 1520 838 0
-917 1440 -838 0
917 -1520 838 0
917 -1440 -838 0
-918 1521 841 0
-918 1440 -841 0
918 -1521 841 0
918 -1440 -841 0
-919 1522 850 0
-919 1440 -850 0
919 -1522 850 0
919 -1440 -850 0
-920 1523 843 0
-920 1440 -843 0
920 -1523 843 0
920 -1440 -843 0
-921 1524 845 0
-921 1440 -845 0
921 -1524 845 0
921 -1440 -845 0
-922 1525 855 0
-922 1440 -855 0
922 -1525 855 0
922 -1440 -855 0
-923 1526 857 0
-923 1440 -857 0
923 -1526 857 0
923 -1440 -857 0
-924 1527 836 0
-924 1440 -836 0
924 -1527 836 0
924 -1440 -836 0
-925 1528 860 0
-925 1440 -860 0
925 -1528 860 0
925 -1440 -860 0
-926 1529 871 0
-926 1440 -871 0
926 -1529 871 0
926 -1440 -871 0
-927 1530 883 0
-927 1440 -883 0
927 -1530 883 0
927 -1440 -883 0
-928 1531 838 0
-928 1441 -838 0
928 -1531 838 0
928 -1441 -838 0
-929 1532 841 0
-929 1441 -841 0
929 -1532 841 0
929 -1441 -841 0
-930 1533 850 0
-930 1441 -850 0
930 -1533 850 0
930 -1441 -850 0
-931 1534 843 0
-931 1441 -843 0
931 -1534 843 0
931 -1441 -843 0
-932 1535 845 0
-932 1441 -845 0
932 -1535 845 0
932 -1441 -845 0
-933 1536 855 0
-933 1441 -855 0
933 -1536 855 0
933 -1441 -855 0
-934 1537 857 0
-934 1441 -857 0
934 -1537 857 0
934 -1441 -857 0
-935 1538 836 0
-935 1441 -836 0
935 -1538 836 0
935 -1441 -836 0
-936 1539 860 0
-936 1441 -860 0
936 -1539 860 0
936 -1441 -860 0
-937 1540 871 0
-937 1441 -871 0
937 -1540 871 0
937 -1441 -871 0
-938 1541 883 0
-938 1441 -883 0
938 -1541 883 0
938 -1441 -883 0
-939 1542 838 0
-939 1442 -838 0
939 -1542 838 0
939 -1442 -838 0
-940 1543 841 0
-940 1442 -841 0
940 -1543 841 0
940 -1442 -841 0
-941 1544 850 0
-941 1442 -850 0
941 -1544 850 0
941 -1442 -850 0
-942 1545 843 0
-942 1442 -843 0
942 -1545 843 0
942 -1442 -843 0
-943 1546 845 0
-943 1442 -845 0
943 -1546 845 0
943 -1442 -845 0
-944 1547 855 0
-944 1442 -855 0
944 -1547 855 0
944 -1442 -855 0
-945 1548 857 0
-945 1442 -857 0
945 -1548 857 0
945 -1442 -857 0
-946 1549 836 0
-946 1442 -836 0
946 -1549 836 0
946 -1442 -836 0
-947 1550 860 0
-947 1442 -860 0
947 -1550 860 0
947 -1442 -860 0
-948 1551 871 0
-948 1442 -871 0
948 -1551 871 0
948 -1442 -871 0
-949 1552 883 0
-949 1442 -883 0
949 -1552 883 0
949 -1442 -883 0
-950 1553 838 0
-950 1443 -838 0
950 -1553 838 0
950 -1443 -838 0
-951 1554 841 0
-951 1443 -841 0
951 -1554 841 0
951 -1443 -841 0
-952 1555 850 0
-952 1443 -850 0
952 -1555 850 0
952 -1443 -850 0
-953 1556 843 0
-953 1443 -843 0
953 -1556 843 0
953 -1443 -843 0
-954 1557 845 0
-954 1443 -845 0
954 -1557 845 0
954 -1443 -845 0
-955 1558 855 0
-955 1443 -855 0
955 -1558 855 0
955 -1443 -855 0
-956 1559 857 0
-956 1443 -857 0
956 -1559 857 0
956 -1443 -857 0
-957 1560 836 0
-957 1443 -836 0
957 -1560 836 0
957 -1443 -836 0
-958 1561 860 0
-958 1443 -860 0
958 -1561 860 0
958 -1443 -860 0
-959 1562 871 0
-959 1443 -871 0
959 -1562 871 0
959 -1443 -871 0
-960 1563 883 0
-960 1443 -883 0
960 -1563 883 0
960 -1443 -883 0
-961 1564 480 0
-961 -1282 1564 0
961 -1564 0
961 1282 -480 0
962 -1565 -380 0
962 1565 -480 0
-962 1565 480 0
-962 -1565 380 0
-963 1566 964 0
-963 -1565 -1566 380 0
-963 380 964 0
-963 1565 1566 0
963 -1566 -380 0
963 -1565 1566 -964 0
963 1565 -1566 -964 0
964 -1282 -480 0
-964 1282 0
-964 480 0
-965 1567 966 0
-965 380 966 0
965 -966 0
965 -1567 -380 0
966 1564 -964 0
966 -1567 967 -964 0
966 1567 -967 -964 0
-966 964 0
-966 -1564 1567 967 0
-966 -1564 -1567 -967 0
967 -1565 -1566 0
-967 1565 0
-967 1566 0
-968 1568 969 0
-968 380 969 0
968 -969 0
968 -1568 -380 0
969 1564 -964 0
969 -1568 365 -964 0
969 1568 -365 -964 0
-969 964 0
-969 -1564 1568 365 0
-969 -1564 -1568 -365 0
970 -964 971 0
970 -1569 -380 971 0
-970 -971 0
-970 1569 964 0
-970 380 964 0
971 -1564 1569 364 0
-971 1564 0
-971 -364 0
-971 -1569 0
972 -401 -682 0
-972 401 0
-972 682 0
973 1571 -1648 0
-973 -1571 0
-973 1648 0
-974 -1652 580 0
-974 580 583 0
-974 580 -975 0
974 -580 0
974 1652 -583 975 0
-975 1649 1654 0
975 -1649 0
975 -1654 0
976 1371 -625 0
-976 -1371 0
-976 625 0
-977 376 377 0
-977 -376 -377 0
977 -376 377 0
977 376 -377 0
978 374 -375 0
978 -374 375 0
-978 -374 -375 0
-978 374 375 0
979 372 -373 0
979 -372 373 0
-979 -372 -373 0
-979 372 373 0
-980 367 371 0
980 -367 0
980 -371 0
-981 -388 -389 0
-981 388 389 0
981 388 -389 0
981 -388 389 0
982 -385 390 0
982 385 -390 0
-982 385 390 0
-982 -385 -390 0
-983 379 384 0
983 -379 0
983 -384 0
984 -1581 396 0
984 -1582 -405 0
984 -1581 -1582 0
-984 1582 -396 0
-984 1581 405 0
-984 1581 1582 0
985 -1582 404 0
985 1582 -404 0
-985 1582 404 0
-985 -1582 -404 0
986 -1583 407 0
986 1583 -407 0
-986 1583 407 0
-986 -1583 -407 0
987 988 -989 0
987 -988 989 0
-987 -988 -989 0
-987 988 989 0
988 1583 -1584 0
988 -1583 1584 0
-988 -1583 -1584 0
-988 1583 1584 0
989 990 -991 0
-989 -990 0
-989 991 0
990 1581 -406 0
-990 -1581 0
-990 406 0
-991 1583 407 0
991 -1583 0
991 -407 0
-992 993 997 0
992 -993 0
992 -997 0
-993 1648 994 0
-993 -1190 1648 0
-993 1648 543 0
993 -1648 0
993 1190 -543 -994 0
994 729 -995 996 0
-994 -729 0
-994 995 0
-994 -996 0
995 -1165 1295 0
995 -1165 1166 0
-995 1165 0
-995 -1166 -1295 0
-996 1295 1585 0
-996 1160 1164 1585 0
996 -1585 0
996 -1164 -1295 0
996 -1160 -1295 0
-997 998 1005 0
997 -998 0
997 -1005 0
998 -1585 999 0
998 999 -1001 0
-998 -999 0
-998 1585 1001 0
-999 1586 1647 1000 0
-999 1586 1647 994 0
999 -1586 0
999 -1647 0
999 -994 -1000 0
1000 1184 -1190 -1295 -543 0
-1000 -1184 0
-1000 543 0
-1000 1295 0
-1000 1190 0
1001 1002 -1003 -1004 0
1001 -1002 734 -1003 0
-1001 1003 0
-1001 -1002 -734 0
-1001 1002 1004 0
1002 -1184 -1295 0
-1002 1184 0
-1002 1295 0
1003 -1165 1295 -543 0
1003 -1165 1166 -543 0
-1003 543 0
-1003 1165 0
-1003 -1166 -1295 0
1004 -716 729 0
-1004 716 0
-1004 -729 0
1005 999 -1006 0
-1005 -999 0
-1005 1006 0
-1006 1585 1003 0
-1006 1585 1002 0
-1006 1585 1004 0
1006 -1585 0
1006 -1002 -1003 -1004 0
1007 -1008 -1009 0
1007 997 -1009 0
-1007 1009 0
-1007 -997 1008 0
1008 993 -998 0
-1008 -993 0
-1008 998 0
1009 -992 1008 0
1009 1006 -992 0
-1009 992 0
-1009 -1006 -1008 0
-1010 1009 1011 0
-1010 1011 1014 0
-1010 464 -1009 1014 0
1010 1009 -1011 0
1010 -1009 -1014 0
1010 -464 -1011 0
-1011 1586 1012 1013 992 0
1011 -1586 0
1011 -992 0
1011 -1013 0
1011 -1012 0
-1012 1583 1584 0
1012 -1583 0
1012 -1584 0
-1013 1581 1582 0
1013 -1581 0
1013 -1582 0
1014 1571 -1587 1588 0
-1014 -1571 0
-1014 1587 0
-1014 -1588 0
1015 1571 -1588 0
1015 -1571 1588 0
-1015 -1571 -1588 0
-1015 1571 1588 0
1016 1585 -1589 0
1016 -1585 1589 0
-1016 -1585 -1589 0
-1016 1585 1589 0
-1017 -1590 -1018 0
-1017 1590 1018 0
1017 1590 -1018 0
1017 -1590 1018 0
1018 -1585 -1589 0
-1018 1585 0
-1018 1589 0
1019 1591 -1020 0
1019 -1591 1020 0
-1019 -1591 -1020 0
-1019 1591 1020 0
1020 -1590 -1018 0
-1020 1590 0
-1020 1018 0
1021 -1022 -1023 0
1021 -1592 1022 0
-1021 -1022 1023 0
-1021 1592 1022 0
1022 -1591 -1020 0
-1022 1591 0
-1022 1020 0
1023 -1337 -1585 0
-1023 1337 0
-1023 1585 0
1024 -1023 -1025 0
1024 -1593 1025 0
-1024 1593 1025 0
-1024 1023 -1025 0
1025 -1591 -1026 0
-1025 1591 0
-1025 1026 0
1026 1590 -1018 0
-1026 -1590 0
-1026 1018 0
1027 -1023 -1028 0
1027 -1594 1028 0
-1027 1594 1028 0
-1027 1023 -1028 0
1028 -1585 1589 1590 -1591 0
-1028 1591 0
-1028 -1590 0
-1028 1585 0
-1028 -1589 0
1029 -1023 -1030 0
1029 -1595 1030 0
-1029 1595 1030 0
-1029 1023 -1030 0
1030 1591 -1020 0
-1030 -1591 0
-1030 1020 0
1031 -1023 -1032 0
1031 -1596 1032 0
-1031 1596 1032 0
-1031 1023 -1032 0
1032 -1585 1589 -1590 1591 0
-1032 1590 0
-1032 -1591 0
-1032 1585 0
-1032 -1589 0
1033 -1023 -1034 0
1033 -1597 1034 0
-1033 1597 1034 0
-1033 1023 -1034 0
1034 1591 -1026 0
-1034 -1591 0
-1034 1026 0
1035 -1023 -1036 0
1035 -1598 1036 0
-1035 1598 1036 0
-1035 1023 -1036 0
1036 -1585 1589 1590 1591 0
-1036 -1591 0
-1036 -1590 0
-1036 1585 0
-1036 -1589 0
1037 -1022 -1038 0
1037 -1599 1022 0
-1037 -1022 1038 0
-1037 1599 1022 0
1038 1331 -1585 0
-1038 -1331 0
-1038 1585 0
1039 -1025 -1038 0
1039 -1600 1025 0
-1039 -1025 1038 0
-1039 1600 1025 0
1040 -1028 -1038 0
1040 -1601 1028 0
-1040 -1028 1038 0
-1040 1601 1028 0
1041 -1030 -1038 0
1041 -1602 1030 0
-1041 -1030 1038 0
-1041 1602 1030 0
1042 -1032 -1038 0
1042 -1603 1032 0
-1042 -1032 1038 0
-1042 1603 1032 0
1043 -1034 -1038 0
1043 -1604 1034 0
-1043 -1034 1038 0
-1043 1604 1034 0
1044 -1036 -1038 0
1044 -1605 1036 0
-1044 -1036 1038 0
-1044 1605 1036 0
1045 -1022 -1046 0
1045 -1606 1022 0
-1045 -1022 1046 0
-1045 1606 1022 0
1046 -1336 -1585 0
-1046 1336 0
-1046 1585 0
1047 -1025 -1046 0
1047 -1607 1025 0
-1047 -1025 1046 0
-1047 1607 1025 0
1048 -1028 -1046 0
1048 -1608 1028 0
-1048 -1028 1046 0
-1048 1608 1028 0
1049 -1030 -1046 0
1049 -1609 1030 0
-1049 -1030 1046 0
-1049 1609 1030 0
1050 -1032 -1046 0
1050 -1610 1032 0
-1050 -1032 1046 0
-1050 1610 1032 0
1051 -1034 -1046 0
1051 -1611 1034 0
-1051 -1034 1046 0
-1051 1611 1034 0
1052 -1036 -1046 0
1052 -1612 1036 0
-1052 -1036 1046 0
-1052 1612 1036 0
1053 -1025 -1054 0
1053 -1613 1025 0
-1053 -1025 1054 0
-1053 1613 1025 0
1054 1332 -1585 0
-1054 -1332 0
-1054 1585 0
1055 -1028 -1054 0
1055 -1614 1028 0
-1055 -1028 1054 0
-1055 1614 1028 0
1056 -1030 -1054 0
1056 -1615 1030 0
-1056 -1030 1054 0
-1056 1615 1030 0
1057 -1032 -1054 0
1057 -1616 1032 0
-1057 -1032 1054 0
-1057 1616 1032 0
1058 -1034 -1054 0
1058 -1617 1034 0
-1058 -1034 1054 0
-1058 1617 1034 0
1059 -1036 -1054 0
1059 -1618 1036 0
-1059 -1036 1054 0
-1059 1618 1036 0
1060 -1022 -1061 0
1060 -1619 1022 0
-1060 -1022 1061 0
-1060 1619 1022 0
1061 -1333 -1585 0
-1061 1333 0
-1061 1585 0
1062 -1025 -1061 0
1062 -1620 1025 0
-1062 -1025 1061 0
-1062 1620 1025 0
1063 -1028 -1061 0
1063 -1621 1028 0
-1063 -1028 1061 0
-1063 1621 1028 0
1064 -1030 -1061 0
1064 -1622 1030 0
-1064 -1030 1061 0
-1064 1622 1030 0
1065 -1032 -1061 0
1065 -1623 1032 0
-1065 -1032 1061 0
-1065 1623 1032 0
1066 -1034 -1061 0
1066 -1624 1034 0
-1066 -1034 1061 0
-1066 1624 1034 0
1067 -1036 -1061 0
1067 -1625 1036 0
-1067 -1036 1061 0
-1067 1625 1036 0
1068 -1022 -1069 0
1068 -1626 1022 0
-1068 -1022 1069 0
-1068 1626 1022 0
1069 -1335 -1585 0
-1069 1335 0
-1069 1585 0
1070 -1025 -1069 0
1070 -1627 1025 0
-1070 -1025 1069 0
-1070 1627 1025 0
1071 -1028 -1069 0
1071 -1628 1028 0
-1071 -1028 1069 0
-1071 1628 1028 0
1072 -1030 -1069 0
1072 -1629 1030 0
-1072 -1030 1069 0
-1072 1629 1030 0
1073 -1032 -1069 0
1073 -1630 1032 0
-1073 -1032 1069 0
-1073 1630 1032 0
1074 -1034 -1069 0
1074 -1631 1034 0
-1074 -1034 1069 0
-1074 1631 1034 0
1075 -1036 -1069 0
1075 -1632 1036 0
-1075 -1036 1069 0
-1075 1632 1036 0
1076 -1022 -1077 0
1076 -1633 1022 0
-1076 -1022 1077 0
-1076 1633 1022 0
1077 1334 -1585 0
-1077 -1334 0
-1077 1585 0
1078 -1025 -1077 0
1078 -1634 1025 0
-1078 -1025 1077 0
-1078 1634 1025 0
1079 -1028 -1077 0
1079 -1635 1028 0
-1079 -1028 1077 0
-1079 1635 1028 0
1080 -1030 -1077 0
1080 -1636 1030 0
-1080 -1030 1077 0
-1080 1636 1030 0
1081 -1032 -1077 0
1081 -1637 1032 0
-1081 -1032 1077 0
-1081 1637 1032 0
1082 -1034 -1077 0
1082 -1638 1034 0
-1082 -1034 1077 0
-1082 1638 1034 0
1083 -1036 -1077 0
1083 -1639 1036 0
-1083 -1036 1077 0
-1083 1639 1036 0
1084 -1022 -1085 0
1084 -1640 1022 0
-1084 -1022 1085 0
-1084 1640 1022 0
1085 1330 -1585 0
-1085 -1330 0
-1085 1585 0
1086 -1025 -1085 0
1086 -1641 1025 0
-1086 -1025 1085 0
-1086 1641 1025 0
1087 -1028 -1085 0
1087 -1642 1028 0
-1087 -1028 1085 0
-1087 1642 1028 0
1088 -1030 -1085 0
1088 -1643 1030 0
-1088 -1030 1085 0
-1088 1643 1030 0
1089 -1032 -1085 0
1089 -1644 1032 0
-1089 -1032 1085 0
-1089 1644 1032 0
1090 -1034 -1085 0
1090 -1645 1034 0
-1090 -1034 1085 0
-1090 1645 1034 0
1091 -1036 -1085 0
1091 -1646 1036 0
-1091 -1036 1085 0
-1091 1646 1036 0
-1092 464 1008 0
1092 -464 0
1092 -1008 0
1093 463 -1005 1008 0
-1093 -463 0
-1093 1005 0
-1093 -1008 0
1094 1095 1099 1102 -1106 0
-1094 1106 0
-1094 -1095 0
-1094 -1102 0
-1094 -1099 0
-1095 -1272 1096 0
-1095 -1596 1098 0
-1095 -1272 -1596 0
-1095 1096 1098 0
1095 1272 -1098 0
1095 1596 -1096 0
1096 1339 -1097 0
-1096 -1339 0
-1096 1097 0
1097 -552 620 0
-1097 552 0
-1097 -620 0
1098 -1339 -1097 0
-1098 1339 0
-1098 1097 0
-1099 -1597 1100 0
-1099 -1594 1101 0
-1099 -1594 -1597 0
-1099 1100 1101 0
1099 1597 -1101 0
1099 1594 -1100 0
1100 -1338 1339 -1366 -1367 0
1100 1338 -1339 1366 1367 0
-1100 1338 -1367 0
-1100 -1366 1367 0
-1100 -1338 -1339 0
-1100 1339 1366 0
1101 1338 1339 1366 -1367 0
1101 1338 1339 -1366 1367 0
-1101 -1339 0
-1101 1366 1367 0
-1101 -1338 0
-1101 -1366 -1367 0
-1102 -1592 1103 0
-1102 -1593 1104 0
-1102 -1592 -1593 0
-1102 1103 1104 0
1102 1592 -1104 0
1102 1593 -1103 0
1103 1338 -1339 1366 -1367 0
1103 1338 -1339 -1366 1367 0
-1103 1339 0
-1103 -1366 -1367 0
-1103 -1338 0
-1103 1366 1367 0
1104 -1339 -1105 0
-1104 1339 0
-1104 1105 0
1105 -552 -620 0
-1105 552 0
-1105 620 0
1106 -1595 -1107 0
1106 -1598 1108 0
1106 -1595 -1598 0
1106 -1107 1108 0
-1106 1595 -1108 0
-1106 1598 1107 0
-1107 1338 1339 1366 1367 0
-1107 -1338 -1339 -1366 -1367 0
1107 1339 -1367 0
1107 -1338 1367 0
1107 -1339 1366 0
1107 1338 -1366 0
1108 1339 -1105 0
-1108 -1339 0
-1108 1105 0
1109 1110 1111 -1112 1113 0
-1109 -1113 0
-1109 -1110 0
-1109 1112 0
-1109 -1111 0
-1110 -1600 1096 0
-1110 -1603 1103 0
-1110 -1600 -1603 0
-1110 1096 1103 0
1110 1600 -1103 0
1110 1603 -1096 0
-1111 -1604 1100 0
-1111 -1601 1101 0
-1111 -1601 -1604 0
-1111 1100 1101 0
1111 1604 -1101 0
1111 1601 -1100 0
1112 -1605 1104 0
1112 -1599 -1107 0
1112 -1599 -1605 0
1112 1104 -1107 0
-1112 1605 1107 0
-1112 1599 -1104 0
-1113 -1602 1098 0
-1113 -1273 1108 0
-1113 -1273 -1602 0
-1113 1098 1108 0
1113 1602 -1108 0
1113 1273 -1098 0
1114 1115 1116 1117 -1118 0
-1114 1118 0
-1114 -1115 0
-1114 -1117 0
-1114 -1116 0
-1115 -1275 1098 0
-1115 -1276 1104 0
-1115 -1275 -1276 0
-1115 1098 1104 0
1115 1275 -1104 0
1115 1276 -1098 0
-1116 -1617 1096 0
-1116 -1616 1101 0
-1116 -1616 -1617 0
-1116 1096 1101 0
1116 1617 -1101 0
1116 1616 -1096 0
-1117 -1615 1100 0
-1117 -1614 1108 0
-1117 -1614 -1615 0
-1117 1100 1108 0
1117 1615 -1108 0
1117 1614 -1100 0
1118 -1618 1103 0
1118 -1613 -1107 0
1118 -1613 -1618 0
1118 1103 -1107 0
-1118 1618 1107 0
-1118 1613 -1103 0
1119 1120 1121 -1122 1123 0
-1119 -1123 0
-1119 -1120 0
-1119 1122 0
-1119 -1121 0
-1120 -1619 1100 0
-1120 -1621 1104 0
-1120 -1619 -1621 0
-1120 1100 1104 0
1120 1619 -1104 0
1120 1621 -1100 0
-1121 -1620 1096 0
-1121 -1623 1103 0
-1121 -1620 -1623 0
-1121 1096 1103 0
1121 1620 -1103 0
1121 1623 -1096 0
1122 -1625 1101 0
1122 -1624 -1107 0
1122 -1624 -1625 0
1122 1101 -1107 0
-1122 1625 1107 0
-1122 1624 -1101 0
-1123 -1622 1098 0
-1123 -1277 1108 0
-1123 -1277 -1622 0
-1123 1098 1108 0
1123 1622 -1108 0
1123 1277 -1098 0
1124 1125 1126 1127 -1128 0
-1124 1128 0
-1124 -1125 0
-1124 -1127 0
-1124 -1126 0
-1125 -1643 1104 0
-1125 -1640 1108 0
-1125 -1640 -1643 0
-1125 1104 1108 0
1125 1643 -1108 0
1125 1640 -1104 0
-1126 -1642 1098 0
-1126 -1280 1100 0
-1126 -1280 -1642 0
-1126 1098 1100 0
1126 1642 -1100 0
1126 1280 -1098 0
-1127 -1641 1101 0
-1127 -1645 1103 0
-1127 -1641 -1645 0
-1127 1101 1103 0
1127 1641 -1103 0
1127 1645 -1101 0
1128 -1646 1096 0
1128 -1644 -1107 0
1128 -1644 -1646 0
1128 1096 -1107 0
-1128 1646 1107 0
-1128 1644 -1096 0
-1129 1130 1135 -1143 0
-1129 1130 1135 1140 0
1129 -1130 0
1129 -1135 0
1129 -1140 1143 0
1130 -1131 1132 1133 1134 0
-1130 -1134 0
-1130 1131 0
-1130 -1133 0
-1130 -1132 0
1131 -1612 1104 0
1131 -1606 -1107 0
1131 -1606 -1612 0
1131 1104 -1107 0
-1131 1612 1107 0
-1131 1606 -1104 0
-1132 -1609 1098 0
-1132 -1274 1108 0
-1132 -1274 -1609 0
-1132 1098 1108 0
1132 1609 -1108 0
1132 1274 -1098 0
-1133 -1607 1096 0
-1133 -1610 1103 0
-1133 -1607 -1610 0
-1133 1096 1103 0
1133 1607 -1103 0
1133 1610 -1096 0
-1134 -1611 1100 0
-1134 -1608 1101 0
-1134 -1608 -1611 0
-1134 1100 1101 0
1134 1611 -1101 0
1134 1608 -1100 0
1135 1136 1137 -1138 1139 0
-1135 -1139 0
-1135 -1136 0
-1135 1138 0
-1135 -1137 0
-1136 -1633 1100 0
-1136 -1635 1104 0
-1136 -1633 -1635 0
-1136 1100 1104 0
1136 1633 -1104 0
1136 1635 -1100 0
-1137 -1279 1096 0
-1137 -1637 1098 0
-1137 -1279 -1637 0
-1137 1096 1098 0
1137 1279 -1098 0
1137 1637 -1096 0
1138 -1639 1103 0
1138 -1634 -1107 0
1138 -1634 -1639 0
1138 1103 -1107 0
-1138 1639 1107 0
-1138 1634 -1103 0
-1139 -1636 1101 0
-1139 -1638 1108 0
-1139 -1636 -1638 0
-1139 1101 1108 0
1139 1636 -1108 0
1139 1638 -1101 0
1140 -1630 -1141 1142 0
1140 1096 -1141 1142 0
-1140 1141 0
-1140 -1142 0
-1140 1630 -1096 0
1141 -1629 -1107 0
1141 -1632 1108 0
1141 -1629 -1632 0
1141 -1107 1108 0
-1141 1629 -1108 0
-1141 1632 1107 0
1142 1631 -1101 0
-1142 -1631 0
-1142 1101 0
-1143 -1626 1144 1145 0
-1143 1104 1144 1145 0
1143 -1144 0
1143 -1145 0
1143 1626 -1104 0
-1144 -1627 1100 0
-1144 -1628 1103 0
-1144 -1627 -1628 0
-1144 1100 1103 0
1144 1627 -1103 0
1144 1628 -1100 0
1145 1278 -1098 0
-1145 -1278 0
-1145 1098 0
1146 1661 -1147 0
-1146 -1661 0
-1146 1147 0
1147 1328 -536 0
-1147 -1328 0
-1147 536 0
1148 -431 432 460 0
-1148 -460 0
-1148 -432 0
-1148 431 0
1149 1659 -1148 0
-1149 -1659 0
-1149 1148 0
1150 -1657 -1149 0
-1150 1657 0
-1150 1149 0
1151 -1304 -1150 0
1151 1656 -1150 0
-1151 1150 0
-1151 1304 -1656 0
-1152 1660 -1153 0
-1152 1153 1155 0
1152 -1660 -1153 0
1152 1153 -1155 0
1153 -1307 1154 0
1153 -1322 1154 0
-1153 -1154 0
-1153 1307 1322 0
1154 -1304 -4 0
1154 -4 -444 0
-1154 4 0
-1154 1304 444 0
-1155 415 1151 1156 0
-1155 -446 1151 1156 0
1155 -1156 0
1155 -1151 0
1155 -415 446 0
1156 -1307 -1322 0
-1156 1307 0
-1156 1322 0
-1157 -1147 1158 0
-1157 1661 1158 0
1157 -1158 0
1157 -1661 1147 0
1158 -1323 1660 -1155 0
1158 1660 -1154 -1155 0
-1158 1155 0
-1158 -1660 0
-1158 1323 1154 0
-1662 0
-1662 0
-1662 0
-1662 0
-1662 0
-1662 0
-1662 0
-1662 0
-1662 0
-1662 0
-1662 0
-1662 0
-1662 0
-1662 0
-1662 0
-1662 0
-1662 0
-1662 0
-1662 0
-1662 0
-1662 0
-1662 0
-1662 0
-1662 0
-1662 0
-1662 0
-1662 0
-1662 0
-1662 0
-1662 0
-1662 0
-1662 0
-1662 0
-1662 0
-1662 0
-1662 0
-1662 0
-1662 0
-1662 0
-1662 0
-1662 0
-1662 0
-1662 0
-1662 0
-1662 0
-1662 0
-1662 0
-1662 0
-1662 0
-1662 0
-1662 0
-1662 0
-1662 0
-1662 0
-1662 0
-1662 0
-1662 0
-1662 0
-1662 0
-1662 0
-1662 0
-1662 0
-1662 0
-1662 0
-1662 0
-1662 0
-1662 0
-1662 0
-1662 0
-1662 0
-1662 0
-1662 0
-1662 0
-1662 0
-1662 0
-1662 0
-1662 0
-1662 0
-1662 0
-1662 0
-1662 0
-1662 0
-1662 0
-1662 0
-1662 0
-1662 0
-1662 0
-1662 0
-1662 0
-1662 0
-1662 0
-1662 0
-1662 0
-1662 0
-1662 0
-1662 0
-1662 0
-1662 0
-1662 0
-1662 0
-1662 0
-1662 0
-1662 0
-1662 0
-1662 0
-1662 0
-1662 0
-1662 0
-1662 0
-1662 0
-1662 0
-1662 0
-1662 0
-1662 0
-1662 0
-1662 0
-1662 0
-1662 0
-1662 0
-1662 0
-1662 0
-1662 0
-1662 0
-1662 0
-1662 0
-1662 0
-1662 0
-1662 0
-1662 0
-1662 0
-1662 0
-1662 0
-1662 0
-1662 0
-1662 0
-1662 0
-1662 0
-1662 0
-1662 0
-1662 0
-1662 0
-1662 0
-1662 0
-1662 0
-1662 0
-1662 0
-1662 0
-1662 0
-1662 0
-1662 0
-1662 0
-1662 0
-1662 0
-1662 0
-1662 0
-1662 0
-1662 0
-1662 0
-1662 0
-1662 0
-1662 0
-1662 0
-1662 0
-1662 0
-1662 0
-1662 0
-1662 0
-1662 0
-1662 0
-1662 0
-1662 0
-1662 0
-1662 0
-1662 0
-1662 0
-1662 0
-1662 0
-1662 0
-1662 0
-1662 0
-1662 0
-1662 0
-1662 0
-1662 0
-1662 0
-1662 0
-1662 0
-1662 0
-1662 0
-1662 0
-1662 0
-1662 0
-1662 0
-1662 0
-1662 0
-1662 0
-1662 0
-1662 0
-1662 0
-1662 0
-1662 0
-1662 0
-1662 0
-1662 0
-1662 0
-1662 0
-1662 0
-1662 0
-1662 0
-1662 0
-1662 0
-1662 0
-1662 0
-1662 0
-1662 0
-1662 0
-1662 0
-1662 0
-1662 0
-1662 0
-1662 0
-1662 0
-1662 0
-1662 0
-1662 0
-1662 0
-1662 0
-1662 0
-1662 0
-1662 0
-1662 0
-1662 0
-1662 0
-1662 0
-1662 0
-1662 0
-1662 0
-1662 0
-1662 0
-1662 0
-1662 0
-1662 0
-1662 0
-1662 0
-1662 0
-1662 0
-1662 0
-1662 0
-1662 0
-1662 0
-1662 0
-1662 0
-1662 0
-1662 0
-1662 0
-1662 0
-1662 0
-1662 0
-1662 0
-1662 0
-1662 0
-1662 0
-1662 0
-1662 0
-1662 0
-1662 0
-1662 0
-1662 0
-1662 0
-1662 0
-1662 0
-1662 0
-1662 0
-1662 0
-1662 0
-1662 0
-1662 0
-1662 0
-1662 0
-1662 0
-1662 0
-1662 0
-1662 0
-1662 0
-1662 0
-1662 0
-1662 0
-1662 0
-1662 0
-1662 0
-1662 0
-1662 0
-1662 0
-1662 0
-1662 0
-1662 0
-1662 0
-1662 0
-1662 0
-1662 0
-1662 0
-1662 0
-1662 0
-1662 0
-1662 0
-1662 0
-1662 0
-1662 0
-1662 0
-1662 0
-1662 0
-1662 0
-1662 0
-1662 0
-1662 0
-1662 0
-1662 0
-1662 0
-1662 0
-1662 0
-1662 0
-1662 0
-1662 0
-1662 0
-1662 0
-1662 0
-1662 0
-1662 0
-1662 0
-1662 0
-1662 0
-1662 0
-1662 0
-1662 0
-1662 0
-1662 0
-1662 0
-1662 0
-1662 0
-1662 0
-1662 0
-1662 0
-1662 0
-1662 0
-1662 0
-1662 0
-1662 0
-1662 0
-1662 0
-1662 0
-1662 0
-1662 0
-1662 0
-1662 0
-1662 0
-1662 0
-1662 0
-1662 0
-1662 0
-1662 0
-1662 0
-1662 0
-1662 0
-1662 0
-1662 0
-1662 0
-1662 0
-1662 0
-1662 0
-1662 0
-1662 0
-1662 0
-1662 0
-1662 0
-1662 0
-1662 0
-1662 0
-1662 0
-1662 0
-1662 0
-1662 0
-1662 0
-1662 0
-1662 0
-1662 0
-1662 0
-1662 0
-1662 0
-1662 0
-1662 0
-1662 0
-1662 0
-1662 0
-1662 0
-1662 0
-1662 0
-1662 0
-1662 0
-1662 0
-1662 0
-1662 0
-1662 0
-1662 0
-1662 0
-1662 0
-1662 0
-1662 0
-1662 0
-1662 0
-1662 0
-1662 0
-1662 0
-1662 0
-1662 0
-1662 0
-1662 0
-1662 0
-1662 0
-1662 0
-1662 0
-1662 0
-1662 0
-1662 0
-1662 0
-1662 0
-1662 0
-1662 0
-1662 0
-1662 0
-1662 0
-1662 0
-1662 0
-1662 0
-1662 0
-1662 0
-1662 0
-1662 0
-1662 0
-1662 0
-1662 0
-1662 0
-1662 0
-1662 0
-1662 0
-1662 0
-1662 0
-1662 0
-1662 0
-1662 0
-1662 0
-1662 0
-1662 0
-1662 0
-1662 0
-1662 0
-1662 0
-1662 0
-1662 0
-1662 0
-1662 0
-1662 0
-1662 0
-1662 0
-1662 0
-1662 0
-1662 0
-1662 0
-1662 0
-1662 0
-1662 0
-1662 0
-1662 0
-1662 0
-1662 0
-1662 0
-1662 0
-1662 0
-1662 0
-1662 0
-1662 0
-1662 0
-1662 0
-1662 0
-1662 0
-1662 0
-1662 0
-1662 0
-1662 0
-1662 0
-1662 0
-1662 0
-1662 0
-1662 0
-1662 0
-1662 0
-1662 0
-1662 0
-1662 0
-1662 0
-1662 0
-1662 0
-1662 0
-1662 0
-1662 0
-1662 0
-1662 0
-1662 0
-1662 0
-1662 0
-1662 0
-1662 0
-1662 0
-1662 0
-1662 0
-1662 0
-1662 0
-1662 0
-1662 0
-1662 0
-1662 0
-1662 0
-1662 0
-1662 0
-1662 0
-1662 0
-1662 0
-1662 0
-1662 0
-1662 0
-1662 0
-1662 0
-1662 0
-1662 0
-1662 0
-1662 0
-1662 0
-1662 0
-1662 0
-1662 0
-1662 0
-1662 0
-1662 0
-1662 0
-1662 0
-1662 0
-1662 0
-1662 0
-1662 0
-1662 0
-1662 0
-1662 0
-1662 0
-1662 0
-1662 0
-1662 0
-1662 0
-1662 0
-1662 0
-1662 0
-1662 0
-1662 0
-1662 0
-1662 0
-1662 0
-1662 0
-1662 0
-1662 0
-1662 0
-1662 0
-1662 0
-1662 0
-1662 0
-1662 0
-1662 0
-1662 0
-1662 0
-1662 0
-1662 0
-1662 0
-1662 0
-1662 0
-1662 0
-1662 0
-1662 0
-1662 0
-1662 0
-1662 0
-1662 0
-1662 0
-1662 0
-1662 0
-1662 0
-1662 0
-1662 0
-1662 0
-1662 0
-1662 0
-1662 0
-1662 0
-1662 0
-1662 0
-1662 0
-1662 0
-1662 0
-1662 0
-1662 0
-1662 0
-1662 0
-1662 0
-1662 0
-1662 0
-1662 0
-1662 0
-1662 0
-1662 0
-1662 0
-1662 0
-1662 0
-1662 0
-1662 0
-1662 0
-1662 0
-1662 0
-1662 0
-1662 0
-1662 0
-1662 0
-1662 0
-1662 0
-1662 0
-1662 0
-1662 0
-1662 0
-1662 0
-1662 0
-1662 0
-1662 0
-1662 0
-1662 0
-1662 0
-1662 0
-1662 0
-1662 0
-1662 0
-1662 0
-1662 0
-1662 0
-1662 0
-1662 0
-1662 0
-1662 0
-1662 0
-1662 0
-1662 0
-1662 0
-1662 0
-1662 0
-1662 0
-1662 0
-1662 0
-1662 0
-1662 0
-1662 0
-1662 0
-1662 0
-1662 0
-1662 0
-1662 0
-1662 0
-1662 0
-1662 0
-1662 0
-1662 0
-1662 0
-1662 0
-1662 0
-1662 0
-1662 0
-1662 0
-1662 0
-1662 0
-1662 0
-1662 0
-1662 0
-1662 0
-1662 0
-1662 0
-1662 0
-1662 0
-1662 0
-1662 0
-1662 0
-1662 0
-1662 0
-1662 0
-1662 0
-1662 0
-1662 0
-1662 0
-1662 0
-1662 0
-1662 0
-1662 0
-1662 0
-1662 0
-1662 0
-1662 0
-1662 0
-1662 0
-1662 0
-1662 0
-1662 0
-1662 0
-1662 0
-1662 0
-1662 0
-1662 0
-1662 0
-1662 0
-1662 0
-1662 0
-1662 0
-1662 0
-1662 0
-1662 0
-1662 0
-1662 0
-1662 0
-1662 0
-1662 0
-1662 0
-1662 0
-1662 0
-1662 0
-1662 0
-1662 0
-1662 0
-1662 0
-1662 0
-1662 0
-1662 0
-1662 0
-1662 0
-1662 0
-1662 0
-1662 0
-1662 0
-1662 0
-1662 0
-1662 0
-1662 0
-1662 0
-1662 0
-1662 0
-1662 0
-1662 0
-1662 0
-1662 0
-1662 0
-1662 0
-1662 0
-1662 0
-1662 0
-1662 0
-1662 0
-1662 0
-1662 0
-1662 0
-1662 0
-1662 0
-1662 0
-1662 0
-1662 0
-1662 0
-1662 0
-1662 0
-1662 0
-1662 0
-1662 0
-1662 0
-1662 0
-1662 0
-1662 0
-1662 0
-1662 0
-1662 0
-1662 0
-1662 0
-1662 0
-1662 0
-1662 0
-1662 0
-1662 0
-1662 0
-1662 0
-1662 0
-1662 0
-1662 0
-1662 0
-1662 0
-1662 0
-1662 0
-1662 0
-1662 0
-1662 0
-1662 0
-1662 0
-1662 0
-1662 0
-1662 0
-1662 0
-1662 0
-1662 0
-1662 0
-1662 0
-1662 0
-1662 0
-1662 0
-1662 0
-1662 0
-1662 0
-1662 0
-1662 0
-1662 0
-1662 0
-1662 0
-1662 0
-1662 0
-1662 0
-1662 0
-1662 0
-1662 0
-1662 0
-1662 0
-1662 0
-1662 0
-1662 0
-1662 0
-1662 0
-1662 0
-1662 0
-1662 0
-1662 0
-1662 0
-1662 0
-1662 0
-1662 0
-1662 0
-1662 0
-1662 0
-1662 0
-1662 0
-1662 0
-1662 0
-1662 0
-1662 0
-1662 0
-1662 0
-1662 0
-1662 0
-1662 0
-1662 0
-1662 0
-1662 0
-1662 0
-1662 0
-1662 0
-1662 0
-1662 0
-1662 0
-1662 0
-1662 0
-1662 0
-1662 0
-1662 0
-1662 0
-1662 0
-1662 0
-1662 0
-1662 0
-1662 0
-1662 0
-1662 0
-1662 0
-1662 0
-1662 0
-1662 0
-1662 0
-1662 0
-1662 0
-1662 0
-1662 0
-1662 0
-1662 0
-1662 0
-1662 0
-1662 0
-1662 0
-1662 0
-1662 0
-1662 0
-1662 0
-1662 0
-1662 0
-1662 0
-1662 0
-1662 0
-1662 0
-1662 0
-1662 0
-1662 0
-1662 0
-1662 0
-1662 0
-1662 0
-1662 0
-1662 0
-1662 0
-1662 0
-1662 0
-1662 0
-1662 0
-1662 0
-1662 0
-1662 0
-1662 0
-1662 0
-1662 0
-1655 0
-1662 0
-1662 0
-2 0
-1662 0
-1662 0
-6 0
-9 0
-11 0
-13 0
-15 0
-17 0
-19 0
-21 0
-23 0
-25 0
-27 0
-28 0
-33 0
-35 0
-37 0
-38 0
-71 0
-75 0
-77 0
-78 0
-83 0
-93 0
-1662 0
-1662 0
-1662 0
-1662 0
-1662 0
-1662 0
-1662 0
-1662 0
-1662 0
-1662 0
-1662 0
-1662 0
-1662 0
-1662 0
-1662 0
-1662 0
-1662 0
-1662 0
-1662 0
-1662 0
-1662 0
-1662 0
-1662 0
-1662 0
-1662 0
-1662 0
-1662 0
-1662 0
-1662 0
-1662 0
-1662 0
-1662 0
-1662 0
-1662 0
-1662 0
-1662 0
-1662 0
-1662 0
-1662 0
-1662 0
-1662 0
-1662 0
-1662 0
-1662 0
-1662 0
-1662 0
-1662 0
-1662 0
-1662 0
-1662 0
-1662 0
-1662 0
-1662 0
-1662 0
-1662 0
-1662 0
-1662 0
-1662 0
-1662 0
-1662 0
-1662 0
-99 0
-100 0
-112 0
-114 0
-106 0
-117 0
-122 0
-127 0
-1662 0
-131 0
-144 0
-145 0
-147 0
-149 0
-152 0
-165 0
-175 0
-177 0
-1662 0
-179 0
-194 0
-1662 0
-314 0
-1662 0
-1662 0
-1662 0
-328 0
-342 0
-343 0
-1662 0
-345 0
-359 0
-360 0
-361 0
-1662 0
-1662 0
-1662 0
-1662 0
-1662 0
-1662 0
-1662 0
-1662 0
-1662 0
-1662 0
-1662 0
-1662 0
-1662 0
-1662 0
-1662 0
-1662 0
-1662 0
-1662 0
-1662 0
-1662 0
-1662 0
-1662 0
-1662 0
-1662 0
-1662 0
-1662 0
-1662 0
-1662 0
-1662 0
-363 0
-1662 0
-1662 0
-1662 0
-1662 0
-1662 0
-1662 0
-1662 0
-1662 0
-1662 0
-1662 0
-1662 0
-1662 0
-1662 0
-1662 0
-1662 0
-1662 0
-1662 0
-1662 0
-1662 0
-1662 0
-1662 0
-1662 0
-1662 0
-1662 0
-1662 0
-1662 0
-1662 0
-1662 0
-1662 0
-1662 0
-1662 0
-1662 0
-1662 0
-1662 0
-1662 0
-1662 0
-1662 0
-1662 0
-1662 0
-1662 0
-1662 0
-1662 0
-1662 0
-1662 0
-1662 0
-1662 0
-1662 0
-1662 0
-1662 0
-1662 0
-1662 0
-1662 0
-1662 0
-1662 0
-1662 0
-1662 0
-1662 0
-366 0
-378 0
-1662 0
-1662 0
-1662 0
-363 0
-1662 0
-391 0
-1662 0
-1662 0
-1662 0
-395 0
-403 0
-394 0
408 0
-408 0
-389 0
-377 0
376 0
374 0
372 0
367 0
388 0
386 0
-409 0
390 0
379 0
-1662 0
1343 0
1368 0
1587 0
1649 0
368 0
1658 0
410 0
411 0
413 0
414 0
429 0
431 0
432 0
442 0
448 0
449 0
450 0
451 0
452 0
453 0
454 0
455 0
456 0
457 0
458 0
459 0
460 0
-462 0
463 0
465 0
505 0
509 0
536 0
543 0
544 0
545 0
546 0
547 0
548 0
549 0
550 0
551 0
552 0
554 0
556 0
574 0
578 0
580 0
581 0
-582 0
584 0
585 0
42 0
589 0
65 0
96 0
591 0
94 0
593 0
596 0
597 0
598 0
599 0
606 0
41 0
608 0
611 0
613 0
616 0
618 0
398 0
620 0
621 0
623 0
624 0
625 0
633 0
634 0
635 0
640 0
646 0
664 0
672 0
677 0
682 0
683 0
685 0
687 0
688 0
690 0
691 0
692 0
693 0
694 0
695 0
696 0
697 0
698 0
118 0
128 0
699 0
700 0
132 0
1573 0
707 0
708 0
150 0
718 0
743 0
748 0
749 0
750 0
751 0
755 0
758 0
759 0
760 0
761 0
764 0
769 0
772 0
773 0
774 0
775 0
776 0
782 0
785 0
786 0
787 0
788 0
790 0
793 0
795 0
802 0
804 0
807 0
809 0
810 0
811 0
812 0
813 0
814 0
815 0
816 0
817 0
818 0
819 0
820 0
821 0
822 0
824 0
826 0
828 0
830 0
832 0
834 0
837 0
840 0
842 0
844 0
846 0
847 0
848 0
849 0
852 0
853 0
854 0
856 0
858 0
859 0
861 0
862 0
863 0
864 0
865 0
866 0
867 0
868 0
869 0
870 0
872 0
873 0
874 0
875 0
876 0
877 0
878 0
879 0
880 0
881 0
882 0
884 0
885 0
886 0
887 0
888 0
889 0
890 0
891 0
892 0
893 0
894 0
895 0
896 0
897 0
898 0
899 0
900 0
901 0
902 0
903 0
904 0
905 0
906 0
907 0
908 0
909 0
910 0
911 0
912 0
913 0
914 0
915 0
916 0
917 0
918 0
919 0
920 0
921 0
922 0
923 0
924 0
925 0
926 0
927 0
928 0
929 0
930 0
931 0
932 0
933 0
934 0
935 0
936 0
937 0
938 0
939 0
940 0
941 0
942 0
943 0
944 0
945 0
946 0
947 0
948 0
949 0
950 0
951 0
952 0
953 0
954 0
955 0
956 0
957 0
958 0
959 0
960 0
961 0
962 0
963 0
965 0
968 0
970 0
972 0
973 0
974 0
976 0
-977 0
-978 0
-979 0
-980 0
-981 0
-982 0
-983 0
984 0
985 0
986 0
987 0
992 0
1007 0
1010 0
1015 0
1016 0
1017 0
1019 0
1021 0
1024 0
1027 0
1029 0
1031 0
1033 0
1035 0
1037 0
1039 0
1040 0
1041 0
1042 0
1043 0
1044 0
1045 0
1047 0
1048 0
1049 0
1050 0
1051 0
1052 0
1053 0
1055 0
1056 0
1057 0
1058 0
1059 0
1060 0
1062 0
1063 0
1064 0
1065 0
1066 0
1067 0
1068 0
1070 0
1071 0
1072 0
1073 0
1074 0
1075 0
1076 0
1078 0
1079 0
1080 0
1081 0
1082 0
1083 0
1084 0
1086 0
1087 0
1088 0
1089 0
1090 0
1091 0
1092 0
1093 0
1094 0
1109 0
1114 0
1119 0
1124 0
1129 0
1146 0
1148 0
1149 0
1150 0
1151 0
1152 0
1157 0

