c Result of efficient AIG-to-CNF conversion using package CNF
p cnf 9050 29360
2 -6110 -6123 0
-2 6110 0
-2 6123 0
3 6110 -6111 6112 6113 0
-3 6111 0
-3 -6113 0
-3 -6110 0
-3 -6112 0
4 6035 -6 0
4 5 -6 0
-4 6 0
-4 -6035 -5 0
5 -5824 -6105 0
-5 5824 0
-5 6105 0
-6 5823 5 0
-6 6105 5 0
6 -5 0
6 -5823 -6105 0
7 -6037 -9 0
7 8 -9 0
-7 9 0
-7 6037 -8 0
8 -5820 -6105 0
-8 5820 0
-8 6105 0
-9 5819 8 0
-9 6105 8 0
9 -8 0
9 -5819 -6105 0
10 -6117 -11 0
10 7279 -11 0
-10 11 0
-10 6117 -7279 0
11 -7280 -12 0
-11 7280 0
-11 12 0
12 6039 -13 0
-12 -6039 0
-12 13 0
13 14 -31 0
-13 -14 0
-13 31 0
-14 -15 -16 0
-14 6115 15 0
14 -15 16 0
14 -6115 15 0
15 -6130 -7282 0
-15 6130 0
-15 7282 0
16 17 21 24 -28 0
-16 28 0
-16 -17 0
-16 -24 0
-16 -21 0
-17 -7414 18 0
-17 -7416 20 0
-17 -7414 -7416 0
-17 18 20 0
17 7414 -20 0
17 7416 -18 0
18 6108 6109 -19 0
-18 19 0
-18 -6109 0
-18 -6108 0
19 6107 -6111 0
19 -6107 6111 0
-19 -6107 -6111 0
-19 6107 6111 0
20 -6108 -6109 -19 0
-20 6108 0
-20 6109 0
-20 19 0
-21 -7415 22 0
-21 -7419 23 0
-21 -7415 -7419 0
-21 22 23 0
21 7415 -23 0
21 7419 -22 0
22 -6108 6109 -19 0
-22 6108 0
-22 -6109 0
-22 19 0
23 6108 -6109 -19 0
-23 19 0
-23 6109 0
-23 -6108 0
-24 -7413 25 0
-24 -7412 27 0
-24 -7412 -7413 0
-24 25 27 0
24 7413 -27 0
24 7412 -25 0
25 6109 -26 0
-25 -6109 0
-25 26 0
26 6107 -6108 6111 0
26 -6107 6108 -6111 0
-26 -6107 -6108 0
-26 6108 6111 0
-26 6107 -6111 0
27 -6109 -26 0
-27 6109 0
-27 26 0
28 -7417 -29 0
28 -7418 30 0
28 -7417 -7418 0
28 -29 30 0
-28 7417 -30 0
-28 7418 29 0
-29 6107 6108 6109 6111 0
-29 -6107 -6108 -6109 -6111 0
29 6108 -6111 0
29 -6107 6111 0
29 -6108 6109 0
29 6107 -6109 0
30 6107 6108 -6109 6111 0
30 -6107 -6108 6109 -6111 0
-30 -6107 -6109 0
-30 6108 6109 0
-30 6107 -6111 0
-30 -6108 6111 0
31 -32 -51 0
-31 32 0
-31 51 0
32 -33 -46 0
-32 33 0
-32 46 0
-33 34 35 0
-33 34 -41 0
33 -34 0
33 -35 41 0
34 -6116 15 0
-34 6116 0
-34 -15 0
35 -15 36 0
-35 15 0
-35 -36 0
36 37 38 -39 40 0
-36 -40 0
-36 -37 0
-36 39 0
-36 -38 0
-37 -7425 20 0
-37 -7422 23 0
-37 -7422 -7425 0
-37 20 23 0
37 7425 -23 0
37 7422 -20 0
-38 -7427 18 0
-38 -7423 22 0
-38 -7423 -7427 0
-38 18 22 0
38 7427 -22 0
38 7423 -18 0
39 -7420 27 0
39 -7421 -29 0
39 -7420 -7421 0
39 27 -29 0
-39 7420 29 0
-39 7421 -27 0
-40 -7424 25 0
-40 -7426 30 0
-40 -7424 -7426 0
-40 25 30 0
40 7424 -30 0
40 7426 -25 0
41 42 43 44 -45 0
-41 45 0
-41 -42 0
-41 -44 0
-41 -43 0
-42 -7289 22 0
-42 -7284 23 0
-42 -7284 -7289 0
-42 22 23 0
42 7289 -23 0
42 7284 -22 0
-43 -7285 18 0
-43 -7288 20 0
-43 -7285 -7288 0
-43 18 20 0
43 7285 -20 0
43 7288 -18 0
-44 -7283 25 0
-44 -7287 30 0
-44 -7283 -7287 0
-44 25 30 0
44 7283 -30 0
44 7287 -25 0
45 -7286 27 0
45 -7290 -29 0
45 -7286 -7290 0
45 27 -29 0
-45 7286 29 0
-45 7290 -27 0
46 -7291 -47 0
46 -6127 47 0
46 47 -50 0
-46 7291 -47 0
-46 6127 47 50 0
-47 7279 48 0
47 -7279 0
47 -48 0
-48 7535 0
-48 6126 6211 0
-48 6126 49 0
48 -6126 -7535 0
48 -6211 -7535 -49 0
49 -6127 -7278 0
-49 6127 0
-49 7278 0
50 -7555 -7556 -7557 0
-50 7555 0
-50 7556 0
-50 7557 0
51 -52 55 0
-51 52 0
-51 -55 0
-52 7292 53 0
52 -7292 0
52 -53 0
53 -6130 -54 0
-53 6130 0
-53 54 0
54 -7282 41 0
-54 7282 0
-54 -41 0
-55 36 56 0
-55 53 56 0
55 -56 0
55 -36 -53 0
56 -6126 7535 0
56 -6106 7535 -57 0
-56 -7535 0
-56 6126 57 0
-56 6106 6126 0
57 -6127 -6211 0
-57 6127 0
-57 6211 0
58 59 -61 0
-58 -59 0
-58 61 0
59 12 -60 0
-59 -12 0
-59 60 0
-60 52 56 0
60 -52 0
60 -56 0
61 -62 67 0
61 -6130 67 0
61 -50 67 0
-61 -67 0
-61 6130 50 62 0
-62 64 65 0
-62 6114 63 64 0
62 -64 0
62 -6114 -65 0
62 -63 -65 0
63 -6211 -7535 0
-63 6211 0
-63 7535 0
64 -6126 -7535 0
-64 6126 0
-64 7535 0
-65 7279 66 0
65 -7279 0
65 -66 0
66 -6211 -7535 -49 0
-66 6211 0
-66 7535 0
-66 49 0
67 -62 68 0
67 54 -62 0
67 -6130 -54 68 0
-67 54 62 0
-67 -54 -68 0
-67 6130 62 0
68 -16 36 0
-68 16 0
-68 -36 0
-69 -6042 -5 0
-69 6042 6 0
69 6042 -6 0
69 -6042 5 0
-70 8302 5 0
-70 6043 71 0
-70 5 71 0
-70 6043 8302 0
70 -6043 -5 0
70 -8302 -71 0
71 -6035 6 0
-71 6035 0
-71 -6 0
-72 6044 -8303 0
-72 5 71 0
-72 -8303 5 0
-72 6044 71 0
72 8303 -71 0
72 -6044 -5 0
-73 6045 -8304 0
-73 5 71 0
-73 -8304 5 0
-73 6045 71 0
73 8304 -71 0
73 -6045 -5 0
-74 6046 -8305 0
-74 5 71 0
-74 -8305 5 0
-74 6046 71 0
74 8305 -71 0
74 -6046 -5 0
-75 6047 -8306 0
-75 5 71 0
-75 -8306 5 0
-75 6047 71 0
75 8306 -71 0
75 -6047 -5 0
-76 6048 -8307 0
-76 5 71 0
-76 -8307 5 0
-76 6048 71 0
76 8307 -71 0
76 -6048 -5 0
-77 6049 -8308 0
-77 5 71 0
-77 -8308 5 0
-77 6049 71 0
77 8308 -71 0
77 -6049 -5 0
-78 6050 -8309 0
-78 5 71 0
-78 -8309 5 0
-78 6050 71 0
78 8309 -71 0
78 -6050 -5 0
-79 6051 -8310 0
-79 5 71 0
-79 -8310 5 0
-79 6051 71 0
79 8310 -71 0
79 -6051 -5 0
-80 6052 -8311 0
-80 5 71 0
-80 -8311 5 0
-80 6052 71 0
80 8311 -71 0
80 -6052 -5 0
-81 6053 -8312 0
-81 5 71 0
-81 -8312 5 0
-81 6053 71 0
81 8312 -71 0
81 -6053 -5 0
-82 6054 -8313 0
-82 5 71 0
-82 -8313 5 0
-82 6054 71 0
82 8313 -71 0
82 -6054 -5 0
-83 6055 -8314 0
-83 5 71 0
-83 -8314 5 0
-83 6055 71 0
83 8314 -71 0
83 -6055 -5 0
-84 6056 -8315 0
-84 5 71 0
-84 -8315 5 0
-84 6056 71 0
84 8315 -71 0
84 -6056 -5 0
-85 6057 -8316 0
-85 5 71 0
-85 -8316 5 0
-85 6057 71 0
85 8316 -71 0
85 -6057 -5 0
-86 6058 -8317 0
-86 5 71 0
-86 -8317 5 0
-86 6058 71 0
86 8317 -71 0
86 -6058 -5 0
-87 6059 -8318 0
-87 5 71 0
-87 -8318 5 0
-87 6059 71 0
87 8318 -71 0
87 -6059 -5 0
-88 6060 -8319 0
-88 5 71 0
-88 -8319 5 0
-88 6060 71 0
88 8319 -71 0
88 -6060 -5 0
-89 6061 -8320 0
-89 5 71 0
-89 -8320 5 0
-89 6061 71 0
89 8320 -71 0
89 -6061 -5 0
-90 6062 -8321 0
-90 5 71 0
-90 -8321 5 0
-90 6062 71 0
90 8321 -71 0
90 -6062 -5 0
-91 6063 -8322 0
-91 5 71 0
-91 -8322 5 0
-91 6063 71 0
91 8322 -71 0
91 -6063 -5 0
-92 6064 -8323 0
-92 5 71 0
-92 -8323 5 0
-92 6064 71 0
92 8323 -71 0
92 -6064 -5 0
-93 6065 -8324 0
-93 5 71 0
-93 -8324 5 0
-93 6065 71 0
93 8324 -71 0
93 -6065 -5 0
-94 6066 -8325 0
-94 5 71 0
-94 -8325 5 0
-94 6066 71 0
94 8325 -71 0
94 -6066 -5 0
-95 6067 -8326 0
-95 5 71 0
-95 -8326 5 0
-95 6067 71 0
95 8326 -71 0
95 -6067 -5 0
-96 6068 -8327 0
-96 5 71 0
-96 -8327 5 0
-96 6068 71 0
96 8327 -71 0
96 -6068 -5 0
-97 6069 -8328 0
-97 5 71 0
-97 -8328 5 0
-97 6069 71 0
97 8328 -71 0
97 -6069 -5 0
-98 6070 -8329 0
-98 5 71 0
-98 -8329 5 0
-98 6070 71 0
98 8329 -71 0
98 -6070 -5 0
-99 6071 -8330 0
-99 5 71 0
-99 -8330 5 0
-99 6071 71 0
99 8330 -71 0
99 -6071 -5 0
-100 6072 -8331 0
-100 5 71 0
-100 -8331 5 0
-100 6072 71 0
100 8331 -71 0
100 -6072 -5 0
-101 -6073 -8 0
-101 6073 9 0
101 6073 -9 0
101 -6073 8 0
-102 8886 8 0
-102 6074 103 0
-102 8 103 0
-102 6074 8886 0
102 -6074 -8 0
102 -8886 -103 0
103 -6038 9 0
-103 6038 0
-103 -9 0
-104 6075 -6076 0
-104 8 103 0
-104 -6076 8 0
-104 6075 103 0
104 6076 -103 0
104 -6075 -8 0
105 104 -106 0
105 -104 106 0
-105 -104 -106 0
-105 104 106 0
106 101 -102 0
-106 -101 0
-106 102 0
-107 6077 -8887 0
-107 8 103 0
-107 -8887 8 0
-107 6077 103 0
107 8887 -103 0
107 -6077 -8 0
-108 6078 -8888 0
-108 8 103 0
-108 -8888 8 0
-108 6078 103 0
108 8888 -103 0
108 -6078 -8 0
-109 6079 -8889 0
-109 8 103 0
-109 -8889 8 0
-109 6079 103 0
109 8889 -103 0
109 -6079 -8 0
-110 6080 -8890 0
-110 8 103 0
-110 -8890 8 0
-110 6080 103 0
110 8890 -103 0
110 -6080 -8 0
-111 6081 -8891 0
-111 8 103 0
-111 -8891 8 0
-111 6081 103 0
111 8891 -103 0
111 -6081 -8 0
-112 6082 -8892 0
-112 8 103 0
-112 -8892 8 0
-112 6082 103 0
112 8892 -103 0
112 -6082 -8 0
-113 6083 -8893 0
-113 8 103 0
-113 -8893 8 0
-113 6083 103 0
113 8893 -103 0
113 -6083 -8 0
-114 6084 -8894 0
-114 8 103 0
-114 -8894 8 0
-114 6084 103 0
114 8894 -103 0
114 -6084 -8 0
-115 6085 -8895 0
-115 8 103 0
-115 -8895 8 0
-115 6085 103 0
115 8895 -103 0
115 -6085 -8 0
-116 6086 -8896 0
-116 8 103 0
-116 -8896 8 0
-116 6086 103 0
116 8896 -103 0
116 -6086 -8 0
-117 6087 -8897 0
-117 8 103 0
-117 -8897 8 0
-117 6087 103 0
117 8897 -103 0
117 -6087 -8 0
-118 6088 -8898 0
-118 8 103 0
-118 -8898 8 0
-118 6088 103 0
118 8898 -103 0
118 -6088 -8 0
-119 6089 -8899 0
-119 8 103 0
-119 -8899 8 0
-119 6089 103 0
119 8899 -103 0
119 -6089 -8 0
-120 6090 -8900 0
-120 8 103 0
-120 -8900 8 0
-120 6090 103 0
120 8900 -103 0
120 -6090 -8 0
-121 6091 -8901 0
-121 8 103 0
-121 -8901 8 0
-121 6091 103 0
121 8901 -103 0
121 -6091 -8 0
-122 6092 -8902 0
-122 8 103 0
-122 -8902 8 0
-122 6092 103 0
122 8902 -103 0
122 -6092 -8 0
-123 6093 -8903 0
-123 8 103 0
-123 -8903 8 0
-123 6093 103 0
123 8903 -103 0
123 -6093 -8 0
-124 6094 -8904 0
-124 8 103 0
-124 -8904 8 0
-124 6094 103 0
124 8904 -103 0
124 -6094 -8 0
-125 6095 -8905 0
-125 8 103 0
-125 -8905 8 0
-125 6095 103 0
125 8905 -103 0
125 -6095 -8 0
-126 6096 -8906 0
-126 8 103 0
-126 -8906 8 0
-126 6096 103 0
126 8906 -103 0
126 -6096 -8 0
-127 6097 -8907 0
-127 8 103 0
-127 -8907 8 0
-127 6097 103 0
127 8907 -103 0
127 -6097 -8 0
-128 6098 -8908 0
-128 8 103 0
-128 -8908 8 0
-128 6098 103 0
128 8908 -103 0
128 -6098 -8 0
-129 6099 -8909 0
-129 8 103 0
-129 -8909 8 0
-129 6099 103 0
129 8909 -103 0
129 -6099 -8 0
-130 6100 -8910 0
-130 8 103 0
-130 -8910 8 0
-130 6100 103 0
130 8910 -103 0
130 -6100 -8 0
-131 6101 -8911 0
-131 8 103 0
-131 -8911 8 0
-131 6101 103 0
131 8911 -103 0
131 -6101 -8 0
-132 6102 -8912 0
-132 8 103 0
-132 -8912 8 0
-132 6102 103 0
132 8912 -103 0
132 -6102 -8 0
-133 6103 -8913 0
-133 8 103 0
-133 -8913 8 0
-133 6103 103 0
133 8913 -103 0
133 -6103 -8 0
-134 6104 -8914 0
-134 8 103 0
-134 -8914 8 0
-134 6104 103 0
134 8914 -103 0
134 -6104 -8 0
135 6108 -136 0
135 -6108 136 0
-135 -6108 -136 0
-135 6108 136 0
136 -6107 -6111 0
-136 6107 0
-136 6111 0
-137 -6109 -138 0
-137 6109 138 0
137 6109 -138 0
137 -6109 138 0
138 -6107 -6108 -6111 0
-138 6107 0
-138 6108 0
-138 6111 0
-139 -6111 140 0
-139 6110 140 0
139 -140 0
139 -6110 6111 0
140 6111 -6112 -6113 -6123 0
-140 -6111 0
-140 6123 0
-140 6113 0
-140 6112 0
141 -6112 142 0
141 6112 -142 0
-141 6112 142 0
-141 -6112 -142 0
-142 -6110 6111 0
-142 6110 6123 143 0
-142 6111 6123 0
-142 -6111 -6123 -143 0
142 6110 -6123 143 0
142 -6111 6123 -143 0
142 -6110 -6111 143 0
142 6110 6111 -6123 0
-143 6112 6113 0
143 -6112 0
143 -6113 0
-144 6113 142 0
-144 -142 145 0
144 -6113 142 0
144 -142 -145 0
-145 -146 -148 0
-145 -146 147 0
-145 147 148 149 0
145 -147 148 0
145 146 -148 0
145 146 -149 0
146 -6111 6123 0
-146 6111 0
-146 -6123 0
147 -6110 -6111 6123 0
147 -6111 6123 -143 0
-147 6111 0
-147 -6123 0
-147 6110 143 0
148 6112 -6113 0
148 -6112 6113 0
-148 -6112 -6113 0
-148 6112 6113 0
149 -6110 -6111 0
-149 6110 0
-149 6111 0
-150 -15 35 0
-150 6116 35 0
150 -35 0
150 -6116 15 0
151 6117 -7279 0
-151 -6117 0
-151 7279 0
-152 6118 155 0
-152 -153 155 0
152 -155 0
152 -6118 153 0
-153 65 154 0
-153 6117 63 154 0
153 -154 0
153 -63 -65 0
153 -6117 -65 0
-154 7282 64 0
154 -7282 0
154 -64 0
155 -153 -156 0
155 -53 68 -153 0
-155 153 0
-155 53 156 0
-155 -68 156 0
-156 -6114 157 0
-156 6117 157 0
156 -157 0
156 6114 -6117 0
157 -6106 -6126 0
-157 6106 0
-157 6126 0
158 7282 -48 0
158 -6125 7282 0
-158 -7282 0
-158 6125 48 0
-159 7542 160 0
-159 6106 6128 0
-159 6128 160 0
159 -6128 -7542 0
159 -6106 -160 0
159 -6128 -160 0
-160 6126 49 0
160 -6126 0
160 -49 0
161 -162 -163 0
-161 162 0
-161 163 0
-162 6126 7542 49 0
162 -6126 0
162 -49 0
162 -7542 0
163 -6131 157 0
163 -49 157 0
-163 -157 0
-163 6131 49 0
-164 7462 165 0
-164 -7462 -64 0
-164 6132 -7462 0
164 7462 -165 0
164 -6132 -7462 64 0
165 166 167 168 -169 0
-165 169 0
-165 -166 0
-165 -168 0
-165 -167 0
-166 -7660 18 0
-166 -7662 22 0
-166 -7660 -7662 0
-166 18 22 0
166 7660 -22 0
166 7662 -18 0
-167 -7658 20 0
-167 -7656 23 0
-167 -7656 -7658 0
-167 20 23 0
167 7658 -23 0
167 7656 -20 0
-168 -7659 25 0
-168 -7661 30 0
-168 -7659 -7661 0
-168 25 30 0
168 7659 -30 0
168 7661 -25 0
169 -7663 27 0
169 -7657 -29 0
169 -7657 -7663 0
169 27 -29 0
-169 7663 29 0
-169 7657 -27 0
-170 6133 172 0
-170 -171 172 0
170 -172 0
170 -6133 171 0
-171 15 64 0
171 -15 0
171 -64 0
172 -7468 173 -174 0
172 25 173 -174 0
-172 174 0
-172 -173 0
-172 7468 -25 0
-173 -7466 27 0
-173 -7464 30 0
-173 -7464 -7466 0
-173 27 30 0
173 7466 -30 0
173 7464 -27 0
174 -7470 175 -177 0
174 -29 175 -177 0
-174 177 0
-174 -175 0
-174 7470 29 0
-175 -7467 176 0
-175 22 176 0
175 -176 0
175 7467 -22 0
-176 -7465 18 0
-176 -7469 23 0
-176 -7465 -7469 0
-176 18 23 0
176 7465 -23 0
176 7469 -18 0
177 -7463 -15 0
177 -15 20 0
-177 15 0
-177 7463 -20 0
178 -6134 183 0
178 -179 -181 0
178 -179 183 0
178 -6134 -181 0
-178 6134 179 0
-178 181 -183 0
-179 6117 8968 180 0
-179 6117 8968 49 0
179 -6117 0
179 -8968 0
179 -49 -180 0
180 -6211 7535 0
-180 6211 0
-180 -7535 0
181 -7278 -182 0
181 -6117 -6132 -7278 0
-181 7278 0
-181 6132 182 0
-181 6117 182 0
182 -6133 -6211 0
-182 6133 0
-182 6211 0
183 -179 184 0
-183 179 0
-183 -184 0
184 -6106 -6126 -185 0
184 -6106 -6126 -165 0
-184 6106 0
-184 6126 0
-184 165 185 0
185 186 187 188 -189 0
-185 189 0
-185 -186 0
-185 -188 0
-185 -187 0
-186 -7664 18 0
-186 -7670 20 0
-186 -7664 -7670 0
-186 18 20 0
186 7664 -20 0
186 7670 -18 0
-187 -7666 22 0
-187 -7668 23 0
-187 -7666 -7668 0
-187 22 23 0
187 7666 -23 0
187 7668 -22 0
-188 -7665 25 0
-188 -7669 27 0
-188 -7665 -7669 0
-188 25 27 0
188 7665 -27 0
188 7669 -25 0
189 -7667 -29 0
189 -7671 30 0
189 -7667 -7671 0
189 -29 30 0
-189 7667 -30 0
-189 7671 29 0
-190 7462 185 0
-190 -7462 -64 0
-190 6135 -7462 0
190 7462 -185 0
190 -6135 -7462 64 0
-191 6136 192 0
-191 -171 192 0
191 -192 0
191 -6136 171 0
192 -7478 193 -194 0
192 -29 193 -194 0
-192 194 0
-192 -193 0
-192 7478 29 0
-193 -7474 25 0
-193 -7476 30 0
-193 -7474 -7476 0
-193 25 30 0
193 7474 -30 0
193 7476 -25 0
194 -7472 195 -197 0
194 27 195 -197 0
-194 197 0
-194 -195 0
-194 7472 -27 0
-195 -7477 196 0
-195 18 196 0
195 -196 0
195 7477 -18 0
-196 -7475 20 0
-196 -7471 22 0
-196 -7471 -7475 0
-196 20 22 0
196 7475 -22 0
196 7471 -20 0
197 -7473 -15 0
197 -15 23 0
-197 15 0
-197 7473 -23 0
-198 -179 199 0
-198 6137 179 0
-198 7278 -179 0
198 -6137 179 0
198 -7278 -179 -199 0
-199 6135 6136 0
-199 6117 6211 0
-199 6135 6211 0
-199 6117 6136 0
199 -6117 -6135 0
199 -6136 -6211 0
-200 6138 201 0
-200 -171 201 0
200 -201 0
200 -6138 171 0
201 -7482 202 -203 0
201 30 202 -203 0
-201 203 0
-201 -202 0
-201 7482 -30 0
-202 -7480 25 0
-202 -7484 27 0
-202 -7480 -7484 0
-202 25 27 0
202 7480 -27 0
202 7484 -25 0
203 -7486 204 -206 0
203 -29 204 -206 0
-203 206 0
-203 -204 0
-203 7486 29 0
-204 -7481 205 0
-204 23 205 0
204 -205 0
204 7481 -23 0
-205 -7479 18 0
-205 -7485 20 0
-205 -7479 -7485 0
-205 18 20 0
205 7479 -20 0
205 7485 -18 0
206 -7483 -15 0
206 -15 22 0
-206 15 0
-206 7483 -22 0
-207 -179 208 0
-207 6139 179 0
-207 7278 -179 0
207 -6139 179 0
207 -7278 -179 -208 0
-208 6211 -6840 0
-208 6117 6138 0
-208 6138 -6840 0
-208 6117 6211 0
208 -6138 -6211 0
208 -6117 6840 0
-209 6140 210 0
-209 -171 210 0
209 -210 0
209 -6140 171 0
210 -7492 -211 -212 0
210 25 -211 -212 0
-210 212 0
-210 211 0
-210 7492 -25 0
211 -7490 -29 0
211 -7494 30 0
211 -7490 -7494 0
211 -29 30 0
-211 7490 -30 0
-211 7494 29 0
212 -7488 213 -215 0
212 27 213 -215 0
-212 215 0
-212 -213 0
-212 7488 -27 0
-213 -7487 214 0
-213 20 214 0
213 -214 0
213 7487 -20 0
-214 -7491 18 0
-214 -7493 22 0
-214 -7491 -7493 0
-214 18 22 0
214 7491 -22 0
214 7493 -18 0
215 -7489 -15 0
215 -15 23 0
-215 15 0
-215 7489 -23 0
-216 -179 217 0
-216 6141 179 0
-216 7278 -179 0
216 -6141 179 0
216 -7278 -179 -217 0
-217 6211 -6849 0
-217 6117 6140 0
-217 6140 -6849 0
-217 6117 6211 0
217 -6140 -6211 0
217 -6117 6849 0
-218 6142 219 0
-218 -171 219 0
218 -219 0
218 -6142 171 0
219 -7498 -220 -221 0
219 30 -220 -221 0
-219 221 0
-219 220 0
-219 7498 -30 0
220 -7502 27 0
220 -7496 -29 0
220 -7496 -7502 0
220 27 -29 0
-220 7502 29 0
-220 7496 -27 0
221 -7500 222 -224 0
221 25 222 -224 0
-221 224 0
-221 -222 0
-221 7500 -25 0
-222 -7497 223 0
-222 23 223 0
222 -223 0
222 7497 -23 0
-223 -7495 18 0
-223 -7501 20 0
-223 -7495 -7501 0
-223 18 20 0
223 7495 -20 0
223 7501 -18 0
224 -7499 -15 0
224 -15 22 0
-224 15 0
-224 7499 -22 0
-225 -179 226 0
-225 6143 179 0
-225 7278 -179 0
225 -6143 179 0
225 -7278 -179 -226 0
-226 6211 -6858 0
-226 6117 6142 0
-226 6142 -6858 0
-226 6117 6211 0
226 -6142 -6211 0
226 -6117 6858 0
-227 6144 228 0
-227 -171 228 0
227 -228 0
227 -6144 171 0
228 -7506 229 -230 0
228 30 229 -230 0
-228 230 0
-228 -229 0
-228 7506 -30 0
-229 -7504 25 0
-229 -7508 27 0
-229 -7504 -7508 0
-229 25 27 0
229 7504 -27 0
229 7508 -25 0
230 -7510 231 -233 0
230 -29 231 -233 0
-230 233 0
-230 -231 0
-230 7510 29 0
-231 -7505 232 0
-231 23 232 0
231 -232 0
231 7505 -23 0
-232 -7507 20 0
-232 -7503 22 0
-232 -7503 -7507 0
-232 20 22 0
232 7507 -22 0
232 7503 -20 0
233 -7509 -15 0
233 -15 18 0
-233 15 0
-233 7509 -18 0
-234 -179 235 0
-234 6145 179 0
-234 7278 -179 0
234 -6145 179 0
234 -7278 -179 -235 0
-235 6211 -6867 0
-235 6117 6144 0
-235 6144 -6867 0
-235 6117 6211 0
235 -6144 -6211 0
235 -6117 6867 0
-236 6146 237 0
-236 -171 237 0
236 -237 0
236 -6146 171 0
237 -7518 238 -239 0
237 -29 238 -239 0
-237 239 0
-237 -238 0
-237 7518 29 0
-238 -7512 25 0
-238 -7516 27 0
-238 -7512 -7516 0
-238 25 27 0
238 7512 -27 0
238 7516 -25 0
239 -7514 240 -242 0
239 30 240 -242 0
-239 242 0
-239 -240 0
-239 7514 -30 0
-240 -7511 241 0
-240 20 241 0
240 -241 0
240 7511 -20 0
-241 -7513 22 0
-241 -7515 23 0
-241 -7513 -7515 0
-241 22 23 0
241 7513 -23 0
241 7515 -22 0
242 -7517 -15 0
242 -15 18 0
-242 15 0
-242 7517 -18 0
-243 -179 244 0
-243 6147 179 0
-243 7278 -179 0
243 -6147 179 0
243 -7278 -179 -244 0
-244 6211 -6876 0
-244 6117 6146 0
-244 6146 -6876 0
-244 6117 6211 0
244 -6146 -6211 0
244 -6117 6876 0
-245 6148 246 0
-245 -171 246 0
245 -246 0
245 -6148 171 0
246 -7520 -247 -248 0
246 27 -247 -248 0
-246 248 0
-246 247 0
-246 7520 -27 0
247 -7522 -29 0
247 -7526 30 0
247 -7522 -7526 0
247 -29 30 0
-247 7522 -30 0
-247 7526 29 0
248 -7524 249 -251 0
248 25 249 -251 0
-248 251 0
-248 -249 0
-248 7524 -25 0
-249 -7523 250 0
-249 22 250 0
249 -250 0
249 7523 -22 0
-250 -7519 18 0
-250 -7525 20 0
-250 -7519 -7525 0
-250 18 20 0
250 7519 -20 0
250 7525 -18 0
251 -7521 -15 0
251 -15 23 0
-251 15 0
-251 7521 -23 0
-252 -179 253 0
-252 6149 179 0
-252 7278 -179 0
252 -6149 179 0
252 -7278 -179 -253 0
-253 6211 -6885 0
-253 6117 6148 0
-253 6148 -6885 0
-253 6117 6211 0
253 -6148 -6211 0
253 -6117 6885 0
254 183 -255 0
254 -6117 6894 -255 0
-254 255 0
-254 -6894 -183 0
-254 6117 -183 0
-255 6150 179 0
255 -6150 0
255 -179 0
-256 6117 6151 0
-256 -6895 -179 0
-256 6151 -6895 0
-256 6117 -179 0
256 -6117 6895 0
256 -6151 179 0
-257 6117 6152 0
-257 -6896 -179 0
-257 6152 -6896 0
-257 6117 -179 0
257 -6117 6896 0
257 -6152 179 0
-258 6117 6153 0
-258 -6897 -179 0
-258 6153 -6897 0
-258 6117 -179 0
258 -6117 6897 0
258 -6153 179 0
-259 6117 6154 0
-259 -6898 -179 0
-259 6154 -6898 0
-259 6117 -179 0
259 -6117 6898 0
259 -6154 179 0
-260 6117 6155 0
-260 -6899 -179 0
-260 6155 -6899 0
-260 6117 -179 0
260 -6117 6899 0
260 -6155 179 0
-261 6117 6156 0
-261 -6900 -179 0
-261 6156 -6900 0
-261 6117 -179 0
261 -6117 6900 0
261 -6156 179 0
-262 6117 6157 0
-262 -6901 -179 0
-262 6157 -6901 0
-262 6117 -179 0
262 -6117 6901 0
262 -6157 179 0
263 183 -264 0
263 -6117 6902 -264 0
-263 264 0
-263 -6902 -183 0
-263 6117 -183 0
-264 6158 179 0
264 -6158 0
264 -179 0
-265 6117 6159 0
-265 -6903 -179 0
-265 6159 -6903 0
-265 6117 -179 0
265 -6117 6903 0
265 -6159 179 0
-266 6117 6160 0
-266 -6904 -179 0
-266 6160 -6904 0
-266 6117 -179 0
266 -6117 6904 0
266 -6160 179 0
-267 6117 6161 0
-267 -6905 -179 0
-267 6161 -6905 0
-267 6117 -179 0
267 -6117 6905 0
267 -6161 179 0
-268 6117 6162 0
-268 -6906 -179 0
-268 6162 -6906 0
-268 6117 -179 0
268 -6117 6906 0
268 -6162 179 0
-269 6117 6163 0
-269 -6907 -179 0
-269 6163 -6907 0
-269 6117 -179 0
269 -6117 6907 0
269 -6163 179 0
-270 6117 6164 0
-270 -6908 -179 0
-270 6164 -6908 0
-270 6117 -179 0
270 -6117 6908 0
270 -6164 179 0
-271 6117 6165 0
-271 -6909 -179 0
-271 6165 -6909 0
-271 6117 -179 0
271 -6117 6909 0
271 -6165 179 0
272 183 -273 0
272 -6117 6910 -273 0
-272 273 0
-272 -6910 -183 0
-272 6117 -183 0
-273 6166 179 0
273 -6166 0
273 -179 0
-274 6117 6167 0
-274 -6911 -179 0
-274 6167 -6911 0
-274 6117 -179 0
274 -6117 6911 0
274 -6167 179 0
-275 6117 6168 0
-275 -6912 -179 0
-275 6168 -6912 0
-275 6117 -179 0
275 -6117 6912 0
275 -6168 179 0
-276 6117 6169 0
-276 -6913 -179 0
-276 6169 -6913 0
-276 6117 -179 0
276 -6117 6913 0
276 -6169 179 0
-277 6117 6170 0
-277 -6914 -179 0
-277 6170 -6914 0
-277 6117 -179 0
277 -6117 6914 0
277 -6170 179 0
-278 6117 6171 0
-278 -6915 -179 0
-278 6171 -6915 0
-278 6117 -179 0
278 -6117 6915 0
278 -6171 179 0
-279 6117 6172 0
-279 -6916 -179 0
-279 6172 -6916 0
-279 6117 -179 0
279 -6117 6916 0
279 -6172 179 0
-280 6117 6173 0
-280 -6917 -179 0
-280 6173 -6917 0
-280 6117 -179 0
280 -6117 6917 0
280 -6173 179 0
281 183 -282 0
281 -6117 6918 -282 0
-281 282 0
-281 -6918 -183 0
-281 6117 -183 0
-282 6174 179 0
282 -6174 0
282 -179 0
-283 6117 6175 0
-283 -6919 -179 0
-283 6175 -6919 0
-283 6117 -179 0
283 -6117 6919 0
283 -6175 179 0
-284 6117 6176 0
-284 -6920 -179 0
-284 6176 -6920 0
-284 6117 -179 0
284 -6117 6920 0
284 -6176 179 0
-285 6117 6177 0
-285 -6921 -179 0
-285 6177 -6921 0
-285 6117 -179 0
285 -6117 6921 0
285 -6177 179 0
-286 6117 6178 0
-286 -6922 -179 0
-286 6178 -6922 0
-286 6117 -179 0
286 -6117 6922 0
286 -6178 179 0
-287 6117 6179 0
-287 -6923 -179 0
-287 6179 -6923 0
-287 6117 -179 0
287 -6117 6923 0
287 -6179 179 0
-288 6117 6180 0
-288 -6924 -179 0
-288 6180 -6924 0
-288 6117 -179 0
288 -6117 6924 0
288 -6180 179 0
-289 6117 6181 0
-289 -6925 -179 0
-289 6181 -6925 0
-289 6117 -179 0
289 -6117 6925 0
289 -6181 179 0
290 183 -291 0
290 -6117 6926 -291 0
-290 291 0
-290 -6926 -183 0
-290 6117 -183 0
-291 6182 179 0
291 -6182 0
291 -179 0
-292 6117 6183 0
-292 -6927 -179 0
-292 6183 -6927 0
-292 6117 -179 0
292 -6117 6927 0
292 -6183 179 0
-293 6117 6184 0
-293 -6928 -179 0
-293 6184 -6928 0
-293 6117 -179 0
293 -6117 6928 0
293 -6184 179 0
-294 6117 6185 0
-294 -6929 -179 0
-294 6185 -6929 0
-294 6117 -179 0
294 -6117 6929 0
294 -6185 179 0
-295 6117 6186 0
-295 -6930 -179 0
-295 6186 -6930 0
-295 6117 -179 0
295 -6117 6930 0
295 -6186 179 0
-296 6117 6187 0
-296 -6931 -179 0
-296 6187 -6931 0
-296 6117 -179 0
296 -6117 6931 0
296 -6187 179 0
-297 6117 6188 0
-297 -6932 -179 0
-297 6188 -6932 0
-297 6117 -179 0
297 -6117 6932 0
297 -6188 179 0
-298 6117 6189 0
-298 -6933 -179 0
-298 6189 -6933 0
-298 6117 -179 0
298 -6117 6933 0
298 -6189 179 0
299 183 -300 0
299 -6117 6934 -300 0
-299 300 0
-299 -6934 -183 0
-299 6117 -183 0
-300 6190 179 0
300 -6190 0
300 -179 0
-301 6117 6191 0
-301 -6935 -179 0
-301 6191 -6935 0
-301 6117 -179 0
301 -6117 6935 0
301 -6191 179 0
-302 6117 6192 0
-302 -6936 -179 0
-302 6192 -6936 0
-302 6117 -179 0
302 -6117 6936 0
302 -6192 179 0
-303 6117 6193 0
-303 -6937 -179 0
-303 6193 -6937 0
-303 6117 -179 0
303 -6117 6937 0
303 -6193 179 0
-304 6117 6194 0
-304 -6938 -179 0
-304 6194 -6938 0
-304 6117 -179 0
304 -6117 6938 0
304 -6194 179 0
-305 6117 6195 0
-305 -6939 -179 0
-305 6195 -6939 0
-305 6117 -179 0
305 -6117 6939 0
305 -6195 179 0
-306 6117 6196 0
-306 -6940 -179 0
-306 6196 -6940 0
-306 6117 -179 0
306 -6117 6940 0
306 -6196 179 0
-307 6117 6197 0
-307 -6941 -179 0
-307 6197 -6941 0
-307 6117 -179 0
307 -6117 6941 0
307 -6197 179 0
308 183 -309 0
308 -6117 6942 -309 0
-308 309 0
-308 -6942 -183 0
-308 6117 -183 0
-309 6198 179 0
309 -6198 0
309 -179 0
-310 6117 6199 0
-310 -6943 -179 0
-310 6199 -6943 0
-310 6117 -179 0
310 -6117 6943 0
310 -6199 179 0
-311 6117 6200 0
-311 -6944 -179 0
-311 6200 -6944 0
-311 6117 -179 0
311 -6117 6944 0
311 -6200 179 0
-312 6117 6201 0
-312 -6945 -179 0
-312 6201 -6945 0
-312 6117 -179 0
312 -6117 6945 0
312 -6201 179 0
-313 6117 6202 0
-313 -6946 -179 0
-313 6202 -6946 0
-313 6117 -179 0
313 -6117 6946 0
313 -6202 179 0
-314 6117 6203 0
-314 -6947 -179 0
-314 6203 -6947 0
-314 6117 -179 0
314 -6117 6947 0
314 -6203 179 0
-315 6117 6204 0
-315 -6948 -179 0
-315 6204 -6948 0
-315 6117 -179 0
315 -6117 6948 0
315 -6204 179 0
-316 6117 6205 0
-316 -6949 -179 0
-316 6205 -6949 0
-316 6117 -179 0
316 -6117 6949 0
316 -6205 179 0
317 -6127 6128 -8950 0
-317 6127 0
-317 -6128 0
-317 8950 0
318 6208 -7406 0
318 -6208 7406 0
-318 -6208 -7406 0
-318 6208 7406 0
319 6209 -320 0
319 -6209 320 0
-319 -6209 -320 0
-319 6209 320 0
320 -6208 -7406 0
-320 6208 0
-320 7406 0
321 6210 -322 0
321 -6210 322 0
-321 -6210 -322 0
-321 6210 322 0
322 -6208 -6209 -7406 0
-322 6208 0
-322 6209 0
-322 7406 0
323 -14 -33 0
-323 14 0
-323 33 0
324 325 328 -331 334 0
-324 -334 0
-324 -325 0
-324 331 0
-324 -328 0
-325 -7014 326 0
-325 -7018 327 0
-325 -7014 -7018 0
-325 326 327 0
325 7014 -327 0
325 7018 -326 0
326 6209 6210 -318 0
-326 318 0
-326 -6210 0
-326 -6209 0
327 6209 -6210 -318 0
-327 318 0
-327 6210 0
-327 -6209 0
-328 -7012 329 0
-328 -7016 330 0
-328 -7012 -7016 0
-328 329 330 0
328 7012 -330 0
328 7016 -329 0
329 -6209 6210 -318 0
-329 6209 0
-329 -6210 0
-329 318 0
330 -6209 -6210 -318 0
-330 6209 0
-330 6210 0
-330 318 0
331 -7019 332 0
331 -7015 -333 0
331 -7015 -7019 0
331 332 -333 0
-331 7019 333 0
-331 7015 -332 0
332 6208 6209 -6210 7406 0
332 -6208 -6209 6210 -7406 0
-332 -6208 -6210 0
-332 6209 6210 0
-332 6208 -7406 0
-332 -6209 7406 0
-333 6208 6209 6210 7406 0
-333 -6208 -6209 -6210 -7406 0
333 6209 -7406 0
333 -6208 7406 0
333 -6209 6210 0
333 6208 -6210 0
-334 -7013 335 0
-334 -7017 337 0
-334 -7013 -7017 0
-334 335 337 0
334 7013 -337 0
334 7017 -335 0
335 6210 -336 0
-335 -6210 0
-335 336 0
336 6208 -6209 7406 0
336 -6208 6209 -7406 0
-336 -6208 -6209 0
-336 6209 7406 0
-336 6208 -7406 0
337 -6210 -336 0
-337 6210 0
-337 336 0
338 339 340 341 -342 0
-338 342 0
-338 -339 0
-338 -341 0
-338 -340 0
-339 -7020 326 0
-339 -7026 330 0
-339 -7020 -7026 0
-339 326 330 0
339 7020 -330 0
339 7026 -326 0
-340 -7024 327 0
-340 -7022 329 0
-340 -7022 -7024 0
-340 327 329 0
340 7024 -329 0
340 7022 -327 0
-341 -7021 335 0
-341 -7025 337 0
-341 -7021 -7025 0
-341 335 337 0
341 7021 -337 0
341 7025 -335 0
342 -7027 332 0
342 -7023 -333 0
342 -7023 -7027 0
342 332 -333 0
-342 7027 333 0
-342 7023 -332 0
343 344 345 -346 347 0
-343 -347 0
-343 -344 0
-343 346 0
-343 -345 0
-344 -7028 327 0
-344 -7030 330 0
-344 -7028 -7030 0
-344 327 330 0
344 7028 -330 0
344 7030 -327 0
-345 -7032 326 0
-345 -7034 329 0
-345 -7032 -7034 0
-345 326 329 0
345 7032 -329 0
345 7034 -326 0
346 -7035 332 0
346 -7031 -333 0
346 -7031 -7035 0
346 332 -333 0
-346 7035 333 0
-346 7031 -332 0
-347 -7029 335 0
-347 -7033 337 0
-347 -7029 -7033 0
-347 335 337 0
347 7029 -337 0
347 7033 -335 0
348 349 350 351 -352 0
-348 352 0
-348 -349 0
-348 -351 0
-348 -350 0
-349 -7040 327 0
-349 -7038 329 0
-349 -7038 -7040 0
-349 327 329 0
349 7040 -329 0
349 7038 -327 0
-350 -7036 326 0
-350 -7042 330 0
-350 -7036 -7042 0
-350 326 330 0
350 7036 -330 0
350 7042 -326 0
-351 -7037 332 0
-351 -7039 337 0
-351 -7037 -7039 0
-351 332 337 0
351 7037 -337 0
351 7039 -332 0
352 -7041 -333 0
352 -7043 335 0
352 -7041 -7043 0
352 -333 335 0
-352 7041 -335 0
-352 7043 333 0
353 354 355 -356 357 0
-353 -357 0
-353 -354 0
-353 356 0
-353 -355 0
-354 -7044 326 0
-354 -7050 330 0
-354 -7044 -7050 0
-354 326 330 0
354 7044 -330 0
354 7050 -326 0
-355 -7048 327 0
-355 -7046 329 0
-355 -7046 -7048 0
-355 327 329 0
355 7048 -329 0
355 7046 -327 0
356 -7045 -333 0
356 -7051 337 0
356 -7045 -7051 0
356 -333 337 0
-356 7045 -337 0
-356 7051 333 0
-357 -7049 332 0
-357 -7047 335 0
-357 -7047 -7049 0
-357 332 335 0
357 7049 -335 0
357 7047 -332 0
358 359 360 361 -362 0
-358 362 0
-358 -359 0
-358 -361 0
-358 -360 0
-359 -7052 327 0
-359 -7054 330 0
-359 -7052 -7054 0
-359 327 330 0
359 7052 -330 0
359 7054 -327 0
-360 -7056 326 0
-360 -7058 329 0
-360 -7056 -7058 0
-360 326 329 0
360 7056 -329 0
360 7058 -326 0
-361 -7057 332 0
-361 -7055 335 0
-361 -7055 -7057 0
-361 332 335 0
361 7057 -335 0
361 7055 -332 0
362 -7053 -333 0
362 -7059 337 0
362 -7053 -7059 0
362 -333 337 0
-362 7053 -337 0
-362 7059 333 0
363 364 365 366 -367 0
-363 367 0
-363 -364 0
-363 -366 0
-363 -365 0
-364 -7060 329 0
-364 -7064 330 0
-364 -7060 -7064 0
-364 329 330 0
364 7060 -330 0
364 7064 -329 0
-365 -7062 326 0
-365 -7066 327 0
-365 -7062 -7066 0
-365 326 327 0
365 7062 -327 0
365 7066 -326 0
-366 -7061 332 0
-366 -7063 337 0
-366 -7061 -7063 0
-366 332 337 0
366 7061 -337 0
366 7063 -332 0
367 -7065 -333 0
367 -7067 335 0
367 -7065 -7067 0
367 -333 335 0
-367 7065 -335 0
-367 7067 333 0
368 369 370 371 -372 0
-368 372 0
-368 -369 0
-368 -371 0
-368 -370 0
-369 -7070 326 0
-369 -7074 327 0
-369 -7070 -7074 0
-369 326 327 0
369 7070 -327 0
369 7074 -326 0
-370 -7068 329 0
-370 -7072 330 0
-370 -7068 -7072 0
-370 329 330 0
370 7068 -330 0
370 7072 -329 0
-371 -7073 332 0
-371 -7071 335 0
-371 -7071 -7073 0
-371 332 335 0
371 7073 -335 0
371 7071 -332 0
372 -7069 -333 0
372 -7075 337 0
372 -7069 -7075 0
372 -333 337 0
-372 7069 -337 0
-372 7075 333 0
373 374 375 -376 377 0
-373 -377 0
-373 -374 0
-373 376 0
-373 -375 0
-374 -7080 326 0
-374 -7082 329 0
-374 -7080 -7082 0
-374 326 329 0
374 7080 -329 0
374 7082 -326 0
-375 -7076 327 0
-375 -7078 330 0
-375 -7076 -7078 0
-375 327 330 0
375 7076 -330 0
375 7078 -327 0
376 -7077 -333 0
376 -7083 337 0
376 -7077 -7083 0
376 -333 337 0
-376 7077 -337 0
-376 7083 333 0
-377 -7081 332 0
-377 -7079 335 0
-377 -7079 -7081 0
-377 332 335 0
377 7081 -335 0
377 7079 -332 0
378 379 380 381 -382 0
-378 382 0
-378 -379 0
-378 -381 0
-378 -380 0
-379 -7088 326 0
-379 -7090 329 0
-379 -7088 -7090 0
-379 326 329 0
379 7088 -329 0
379 7090 -326 0
-380 -7084 327 0
-380 -7086 330 0
-380 -7084 -7086 0
-380 327 330 0
380 7084 -330 0
380 7086 -327 0
-381 -7085 332 0
-381 -7087 337 0
-381 -7085 -7087 0
-381 332 337 0
381 7085 -337 0
381 7087 -332 0
382 -7089 -333 0
382 -7091 335 0
382 -7089 -7091 0
382 -333 335 0
-382 7089 -335 0
-382 7091 333 0
383 384 385 -386 387 0
-383 -387 0
-383 -384 0
-383 386 0
-383 -385 0
-384 -7092 329 0
-384 -7096 330 0
-384 -7092 -7096 0
-384 329 330 0
384 7092 -330 0
384 7096 -329 0
-385 -7094 326 0
-385 -7098 327 0
-385 -7094 -7098 0
-385 326 327 0
385 7094 -327 0
385 7098 -326 0
386 -7093 -333 0
386 -7099 337 0
386 -7093 -7099 0
386 -333 337 0
-386 7093 -337 0
-386 7099 333 0
-387 -7097 332 0
-387 -7095 335 0
-387 -7095 -7097 0
-387 332 335 0
387 7097 -335 0
387 7095 -332 0
388 389 390 391 -392 0
-388 392 0
-388 -389 0
-388 -391 0
-388 -390 0
-389 -7100 329 0
-389 -7104 330 0
-389 -7100 -7104 0
-389 329 330 0
389 7100 -330 0
389 7104 -329 0
-390 -7102 326 0
-390 -7106 327 0
-390 -7102 -7106 0
-390 326 327 0
390 7102 -327 0
390 7106 -326 0
-391 -7101 332 0
-391 -7103 337 0
-391 -7101 -7103 0
-391 332 337 0
391 7101 -337 0
391 7103 -332 0
392 -7105 -333 0
392 -7107 335 0
392 -7105 -7107 0
392 -333 335 0
-392 7105 -335 0
-392 7107 333 0
393 394 395 -396 397 0
-393 -397 0
-393 -394 0
-393 396 0
-393 -395 0
-394 -7108 326 0
-394 -7114 330 0
-394 -7108 -7114 0
-394 326 330 0
394 7108 -330 0
394 7114 -326 0
-395 -7112 327 0
-395 -7110 329 0
-395 -7110 -7112 0
-395 327 329 0
395 7112 -329 0
395 7110 -327 0
396 -7113 -333 0
396 -7115 335 0
396 -7113 -7115 0
396 -333 335 0
-396 7113 -335 0
-396 7115 333 0
-397 -7109 332 0
-397 -7111 337 0
-397 -7109 -7111 0
-397 332 337 0
397 7109 -337 0
397 7111 -332 0
398 399 400 -401 402 0
-398 -402 0
-398 -399 0
-398 401 0
-398 -400 0
-399 -7118 326 0
-399 -7122 327 0
-399 -7118 -7122 0
-399 326 327 0
399 7118 -327 0
399 7122 -326 0
-400 -7116 329 0
-400 -7120 330 0
-400 -7116 -7120 0
-400 329 330 0
400 7116 -330 0
400 7120 -329 0
401 -7117 -333 0
401 -7123 337 0
401 -7117 -7123 0
401 -333 337 0
-401 7117 -337 0
-401 7123 333 0
-402 -7121 332 0
-402 -7119 335 0
-402 -7119 -7121 0
-402 332 335 0
402 7121 -335 0
402 7119 -332 0
403 404 405 -406 407 0
-403 -407 0
-403 -404 0
-403 406 0
-403 -405 0
-404 -7126 326 0
-404 -7130 327 0
-404 -7126 -7130 0
-404 326 327 0
404 7126 -327 0
404 7130 -326 0
-405 -7124 329 0
-405 -7128 330 0
-405 -7124 -7128 0
-405 329 330 0
405 7124 -330 0
405 7128 -329 0
406 -7125 -333 0
406 -7131 337 0
406 -7125 -7131 0
406 -333 337 0
-406 7125 -337 0
-406 7131 333 0
-407 -7129 332 0
-407 -7127 335 0
-407 -7127 -7129 0
-407 332 335 0
407 7129 -335 0
407 7127 -332 0
408 409 410 411 -412 0
-408 412 0
-408 -409 0
-408 -411 0
-408 -410 0
-409 -7134 326 0
-409 -7138 327 0
-409 -7134 -7138 0
-409 326 327 0
409 7134 -327 0
409 7138 -326 0
-410 -7132 329 0
-410 -7136 330 0
-410 -7132 -7136 0
-410 329 330 0
410 7132 -330 0
410 7136 -329 0
-411 -7137 332 0
-411 -7135 335 0
-411 -7135 -7137 0
-411 332 335 0
411 7137 -335 0
411 7135 -332 0
412 -7133 -333 0
412 -7139 337 0
412 -7133 -7139 0
412 -333 337 0
-412 7133 -337 0
-412 7139 333 0
413 414 415 416 -417 0
-413 417 0
-413 -414 0
-413 -416 0
-413 -415 0
-414 -7140 327 0
-414 -7142 330 0
-414 -7140 -7142 0
-414 327 330 0
414 7140 -330 0
414 7142 -327 0
-415 -7144 326 0
-415 -7146 329 0
-415 -7144 -7146 0
-415 326 329 0
415 7144 -329 0
415 7146 -326 0
-416 -7141 332 0
-416 -7143 337 0
-416 -7141 -7143 0
-416 332 337 0
416 7141 -337 0
416 7143 -332 0
417 -7145 -333 0
417 -7147 335 0
417 -7145 -7147 0
417 -333 335 0
-417 7145 -335 0
-417 7147 333 0
418 419 420 -421 422 0
-418 -422 0
-418 -419 0
-418 421 0
-418 -420 0
-419 -7152 327 0
-419 -7150 329 0
-419 -7150 -7152 0
-419 327 329 0
419 7152 -329 0
419 7150 -327 0
-420 -7148 326 0
-420 -7154 330 0
-420 -7148 -7154 0
-420 326 330 0
420 7148 -330 0
420 7154 -326 0
421 -7153 -333 0
421 -7155 335 0
421 -7153 -7155 0
421 -333 335 0
-421 7153 -335 0
-421 7155 333 0
-422 -7149 332 0
-422 -7151 337 0
-422 -7149 -7151 0
-422 332 337 0
422 7149 -337 0
422 7151 -332 0
423 424 425 -426 427 0
-423 -427 0
-423 -424 0
-423 426 0
-423 -425 0
-424 -7156 329 0
-424 -7160 330 0
-424 -7156 -7160 0
-424 329 330 0
424 7156 -330 0
424 7160 -329 0
-425 -7158 326 0
-425 -7162 327 0
-425 -7158 -7162 0
-425 326 327 0
425 7158 -327 0
425 7162 -326 0
426 -7163 332 0
426 -7159 -333 0
426 -7159 -7163 0
426 332 -333 0
-426 7163 333 0
-426 7159 -332 0
-427 -7157 335 0
-427 -7161 337 0
-427 -7157 -7161 0
-427 335 337 0
427 7157 -337 0
427 7161 -335 0
428 429 430 431 -432 0
-428 432 0
-428 -429 0
-428 -431 0
-428 -430 0
-429 -7164 329 0
-429 -7168 330 0
-429 -7164 -7168 0
-429 329 330 0
429 7164 -330 0
429 7168 -329 0
-430 -7166 326 0
-430 -7170 327 0
-430 -7166 -7170 0
-430 326 327 0
430 7166 -327 0
430 7170 -326 0
-431 -7165 335 0
-431 -7169 337 0
-431 -7165 -7169 0
-431 335 337 0
431 7165 -337 0
431 7169 -335 0
432 -7171 332 0
432 -7167 -333 0
432 -7167 -7171 0
432 332 -333 0
-432 7171 333 0
-432 7167 -332 0
433 434 435 -436 437 0
-433 -437 0
-433 -434 0
-433 436 0
-433 -435 0
-434 -7176 326 0
-434 -7178 329 0
-434 -7176 -7178 0
-434 326 329 0
434 7176 -329 0
434 7178 -326 0
-435 -7172 327 0
-435 -7174 330 0
-435 -7172 -7174 0
-435 327 330 0
435 7172 -330 0
435 7174 -327 0
436 -7177 -333 0
436 -7179 335 0
436 -7177 -7179 0
436 -333 335 0
-436 7177 -335 0
-436 7179 333 0
-437 -7173 332 0
-437 -7175 337 0
-437 -7173 -7175 0
-437 332 337 0
437 7173 -337 0
437 7175 -332 0
438 439 440 441 -442 0
-438 442 0
-438 -439 0
-438 -441 0
-438 -440 0
-439 -7180 326 0
-439 -7186 330 0
-439 -7180 -7186 0
-439 326 330 0
439 7180 -330 0
439 7186 -326 0
-440 -7184 327 0
-440 -7182 329 0
-440 -7182 -7184 0
-440 327 329 0
440 7184 -329 0
440 7182 -327 0
-441 -7181 335 0
-441 -7185 337 0
-441 -7181 -7185 0
-441 335 337 0
441 7181 -337 0
441 7185 -335 0
442 -7187 332 0
442 -7183 -333 0
442 -7183 -7187 0
442 332 -333 0
-442 7187 333 0
-442 7183 -332 0
443 444 445 -446 447 0
-443 -447 0
-443 -444 0
-443 446 0
-443 -445 0
-444 -7192 327 0
-444 -7190 329 0
-444 -7190 -7192 0
-444 327 329 0
444 7192 -329 0
444 7190 -327 0
-445 -7188 326 0
-445 -7194 330 0
-445 -7188 -7194 0
-445 326 330 0
445 7188 -330 0
445 7194 -326 0
446 -7193 -333 0
446 -7195 335 0
446 -7193 -7195 0
446 -333 335 0
-446 7193 -335 0
-446 7195 333 0
-447 -7189 332 0
-447 -7191 337 0
-447 -7189 -7191 0
-447 332 337 0
447 7189 -337 0
447 7191 -332 0
448 449 450 -451 452 0
-448 -452 0
-448 -449 0
-448 451 0
-448 -450 0
-449 -7200 326 0
-449 -7202 329 0
-449 -7200 -7202 0
-449 326 329 0
449 7200 -329 0
449 7202 -326 0
-450 -7196 327 0
-450 -7198 330 0
-450 -7196 -7198 0
-450 327 330 0
450 7196 -330 0
450 7198 -327 0
451 -7203 332 0
451 -7199 -333 0
451 -7199 -7203 0
451 332 -333 0
-451 7203 333 0
-451 7199 -332 0
-452 -7197 335 0
-452 -7201 337 0
-452 -7197 -7201 0
-452 335 337 0
452 7197 -337 0
452 7201 -335 0
453 454 455 -456 457 0
-453 -457 0
-453 -454 0
-453 456 0
-453 -455 0
-454 -7208 326 0
-454 -7210 329 0
-454 -7208 -7210 0
-454 326 329 0
454 7208 -329 0
454 7210 -326 0
-455 -7204 327 0
-455 -7206 330 0
-455 -7204 -7206 0
-455 327 330 0
455 7204 -330 0
455 7206 -327 0
456 -7211 332 0
456 -7207 -333 0
456 -7207 -7211 0
456 332 -333 0
-456 7211 333 0
-456 7207 -332 0
-457 -7205 335 0
-457 -7209 337 0
-457 -7205 -7209 0
-457 335 337 0
457 7205 -337 0
457 7209 -335 0
458 459 460 461 -462 0
-458 462 0
-458 -459 0
-458 -461 0
-458 -460 0
-459 -7214 326 0
-459 -7218 327 0
-459 -7214 -7218 0
-459 326 327 0
459 7214 -327 0
459 7218 -326 0
-460 -7212 329 0
-460 -7216 330 0
-460 -7212 -7216 0
-460 329 330 0
460 7212 -330 0
460 7216 -329 0
-461 -7217 332 0
-461 -7215 335 0
-461 -7215 -7217 0
-461 332 335 0
461 7217 -335 0
461 7215 -332 0
462 -7213 -333 0
462 -7219 337 0
462 -7213 -7219 0
462 -333 337 0
-462 7213 -337 0
-462 7219 333 0
463 464 465 -466 467 0
-463 -467 0
-463 -464 0
-463 466 0
-463 -465 0
-464 -7224 326 0
-464 -7226 329 0
-464 -7224 -7226 0
-464 326 329 0
464 7224 -329 0
464 7226 -326 0
-465 -7220 327 0
-465 -7222 330 0
-465 -7220 -7222 0
-465 327 330 0
465 7220 -330 0
465 7222 -327 0
466 -7221 -333 0
466 -7227 337 0
466 -7221 -7227 0
466 -333 337 0
-466 7221 -337 0
-466 7227 333 0
-467 -7225 332 0
-467 -7223 335 0
-467 -7223 -7225 0
-467 332 335 0
467 7225 -335 0
467 7223 -332 0
468 469 470 -471 472 0
-468 -472 0
-468 -469 0
-468 471 0
-468 -470 0
-469 -7228 327 0
-469 -7230 330 0
-469 -7228 -7230 0
-469 327 330 0
469 7228 -330 0
469 7230 -327 0
-470 -7232 326 0
-470 -7234 329 0
-470 -7232 -7234 0
-470 326 329 0
470 7232 -329 0
470 7234 -326 0
471 -7235 332 0
471 -7231 -333 0
471 -7231 -7235 0
471 332 -333 0
-471 7235 333 0
-471 7231 -332 0
-472 -7229 335 0
-472 -7233 337 0
-472 -7229 -7233 0
-472 335 337 0
472 7229 -337 0
472 7233 -335 0
473 474 475 -476 477 0
-473 -477 0
-473 -474 0
-473 476 0
-473 -475 0
-474 -7238 326 0
-474 -7242 327 0
-474 -7238 -7242 0
-474 326 327 0
474 7238 -327 0
474 7242 -326 0
-475 -7236 329 0
-475 -7240 330 0
-475 -7236 -7240 0
-475 329 330 0
475 7236 -330 0
475 7240 -329 0
476 -7243 332 0
476 -7239 -333 0
476 -7239 -7243 0
476 332 -333 0
-476 7243 333 0
-476 7239 -332 0
-477 -7237 335 0
-477 -7241 337 0
-477 -7237 -7241 0
-477 335 337 0
477 7237 -337 0
477 7241 -335 0
478 479 480 481 -482 0
-478 482 0
-478 -479 0
-478 -481 0
-478 -480 0
-479 -7244 327 0
-479 -7246 330 0
-479 -7244 -7246 0
-479 327 330 0
479 7244 -330 0
479 7246 -327 0
-480 -7248 326 0
-480 -7250 329 0
-480 -7248 -7250 0
-480 326 329 0
480 7248 -329 0
480 7250 -326 0
-481 -7245 332 0
-481 -7247 337 0
-481 -7245 -7247 0
-481 332 337 0
481 7245 -337 0
481 7247 -332 0
482 -7249 -333 0
482 -7251 335 0
482 -7249 -7251 0
482 -333 335 0
-482 7249 -335 0
-482 7251 333 0
483 484 485 486 -487 0
-483 487 0
-483 -484 0
-483 -486 0
-483 -485 0
-484 -7252 326 0
-484 -7258 330 0
-484 -7252 -7258 0
-484 326 330 0
484 7252 -330 0
484 7258 -326 0
-485 -7256 327 0
-485 -7254 329 0
-485 -7254 -7256 0
-485 327 329 0
485 7256 -329 0
485 7254 -327 0
-486 -7253 332 0
-486 -7255 337 0
-486 -7253 -7255 0
-486 332 337 0
486 7253 -337 0
486 7255 -332 0
487 -7257 -333 0
487 -7259 335 0
487 -7257 -7259 0
487 -333 335 0
-487 7257 -335 0
-487 7259 333 0
488 489 490 491 -492 0
-488 492 0
-488 -489 0
-488 -491 0
-488 -490 0
-489 -7260 326 0
-489 -7266 330 0
-489 -7260 -7266 0
-489 326 330 0
489 7260 -330 0
489 7266 -326 0
-490 -7264 327 0
-490 -7262 329 0
-490 -7262 -7264 0
-490 327 329 0
490 7264 -329 0
490 7262 -327 0
-491 -7265 332 0
-491 -7263 335 0
-491 -7263 -7265 0
-491 332 335 0
491 7265 -335 0
491 7263 -332 0
492 -7261 -333 0
492 -7267 337 0
492 -7261 -7267 0
492 -333 337 0
-492 7261 -337 0
-492 7267 333 0
493 494 495 -496 497 0
-493 -497 0
-493 -494 0
-493 496 0
-493 -495 0
-494 -7270 326 0
-494 -7274 327 0
-494 -7270 -7274 0
-494 326 327 0
494 7270 -327 0
494 7274 -326 0
-495 -7268 329 0
-495 -7272 330 0
-495 -7268 -7272 0
-495 329 330 0
495 7268 -330 0
495 7272 -329 0
496 -7275 332 0
496 -7271 -333 0
496 -7271 -7275 0
496 332 -333 0
-496 7275 333 0
-496 7271 -332 0
-497 -7269 335 0
-497 -7273 337 0
-497 -7269 -7273 0
-497 335 337 0
497 7269 -337 0
497 7273 -335 0
498 499 500 -501 502 0
-498 -502 0
-498 -499 0
-498 501 0
-498 -500 0
-499 -6698 327 0
-499 -6696 329 0
-499 -6696 -6698 0
-499 327 329 0
499 6698 -329 0
499 6696 -327 0
-500 -6694 326 0
-500 -6700 330 0
-500 -6694 -6700 0
-500 326 330 0
500 6694 -330 0
500 6700 -326 0
501 -6701 332 0
501 -6697 -333 0
501 -6697 -6701 0
501 332 -333 0
-501 6701 333 0
-501 6697 -332 0
-502 -6695 335 0
-502 -6699 337 0
-502 -6695 -6699 0
-502 335 337 0
502 6695 -337 0
502 6699 -335 0
503 504 505 -506 507 0
-503 -507 0
-503 -504 0
-503 506 0
-503 -505 0
-504 -6702 326 0
-504 -6708 330 0
-504 -6702 -6708 0
-504 326 330 0
504 6702 -330 0
504 6708 -326 0
-505 -6706 327 0
-505 -6704 329 0
-505 -6704 -6706 0
-505 327 329 0
505 6706 -329 0
505 6704 -327 0
506 -6707 -333 0
506 -6709 335 0
506 -6707 -6709 0
506 -333 335 0
-506 6707 -335 0
-506 6709 333 0
-507 -6703 332 0
-507 -6705 337 0
-507 -6703 -6705 0
-507 332 337 0
507 6703 -337 0
507 6705 -332 0
508 509 510 -511 512 0
-508 -512 0
-508 -509 0
-508 511 0
-508 -510 0
-509 -6714 326 0
-509 -6716 329 0
-509 -6714 -6716 0
-509 326 329 0
509 6714 -329 0
509 6716 -326 0
-510 -6710 327 0
-510 -6712 330 0
-510 -6710 -6712 0
-510 327 330 0
510 6710 -330 0
510 6712 -327 0
511 -6711 -333 0
511 -6717 337 0
511 -6711 -6717 0
511 -333 337 0
-511 6711 -337 0
-511 6717 333 0
-512 -6715 332 0
-512 -6713 335 0
-512 -6713 -6715 0
-512 332 335 0
512 6715 -335 0
512 6713 -332 0
513 514 515 516 -517 0
-513 517 0
-513 -514 0
-513 -516 0
-513 -515 0
-514 -6722 327 0
-514 -6720 329 0
-514 -6720 -6722 0
-514 327 329 0
514 6722 -329 0
514 6720 -327 0
-515 -6718 326 0
-515 -6724 330 0
-515 -6718 -6724 0
-515 326 330 0
515 6718 -330 0
515 6724 -326 0
-516 -6723 332 0
-516 -6721 335 0
-516 -6721 -6723 0
-516 332 335 0
516 6723 -335 0
516 6721 -332 0
517 -6719 -333 0
517 -6725 337 0
517 -6719 -6725 0
517 -333 337 0
-517 6719 -337 0
-517 6725 333 0
518 519 520 -521 522 0
-518 -522 0
-518 -519 0
-518 521 0
-518 -520 0
-519 -6726 326 0
-519 -6732 330 0
-519 -6726 -6732 0
-519 326 330 0
519 6726 -330 0
519 6732 -326 0
-520 -6730 327 0
-520 -6728 329 0
-520 -6728 -6730 0
-520 327 329 0
520 6730 -329 0
520 6728 -327 0
521 -6733 332 0
521 -6729 -333 0
521 -6729 -6733 0
521 332 -333 0
-521 6733 333 0
-521 6729 -332 0
-522 -6727 335 0
-522 -6731 337 0
-522 -6727 -6731 0
-522 335 337 0
522 6727 -337 0
522 6731 -335 0
523 524 525 -526 527 0
-523 -527 0
-523 -524 0
-523 526 0
-523 -525 0
-524 -6734 327 0
-524 -6736 330 0
-524 -6734 -6736 0
-524 327 330 0
524 6734 -330 0
524 6736 -327 0
-525 -6738 326 0
-525 -6740 329 0
-525 -6738 -6740 0
-525 326 329 0
525 6738 -329 0
525 6740 -326 0
526 -6741 332 0
526 -6737 -333 0
526 -6737 -6741 0
526 332 -333 0
-526 6741 333 0
-526 6737 -332 0
-527 -6735 335 0
-527 -6739 337 0
-527 -6735 -6739 0
-527 335 337 0
527 6735 -337 0
527 6739 -335 0
528 529 530 -531 532 0
-528 -532 0
-528 -529 0
-528 531 0
-528 -530 0
-529 -6742 327 0
-529 -6744 330 0
-529 -6742 -6744 0
-529 327 330 0
529 6742 -330 0
529 6744 -327 0
-530 -6746 326 0
-530 -6748 329 0
-530 -6746 -6748 0
-530 326 329 0
530 6746 -329 0
530 6748 -326 0
531 -6743 -333 0
531 -6749 337 0
531 -6743 -6749 0
531 -333 337 0
-531 6743 -337 0
-531 6749 333 0
-532 -6747 332 0
-532 -6745 335 0
-532 -6745 -6747 0
-532 332 335 0
532 6747 -335 0
532 6745 -332 0
533 534 535 -536 537 0
-533 -537 0
-533 -534 0
-533 536 0
-533 -535 0
-534 -6750 326 0
-534 -6756 330 0
-534 -6750 -6756 0
-534 326 330 0
534 6750 -330 0
534 6756 -326 0
-535 -6754 327 0
-535 -6752 329 0
-535 -6752 -6754 0
-535 327 329 0
535 6754 -329 0
535 6752 -327 0
536 -6751 -333 0
536 -6757 337 0
536 -6751 -6757 0
536 -333 337 0
-536 6751 -337 0
-536 6757 333 0
-537 -6755 332 0
-537 -6753 335 0
-537 -6753 -6755 0
-537 332 335 0
537 6755 -335 0
537 6753 -332 0
538 539 540 -541 542 0
-538 -542 0
-538 -539 0
-538 541 0
-538 -540 0
-539 -6824 327 0
-539 -6826 330 0
-539 -6824 -6826 0
-539 327 330 0
539 6824 -330 0
539 6826 -327 0
-540 -6828 326 0
-540 -6830 329 0
-540 -6828 -6830 0
-540 326 329 0
540 6828 -329 0
540 6830 -326 0
541 -6831 332 0
541 -6827 -333 0
541 -6827 -6831 0
541 332 -333 0
-541 6831 333 0
-541 6827 -332 0
-542 -6825 335 0
-542 -6829 337 0
-542 -6825 -6829 0
-542 335 337 0
542 6825 -337 0
542 6829 -335 0
543 544 545 -546 547 0
-543 -547 0
-543 -544 0
-543 546 0
-543 -545 0
-544 -6841 329 0
-544 -6845 330 0
-544 -6841 -6845 0
-544 329 330 0
544 6841 -330 0
544 6845 -329 0
-545 -6843 326 0
-545 -6847 327 0
-545 -6843 -6847 0
-545 326 327 0
545 6843 -327 0
545 6847 -326 0
546 -6846 -333 0
546 -6848 335 0
546 -6846 -6848 0
546 -333 335 0
-546 6846 -335 0
-546 6848 333 0
-547 -6842 332 0
-547 -6844 337 0
-547 -6842 -6844 0
-547 332 337 0
547 6842 -337 0
547 6844 -332 0
548 549 550 -551 552 0
-548 -552 0
-548 -549 0
-548 551 0
-548 -550 0
-549 -6859 327 0
-549 -6861 330 0
-549 -6859 -6861 0
-549 327 330 0
549 6859 -330 0
549 6861 -327 0
-550 -6863 326 0
-550 -6865 329 0
-550 -6863 -6865 0
-550 326 329 0
550 6863 -329 0
550 6865 -326 0
551 -6860 -333 0
551 -6866 337 0
551 -6860 -6866 0
551 -333 337 0
-551 6860 -337 0
-551 6866 333 0
-552 -6864 332 0
-552 -6862 335 0
-552 -6862 -6864 0
-552 332 335 0
552 6864 -335 0
552 6862 -332 0
553 554 555 -556 557 0
-553 -557 0
-553 -554 0
-553 556 0
-553 -555 0
-554 -6879 326 0
-554 -6883 327 0
-554 -6879 -6883 0
-554 326 327 0
554 6879 -327 0
554 6883 -326 0
-555 -6877 329 0
-555 -6881 330 0
-555 -6877 -6881 0
-555 329 330 0
555 6877 -330 0
555 6881 -329 0
556 -6882 -333 0
556 -6884 335 0
556 -6882 -6884 0
556 -333 335 0
-556 6882 -335 0
-556 6884 333 0
-557 -6878 332 0
-557 -6880 337 0
-557 -6878 -6880 0
-557 332 337 0
557 6878 -337 0
557 6880 -332 0
558 559 560 -561 562 0
-558 -562 0
-558 -559 0
-558 561 0
-558 -560 0
-559 -6836 327 0
-559 -6834 329 0
-559 -6834 -6836 0
-559 327 329 0
559 6836 -329 0
559 6834 -327 0
-560 -6832 326 0
-560 -6838 330 0
-560 -6832 -6838 0
-560 326 330 0
560 6832 -330 0
560 6838 -326 0
561 -6837 -333 0
561 -6839 335 0
561 -6837 -6839 0
561 -333 335 0
-561 6837 -335 0
-561 6839 333 0
-562 -6833 332 0
-562 -6835 337 0
-562 -6833 -6835 0
-562 332 337 0
562 6833 -337 0
562 6835 -332 0
563 564 565 566 -567 0
-563 567 0
-563 -564 0
-563 -566 0
-563 -565 0
-564 -6850 326 0
-564 -6856 330 0
-564 -6850 -6856 0
-564 326 330 0
564 6850 -330 0
564 6856 -326 0
-565 -6854 327 0
-565 -6852 329 0
-565 -6852 -6854 0
-565 327 329 0
565 6854 -329 0
565 6852 -327 0
-566 -6855 332 0
-566 -6853 335 0
-566 -6853 -6855 0
-566 332 335 0
566 6855 -335 0
566 6853 -332 0
567 -6851 -333 0
567 -6857 337 0
567 -6851 -6857 0
567 -333 337 0
-567 6851 -337 0
-567 6857 333 0
568 569 570 571 -572 0
-568 572 0
-568 -569 0
-568 -571 0
-568 -570 0
-569 -6868 329 0
-569 -6872 330 0
-569 -6868 -6872 0
-569 329 330 0
569 6868 -330 0
569 6872 -329 0
-570 -6870 326 0
-570 -6874 327 0
-570 -6870 -6874 0
-570 326 327 0
570 6870 -327 0
570 6874 -326 0
-571 -6873 332 0
-571 -6871 335 0
-571 -6871 -6873 0
-571 332 335 0
571 6873 -335 0
571 6871 -332 0
572 -6869 -333 0
572 -6875 337 0
572 -6869 -6875 0
572 -333 337 0
-572 6869 -337 0
-572 6875 333 0
573 574 575 -576 577 0
-573 -577 0
-573 -574 0
-573 576 0
-573 -575 0
-574 -6890 327 0
-574 -6888 329 0
-574 -6888 -6890 0
-574 327 329 0
574 6890 -329 0
574 6888 -327 0
-575 -6886 326 0
-575 -6892 330 0
-575 -6886 -6892 0
-575 326 330 0
575 6886 -330 0
575 6892 -326 0
576 -6893 332 0
576 -6889 -333 0
576 -6889 -6893 0
576 332 -333 0
-576 6893 333 0
-576 6889 -332 0
-577 -6887 335 0
-577 -6891 337 0
-577 -6887 -6891 0
-577 335 337 0
577 6887 -337 0
577 6891 -335 0
578 -6261 -7542 0
578 -7542 -579 0
-578 7542 0
-578 6261 579 0
579 -7372 -7546 0
-579 7372 0
-579 7546 0
-580 7557 7558 0
580 -7557 0
580 -7558 0
-581 580 0
-581 6212 -582 0
-581 6263 582 0
581 -6212 -580 -582 0
581 -6263 -580 582 0
582 -7405 583 0
-582 7405 0
-582 -583 0
-583 584 585 0
583 -584 0
583 -585 0
584 -6262 -7403 0
-584 6262 0
-584 7403 0
-585 7402 586 0
-585 6262 586 0
585 -586 0
585 -6262 -7402 0
-586 7373 587 0
586 -7373 0
586 -587 0
-587 588 589 590 591 0
587 -591 0
587 -588 0
587 -590 0
587 -589 0
-588 7375 7379 7384 7389 0
588 -7389 0
588 -7384 0
588 -7375 0
588 -7379 0
-589 7378 7388 7390 7395 0
589 -7395 0
589 -7390 0
589 -7378 0
589 -7388 0
-590 7374 7376 7397 7400 0
590 -7400 0
590 -7397 0
590 -7374 0
590 -7376 0
-591 592 593 594 595 0
591 -595 0
591 -592 0
591 -594 0
591 -593 0
-592 7380 7382 7385 7396 0
592 -7396 0
592 -7385 0
592 -7380 0
592 -7382 0
-593 7377 7383 7394 7399 0
593 -7399 0
593 -7394 0
593 -7377 0
593 -7383 0
-594 7381 7386 7391 7398 0
594 -7398 0
594 -7391 0
594 -7381 0
594 -7386 0
-595 7387 7392 7393 7401 0
595 -7401 0
595 -7393 0
595 -7387 0
595 -7392 0
596 8209 -597 0
596 -8209 597 0
-596 -8209 -597 0
-596 8209 597 0
597 6122 -6264 0
-597 -6122 0
-597 6264 0
598 6265 -599 0
598 599 -600 0
-598 -6265 -599 0
-598 599 600 0
599 -8209 -597 0
-599 8209 0
-599 597 0
600 6122 -6265 0
-600 -6122 0
-600 6265 0
601 602 -603 0
601 -602 603 0
-601 -602 -603 0
-601 602 603 0
602 -6265 -599 0
-602 6265 0
-602 599 0
603 6122 -6266 0
-603 -6122 0
-603 6266 0
604 -6267 50 605 0
604 6267 50 -605 0
-604 -50 0
-604 -6267 -605 0
-604 6267 605 0
605 -602 -603 0
-605 602 0
-605 603 0
606 -6268 50 607 0
606 6268 50 -607 0
-606 -50 0
-606 -6268 -607 0
-606 6268 607 0
607 -6267 -605 0
-607 6267 0
-607 605 0
608 -6269 50 609 0
608 6269 50 -609 0
-608 -50 0
-608 -6269 -609 0
-608 6269 609 0
609 -6268 -607 0
-609 6268 0
-609 607 0
610 -6270 50 611 0
610 6270 50 -611 0
-610 -50 0
-610 -6270 -611 0
-610 6270 611 0
611 -6269 -609 0
-611 6269 0
-611 609 0
612 -6271 50 613 0
612 6271 50 -613 0
-612 -50 0
-612 -6271 -613 0
-612 6271 613 0
613 -6270 -611 0
-613 6270 0
-613 611 0
614 -6272 50 615 0
614 6272 50 -615 0
-614 -50 0
-614 -6272 -615 0
-614 6272 615 0
615 -6271 -613 0
-615 6271 0
-615 613 0
616 -6273 50 617 0
616 6273 50 -617 0
-616 -50 0
-616 -6273 -617 0
-616 6273 617 0
617 -6272 -615 0
-617 6272 0
-617 615 0
618 -6274 50 619 0
618 6274 50 -619 0
-618 -50 0
-618 -6274 -619 0
-618 6274 619 0
619 -6273 -617 0
-619 6273 0
-619 617 0
620 -6275 50 621 0
620 6275 50 -621 0
-620 -50 0
-620 -6275 -621 0
-620 6275 621 0
621 -6274 -619 0
-621 6274 0
-621 619 0
622 -6276 50 623 0
622 6276 50 -623 0
-622 -50 0
-622 -6276 -623 0
-622 6276 623 0
623 -6275 -621 0
-623 6275 0
-623 621 0
624 -6277 50 625 0
624 6277 50 -625 0
-624 -50 0
-624 -6277 -625 0
-624 6277 625 0
625 -6276 -623 0
-625 6276 0
-625 623 0
626 -6278 50 627 0
626 6278 50 -627 0
-626 -50 0
-626 -6278 -627 0
-626 6278 627 0
627 -6277 -625 0
-627 6277 0
-627 625 0
628 -6279 50 629 0
628 6279 50 -629 0
-628 -50 0
-628 -6279 -629 0
-628 6279 629 0
629 -6278 -627 0
-629 6278 0
-629 627 0
630 -6280 50 631 0
630 6280 50 -631 0
-630 -50 0
-630 -6280 -631 0
-630 6280 631 0
631 -6279 -629 0
-631 6279 0
-631 629 0
632 -6281 50 633 0
632 6281 50 -633 0
-632 -50 0
-632 -6281 -633 0
-632 6281 633 0
633 -6280 -631 0
-633 6280 0
-633 631 0
634 -6282 50 635 0
634 6282 50 -635 0
-634 -50 0
-634 -6282 -635 0
-634 6282 635 0
635 -6281 -633 0
-635 6281 0
-635 633 0
636 -6283 50 637 0
636 6283 50 -637 0
-636 -50 0
-636 -6283 -637 0
-636 6283 637 0
637 -6282 -635 0
-637 6282 0
-637 635 0
638 -6284 50 639 0
638 6284 50 -639 0
-638 -50 0
-638 -6284 -639 0
-638 6284 639 0
639 -6283 -637 0
-639 6283 0
-639 637 0
640 -6285 50 641 0
640 6285 50 -641 0
-640 -50 0
-640 -6285 -641 0
-640 6285 641 0
641 -6284 -639 0
-641 6284 0
-641 639 0
642 -6286 50 643 0
642 6286 50 -643 0
-642 -50 0
-642 -6286 -643 0
-642 6286 643 0
643 -6285 -641 0
-643 6285 0
-643 641 0
644 -6287 50 645 0
644 6287 50 -645 0
-644 -50 0
-644 -6287 -645 0
-644 6287 645 0
645 -6286 -643 0
-645 6286 0
-645 643 0
646 -6288 50 647 0
646 6288 50 -647 0
-646 -50 0
-646 -6288 -647 0
-646 6288 647 0
647 -6287 -645 0
-647 6287 0
-647 645 0
648 -6289 50 649 0
648 6289 50 -649 0
-648 -50 0
-648 -6289 -649 0
-648 6289 649 0
649 -6288 -647 0
-649 6288 0
-649 647 0
650 -6290 50 651 0
650 6290 50 -651 0
-650 -50 0
-650 -6290 -651 0
-650 6290 651 0
651 -6289 -649 0
-651 6289 0
-651 649 0
652 -6291 50 653 0
652 6291 50 -653 0
-652 -50 0
-652 -6291 -653 0
-652 6291 653 0
653 -6290 -651 0
-653 6290 0
-653 651 0
654 -6292 50 655 0
654 6292 50 -655 0
-654 -50 0
-654 -6292 -655 0
-654 6292 655 0
655 -6291 -653 0
-655 6291 0
-655 653 0
656 -6293 50 657 0
656 6293 50 -657 0
-656 -50 0
-656 -6293 -657 0
-656 6293 657 0
657 -6292 -655 0
-657 6292 0
-657 655 0
658 -6294 50 659 0
658 6294 50 -659 0
-658 -50 0
-658 -6294 -659 0
-658 6294 659 0
659 -6293 -657 0
-659 6293 0
-659 657 0
660 -6295 50 661 0
660 6295 50 -661 0
-660 -50 0
-660 -6295 -661 0
-660 6295 661 0
661 -6294 -659 0
-661 6294 0
-661 659 0
-662 580 0
-662 6212 -663 0
-662 6296 663 0
662 -6212 -580 -663 0
662 -6296 -580 663 0
663 -7405 -664 0
-663 7405 0
-663 664 0
664 -584 -665 0
-664 584 0
-664 665 0
665 -7373 7402 587 0
-665 7373 0
-665 -7402 0
-665 -587 0
-666 580 0
-666 6212 -667 0
-666 6297 667 0
666 -6212 -580 -667 0
666 -6297 -580 667 0
667 -664 -668 0
-667 664 0
-667 668 0
668 7404 -7406 0
-668 -7404 0
-668 7406 0
-669 580 0
-669 6212 -670 0
-669 6298 670 0
669 -6212 -580 -670 0
669 -6298 -580 670 0
670 583 -668 0
-670 -583 0
-670 668 0
-671 580 0
-671 6212 -672 0
-671 6299 672 0
671 -6212 -580 -672 0
671 -6299 -580 672 0
672 -7405 -673 0
-672 7405 0
-672 673 0
673 7403 -674 0
-673 -7403 0
-673 674 0
674 -6262 -7402 586 0
-674 6262 0
-674 7402 0
-674 -586 0
-675 580 0
-675 6212 -676 0
-675 6300 676 0
675 -6212 -580 -676 0
675 -6300 -580 676 0
676 -668 -677 0
-676 668 0
-676 677 0
677 -584 585 0
-677 584 0
-677 -585 0
-678 580 0
-678 6212 -679 0
-678 6301 679 0
678 -6212 -580 -679 0
678 -6301 -580 679 0
679 -668 -673 0
-679 668 0
-679 673 0
-680 580 0
-680 6212 -681 0
-680 6302 681 0
680 -6212 -580 -681 0
680 -6302 -580 681 0
681 -668 -682 0
-681 668 0
-681 682 0
682 7403 -665 0
-682 -7403 0
-682 665 0
-683 580 0
-683 6212 -684 0
-683 6303 684 0
683 -6212 -580 -684 0
683 -6303 -580 684 0
684 -668 -685 0
-684 668 0
-684 685 0
685 -7403 -674 0
-685 7403 0
-685 674 0
-686 580 0
-686 6212 -687 0
-686 6304 687 0
686 -6212 -580 -687 0
686 -6304 -580 687 0
687 -7405 -677 0
-687 7405 0
-687 677 0
-688 580 0
-688 6212 -689 0
-688 6305 689 0
688 -6212 -580 -689 0
688 -6305 -580 689 0
689 -7405 -685 0
-689 7405 0
-689 685 0
-690 580 0
-690 6212 -691 0
-690 6306 691 0
690 -6212 -580 -691 0
690 -6306 -580 691 0
691 -7405 -682 0
-691 7405 0
-691 682 0
-692 580 0
-692 6213 -691 0
-692 6307 691 0
692 -6213 -580 -691 0
692 -6307 -580 691 0
-693 580 0
-693 6213 -676 0
-693 6308 676 0
693 -6213 -580 -676 0
693 -6308 -580 676 0
-694 580 0
-694 6213 -679 0
-694 6309 679 0
694 -6213 -580 -679 0
694 -6309 -580 679 0
-695 580 0
-695 6213 -689 0
-695 6310 689 0
695 -6213 -580 -689 0
695 -6310 -580 689 0
-696 580 0
-696 6213 -684 0
-696 6311 684 0
696 -6213 -580 -684 0
696 -6311 -580 684 0
-697 580 0
-697 6213 -681 0
-697 6312 681 0
697 -6213 -580 -681 0
697 -6312 -580 681 0
-698 580 0
-698 6213 -687 0
-698 6313 687 0
698 -6213 -580 -687 0
698 -6313 -580 687 0
-699 580 0
-699 6213 -672 0
-699 6314 672 0
699 -6213 -580 -672 0
699 -6314 -580 672 0
-700 580 0
-700 6213 -663 0
-700 6315 663 0
700 -6213 -580 -663 0
700 -6315 -580 663 0
-701 580 0
-701 6213 -670 0
-701 6316 670 0
701 -6213 -580 -670 0
701 -6316 -580 670 0
-702 580 0
-702 6213 -582 0
-702 6317 582 0
702 -6213 -580 -582 0
702 -6317 -580 582 0
-703 580 0
-703 6213 -667 0
-703 6318 667 0
703 -6213 -580 -667 0
703 -6318 -580 667 0
-704 580 0
-704 6214 -676 0
-704 6319 676 0
704 -6214 -580 -676 0
704 -6319 -580 676 0
-705 580 0
-705 6214 -691 0
-705 6320 691 0
705 -6214 -580 -691 0
705 -6320 -580 691 0
-706 580 0
-706 6214 -681 0
-706 6321 681 0
706 -6214 -580 -681 0
706 -6321 -580 681 0
-707 580 0
-707 6214 -672 0
-707 6322 672 0
707 -6214 -580 -672 0
707 -6322 -580 672 0
-708 580 0
-708 6214 -670 0
-708 6323 670 0
708 -6214 -580 -670 0
708 -6323 -580 670 0
-709 580 0
-709 6214 -684 0
-709 6324 684 0
709 -6214 -580 -684 0
709 -6324 -580 684 0
-710 580 0
-710 6214 -689 0
-710 6325 689 0
710 -6214 -580 -689 0
710 -6325 -580 689 0
-711 580 0
-711 6214 -663 0
-711 6326 663 0
711 -6214 -580 -663 0
711 -6326 -580 663 0
-712 580 0
-712 6214 -679 0
-712 6327 679 0
712 -6214 -580 -679 0
712 -6327 -580 679 0
-713 580 0
-713 6214 -582 0
-713 6328 582 0
713 -6214 -580 -582 0
713 -6328 -580 582 0
-714 580 0
-714 6214 -687 0
-714 6329 687 0
714 -6214 -580 -687 0
714 -6329 -580 687 0
-715 580 0
-715 6214 -667 0
-715 6330 667 0
715 -6214 -580 -667 0
715 -6330 -580 667 0
-716 580 0
-716 6215 -667 0
-716 6331 667 0
716 -6215 -580 -667 0
716 -6331 -580 667 0
-717 580 0
-717 6215 -691 0
-717 6332 691 0
717 -6215 -580 -691 0
717 -6332 -580 691 0
-718 580 0
-718 6215 -670 0
-718 6333 670 0
718 -6215 -580 -670 0
718 -6333 -580 670 0
-719 580 0
-719 6215 -672 0
-719 6334 672 0
719 -6215 -580 -672 0
719 -6334 -580 672 0
-720 580 0
-720 6215 -676 0
-720 6335 676 0
720 -6215 -580 -676 0
720 -6335 -580 676 0
-721 580 0
-721 6215 -582 0
-721 6336 582 0
721 -6215 -580 -582 0
721 -6336 -580 582 0
-722 580 0
-722 6215 -679 0
-722 6337 679 0
722 -6215 -580 -679 0
722 -6337 -580 679 0
-723 580 0
-723 6215 -684 0
-723 6338 684 0
723 -6215 -580 -684 0
723 -6338 -580 684 0
-724 580 0
-724 6215 -687 0
-724 6339 687 0
724 -6215 -580 -687 0
724 -6339 -580 687 0
-725 580 0
-725 6215 -689 0
-725 6340 689 0
725 -6215 -580 -689 0
725 -6340 -580 689 0
-726 580 0
-726 6215 -681 0
-726 6341 681 0
726 -6215 -580 -681 0
726 -6341 -580 681 0
-727 580 0
-727 6215 -663 0
-727 6342 663 0
727 -6215 -580 -663 0
727 -6342 -580 663 0
-728 580 0
-728 6216 -681 0
-728 6343 681 0
728 -6216 -580 -681 0
728 -6343 -580 681 0
-729 580 0
-729 6216 -687 0
-729 6344 687 0
729 -6216 -580 -687 0
729 -6344 -580 687 0
-730 580 0
-730 6216 -689 0
-730 6345 689 0
730 -6216 -580 -689 0
730 -6345 -580 689 0
-731 580 0
-731 6216 -676 0
-731 6346 676 0
731 -6216 -580 -676 0
731 -6346 -580 676 0
-732 580 0
-732 6216 -691 0
-732 6347 691 0
732 -6216 -580 -691 0
732 -6347 -580 691 0
-733 580 0
-733 6216 -663 0
-733 6348 663 0
733 -6216 -580 -663 0
733 -6348 -580 663 0
-734 580 0
-734 6216 -684 0
-734 6349 684 0
734 -6216 -580 -684 0
734 -6349 -580 684 0
-735 580 0
-735 6216 -667 0
-735 6350 667 0
735 -6216 -580 -667 0
735 -6350 -580 667 0
-736 580 0
-736 6216 -672 0
-736 6351 672 0
736 -6216 -580 -672 0
736 -6351 -580 672 0
-737 580 0
-737 6216 -582 0
-737 6352 582 0
737 -6216 -580 -582 0
737 -6352 -580 582 0
-738 580 0
-738 6216 -670 0
-738 6353 670 0
738 -6216 -580 -670 0
738 -6353 -580 670 0
-739 580 0
-739 6216 -679 0
-739 6354 679 0
739 -6216 -580 -679 0
739 -6354 -580 679 0
-740 580 0
-740 6217 -681 0
-740 6355 681 0
740 -6217 -580 -681 0
740 -6355 -580 681 0
-741 580 0
-741 6217 -676 0
-741 6356 676 0
741 -6217 -580 -676 0
741 -6356 -580 676 0
-742 580 0
-742 6217 -670 0
-742 6357 670 0
742 -6217 -580 -670 0
742 -6357 -580 670 0
-743 580 0
-743 6217 -582 0
-743 6358 582 0
743 -6217 -580 -582 0
743 -6358 -580 582 0
-744 580 0
-744 6217 -663 0
-744 6359 663 0
744 -6217 -580 -663 0
744 -6359 -580 663 0
-745 580 0
-745 6217 -691 0
-745 6360 691 0
745 -6217 -580 -691 0
745 -6360 -580 691 0
-746 580 0
-746 6217 -667 0
-746 6361 667 0
746 -6217 -580 -667 0
746 -6361 -580 667 0
-747 580 0
-747 6217 -679 0
-747 6362 679 0
747 -6217 -580 -679 0
747 -6362 -580 679 0
-748 580 0
-748 6217 -672 0
-748 6363 672 0
748 -6217 -580 -672 0
748 -6363 -580 672 0
-749 580 0
-749 6217 -689 0
-749 6364 689 0
749 -6217 -580 -689 0
749 -6364 -580 689 0
-750 580 0
-750 6217 -687 0
-750 6365 687 0
750 -6217 -580 -687 0
750 -6365 -580 687 0
-751 580 0
-751 6217 -684 0
-751 6366 684 0
751 -6217 -580 -684 0
751 -6366 -580 684 0
-752 580 0
-752 6218 -663 0
-752 6367 663 0
752 -6218 -580 -663 0
752 -6367 -580 663 0
-753 580 0
-753 6218 -676 0
-753 6368 676 0
753 -6218 -580 -676 0
753 -6368 -580 676 0
-754 580 0
-754 6218 -670 0
-754 6369 670 0
754 -6218 -580 -670 0
754 -6369 -580 670 0
-755 580 0
-755 6218 -582 0
-755 6370 582 0
755 -6218 -580 -582 0
755 -6370 -580 582 0
-756 580 0
-756 6218 -681 0
-756 6371 681 0
756 -6218 -580 -681 0
756 -6371 -580 681 0
-757 580 0
-757 6218 -691 0
-757 6372 691 0
757 -6218 -580 -691 0
757 -6372 -580 691 0
-758 580 0
-758 6218 -684 0
-758 6373 684 0
758 -6218 -580 -684 0
758 -6373 -580 684 0
-759 580 0
-759 6218 -667 0
-759 6374 667 0
759 -6218 -580 -667 0
759 -6374 -580 667 0
-760 580 0
-760 6218 -679 0
-760 6375 679 0
760 -6218 -580 -679 0
760 -6375 -580 679 0
-761 580 0
-761 6218 -672 0
-761 6376 672 0
761 -6218 -580 -672 0
761 -6376 -580 672 0
-762 580 0
-762 6218 -689 0
-762 6377 689 0
762 -6218 -580 -689 0
762 -6377 -580 689 0
-763 580 0
-763 6218 -687 0
-763 6378 687 0
763 -6218 -580 -687 0
763 -6378 -580 687 0
-764 580 0
-764 6219 -676 0
-764 6379 676 0
764 -6219 -580 -676 0
764 -6379 -580 676 0
-765 580 0
-765 6219 -667 0
-765 6380 667 0
765 -6219 -580 -667 0
765 -6380 -580 667 0
-766 580 0
-766 6219 -691 0
-766 6381 691 0
766 -6219 -580 -691 0
766 -6381 -580 691 0
-767 580 0
-767 6219 -689 0
-767 6382 689 0
767 -6219 -580 -689 0
767 -6382 -580 689 0
-768 580 0
-768 6219 -684 0
-768 6383 684 0
768 -6219 -580 -684 0
768 -6383 -580 684 0
-769 580 0
-769 6219 -681 0
-769 6384 681 0
769 -6219 -580 -681 0
769 -6384 -580 681 0
-770 580 0
-770 6219 -679 0
-770 6385 679 0
770 -6219 -580 -679 0
770 -6385 -580 679 0
-771 580 0
-771 6219 -582 0
-771 6386 582 0
771 -6219 -580 -582 0
771 -6386 -580 582 0
-772 580 0
-772 6219 -687 0
-772 6387 687 0
772 -6219 -580 -687 0
772 -6387 -580 687 0
-773 580 0
-773 6219 -663 0
-773 6388 663 0
773 -6219 -580 -663 0
773 -6388 -580 663 0
-774 580 0
-774 6219 -672 0
-774 6389 672 0
774 -6219 -580 -672 0
774 -6389 -580 672 0
-775 580 0
-775 6219 -670 0
-775 6390 670 0
775 -6219 -580 -670 0
775 -6390 -580 670 0
-776 580 0
-776 6220 -689 0
-776 6391 689 0
776 -6220 -580 -689 0
776 -6391 -580 689 0
-777 580 0
-777 6220 -691 0
-777 6392 691 0
777 -6220 -580 -691 0
777 -6392 -580 691 0
-778 580 0
-778 6220 -663 0
-778 6393 663 0
778 -6220 -580 -663 0
778 -6393 -580 663 0
-779 580 0
-779 6220 -670 0
-779 6394 670 0
779 -6220 -580 -670 0
779 -6394 -580 670 0
-780 580 0
-780 6220 -679 0
-780 6395 679 0
780 -6220 -580 -679 0
780 -6395 -580 679 0
-781 580 0
-781 6220 -684 0
-781 6396 684 0
781 -6220 -580 -684 0
781 -6396 -580 684 0
-782 580 0
-782 6220 -667 0
-782 6397 667 0
782 -6220 -580 -667 0
782 -6397 -580 667 0
-783 580 0
-783 6220 -687 0
-783 6398 687 0
783 -6220 -580 -687 0
783 -6398 -580 687 0
-784 580 0
-784 6220 -676 0
-784 6399 676 0
784 -6220 -580 -676 0
784 -6399 -580 676 0
-785 580 0
-785 6220 -672 0
-785 6400 672 0
785 -6220 -580 -672 0
785 -6400 -580 672 0
-786 580 0
-786 6220 -681 0
-786 6401 681 0
786 -6220 -580 -681 0
786 -6401 -580 681 0
-787 580 0
-787 6220 -582 0
-787 6402 582 0
787 -6220 -580 -582 0
787 -6402 -580 582 0
-788 580 0
-788 6221 -691 0
-788 6403 691 0
788 -6221 -580 -691 0
788 -6403 -580 691 0
-789 580 0
-789 6221 -667 0
-789 6404 667 0
789 -6221 -580 -667 0
789 -6404 -580 667 0
-790 580 0
-790 6221 -681 0
-790 6405 681 0
790 -6221 -580 -681 0
790 -6405 -580 681 0
-791 580 0
-791 6221 -679 0
-791 6406 679 0
791 -6221 -580 -679 0
791 -6406 -580 679 0
-792 580 0
-792 6221 -687 0
-792 6407 687 0
792 -6221 -580 -687 0
792 -6407 -580 687 0
-793 580 0
-793 6221 -582 0
-793 6408 582 0
793 -6221 -580 -582 0
793 -6408 -580 582 0
-794 580 0
-794 6221 -689 0
-794 6409 689 0
794 -6221 -580 -689 0
794 -6409 -580 689 0
-795 580 0
-795 6221 -670 0
-795 6410 670 0
795 -6221 -580 -670 0
795 -6410 -580 670 0
-796 580 0
-796 6221 -663 0
-796 6411 663 0
796 -6221 -580 -663 0
796 -6411 -580 663 0
-797 580 0
-797 6221 -672 0
-797 6412 672 0
797 -6221 -580 -672 0
797 -6412 -580 672 0
-798 580 0
-798 6221 -684 0
-798 6413 684 0
798 -6221 -580 -684 0
798 -6413 -580 684 0
-799 580 0
-799 6221 -676 0
-799 6414 676 0
799 -6221 -580 -676 0
799 -6414 -580 676 0
-800 580 0
-800 6222 -663 0
-800 6415 663 0
800 -6222 -580 -663 0
800 -6415 -580 663 0
-801 580 0
-801 6222 -670 0
-801 6416 670 0
801 -6222 -580 -670 0
801 -6416 -580 670 0
-802 580 0
-802 6222 -667 0
-802 6417 667 0
802 -6222 -580 -667 0
802 -6417 -580 667 0
-803 580 0
-803 6222 -681 0
-803 6418 681 0
803 -6222 -580 -681 0
803 -6418 -580 681 0
-804 580 0
-804 6222 -582 0
-804 6419 582 0
804 -6222 -580 -582 0
804 -6419 -580 582 0
-805 580 0
-805 6222 -672 0
-805 6420 672 0
805 -6222 -580 -672 0
805 -6420 -580 672 0
-806 580 0
-806 6222 -676 0
-806 6421 676 0
806 -6222 -580 -676 0
806 -6421 -580 676 0
-807 580 0
-807 6222 -689 0
-807 6422 689 0
807 -6222 -580 -689 0
807 -6422 -580 689 0
-808 580 0
-808 6222 -684 0
-808 6423 684 0
808 -6222 -580 -684 0
808 -6423 -580 684 0
-809 580 0
-809 6222 -687 0
-809 6424 687 0
809 -6222 -580 -687 0
809 -6424 -580 687 0
-810 580 0
-810 6222 -679 0
-810 6425 679 0
810 -6222 -580 -679 0
810 -6425 -580 679 0
-811 580 0
-811 6222 -691 0
-811 6426 691 0
811 -6222 -580 -691 0
811 -6426 -580 691 0
-812 580 0
-812 6223 -676 0
-812 6427 676 0
812 -6223 -580 -676 0
812 -6427 -580 676 0
-813 580 0
-813 6223 -679 0
-813 6428 679 0
813 -6223 -580 -679 0
813 -6428 -580 679 0
-814 580 0
-814 6223 -667 0
-814 6429 667 0
814 -6223 -580 -667 0
814 -6429 -580 667 0
-815 580 0
-815 6223 -663 0
-815 6430 663 0
815 -6223 -580 -663 0
815 -6430 -580 663 0
-816 580 0
-816 6223 -687 0
-816 6431 687 0
816 -6223 -580 -687 0
816 -6431 -580 687 0
-817 580 0
-817 6223 -689 0
-817 6432 689 0
817 -6223 -580 -689 0
817 -6432 -580 689 0
-818 580 0
-818 6223 -684 0
-818 6433 684 0
818 -6223 -580 -684 0
818 -6433 -580 684 0
-819 580 0
-819 6223 -672 0
-819 6434 672 0
819 -6223 -580 -672 0
819 -6434 -580 672 0
-820 580 0
-820 6223 -670 0
-820 6435 670 0
820 -6223 -580 -670 0
820 -6435 -580 670 0
-821 580 0
-821 6223 -582 0
-821 6436 582 0
821 -6223 -580 -582 0
821 -6436 -580 582 0
-822 580 0
-822 6223 -691 0
-822 6437 691 0
822 -6223 -580 -691 0
822 -6437 -580 691 0
-823 580 0
-823 6223 -681 0
-823 6438 681 0
823 -6223 -580 -681 0
823 -6438 -580 681 0
-824 580 0
-824 6224 -676 0
-824 6439 676 0
824 -6224 -580 -676 0
824 -6439 -580 676 0
-825 580 0
-825 6224 -667 0
-825 6440 667 0
825 -6224 -580 -667 0
825 -6440 -580 667 0
-826 580 0
-826 6224 -691 0
-826 6441 691 0
826 -6224 -580 -691 0
826 -6441 -580 691 0
-827 580 0
-827 6224 -689 0
-827 6442 689 0
827 -6224 -580 -689 0
827 -6442 -580 689 0
-828 580 0
-828 6224 -684 0
-828 6443 684 0
828 -6224 -580 -684 0
828 -6443 -580 684 0
-829 580 0
-829 6224 -681 0
-829 6444 681 0
829 -6224 -580 -681 0
829 -6444 -580 681 0
-830 580 0
-830 6224 -679 0
-830 6445 679 0
830 -6224 -580 -679 0
830 -6445 -580 679 0
-831 580 0
-831 6224 -582 0
-831 6446 582 0
831 -6224 -580 -582 0
831 -6446 -580 582 0
-832 580 0
-832 6224 -687 0
-832 6447 687 0
832 -6224 -580 -687 0
832 -6447 -580 687 0
-833 580 0
-833 6224 -663 0
-833 6448 663 0
833 -6224 -580 -663 0
833 -6448 -580 663 0
-834 580 0
-834 6224 -672 0
-834 6449 672 0
834 -6224 -580 -672 0
834 -6449 -580 672 0
-835 580 0
-835 6224 -670 0
-835 6450 670 0
835 -6224 -580 -670 0
835 -6450 -580 670 0
-836 580 0
-836 6225 -663 0
-836 6451 663 0
836 -6225 -580 -663 0
836 -6451 -580 663 0
-837 580 0
-837 6225 -689 0
-837 6452 689 0
837 -6225 -580 -689 0
837 -6452 -580 689 0
-838 580 0
-838 6225 -672 0
-838 6453 672 0
838 -6225 -580 -672 0
838 -6453 -580 672 0
-839 580 0
-839 6225 -670 0
-839 6454 670 0
839 -6225 -580 -670 0
839 -6454 -580 670 0
-840 580 0
-840 6225 -676 0
-840 6455 676 0
840 -6225 -580 -676 0
840 -6455 -580 676 0
-841 580 0
-841 6225 -684 0
-841 6456 684 0
841 -6225 -580 -684 0
841 -6456 -580 684 0
-842 580 0
-842 6225 -687 0
-842 6457 687 0
842 -6225 -580 -687 0
842 -6457 -580 687 0
-843 580 0
-843 6225 -691 0
-843 6458 691 0
843 -6225 -580 -691 0
843 -6458 -580 691 0
-844 580 0
-844 6225 -667 0
-844 6459 667 0
844 -6225 -580 -667 0
844 -6459 -580 667 0
-845 580 0
-845 6225 -681 0
-845 6460 681 0
845 -6225 -580 -681 0
845 -6460 -580 681 0
-846 580 0
-846 6225 -679 0
-846 6461 679 0
846 -6225 -580 -679 0
846 -6461 -580 679 0
-847 580 0
-847 6225 -582 0
-847 6462 582 0
847 -6225 -580 -582 0
847 -6462 -580 582 0
-848 580 0
-848 6226 -676 0
-848 6463 676 0
848 -6226 -580 -676 0
848 -6463 -580 676 0
-849 580 0
-849 6226 -667 0
-849 6464 667 0
849 -6226 -580 -667 0
849 -6464 -580 667 0
-850 580 0
-850 6226 -691 0
-850 6465 691 0
850 -6226 -580 -691 0
850 -6465 -580 691 0
-851 580 0
-851 6226 -684 0
-851 6466 684 0
851 -6226 -580 -684 0
851 -6466 -580 684 0
-852 580 0
-852 6226 -670 0
-852 6467 670 0
852 -6226 -580 -670 0
852 -6467 -580 670 0
-853 580 0
-853 6226 -663 0
-853 6468 663 0
853 -6226 -580 -663 0
853 -6468 -580 663 0
-854 580 0
-854 6226 -687 0
-854 6469 687 0
854 -6226 -580 -687 0
854 -6469 -580 687 0
-855 580 0
-855 6226 -672 0
-855 6470 672 0
855 -6226 -580 -672 0
855 -6470 -580 672 0
-856 580 0
-856 6226 -582 0
-856 6471 582 0
856 -6226 -580 -582 0
856 -6471 -580 582 0
-857 580 0
-857 6226 -681 0
-857 6472 681 0
857 -6226 -580 -681 0
857 -6472 -580 681 0
-858 580 0
-858 6226 -689 0
-858 6473 689 0
858 -6226 -580 -689 0
858 -6473 -580 689 0
-859 580 0
-859 6226 -679 0
-859 6474 679 0
859 -6226 -580 -679 0
859 -6474 -580 679 0
-860 580 0
-860 6227 -691 0
-860 6475 691 0
860 -6227 -580 -691 0
860 -6475 -580 691 0
-861 580 0
-861 6227 -672 0
-861 6476 672 0
861 -6227 -580 -672 0
861 -6476 -580 672 0
-862 580 0
-862 6227 -663 0
-862 6477 663 0
862 -6227 -580 -663 0
862 -6477 -580 663 0
-863 580 0
-863 6227 -689 0
-863 6478 689 0
863 -6227 -580 -689 0
863 -6478 -580 689 0
-864 580 0
-864 6227 -676 0
-864 6479 676 0
864 -6227 -580 -676 0
864 -6479 -580 676 0
-865 580 0
-865 6227 -687 0
-865 6480 687 0
865 -6227 -580 -687 0
865 -6480 -580 687 0
-866 580 0
-866 6227 -679 0
-866 6481 679 0
866 -6227 -580 -679 0
866 -6481 -580 679 0
-867 580 0
-867 6227 -670 0
-867 6482 670 0
867 -6227 -580 -670 0
867 -6482 -580 670 0
-868 580 0
-868 6227 -582 0
-868 6483 582 0
868 -6227 -580 -582 0
868 -6483 -580 582 0
-869 580 0
-869 6227 -684 0
-869 6484 684 0
869 -6227 -580 -684 0
869 -6484 -580 684 0
-870 580 0
-870 6227 -681 0
-870 6485 681 0
870 -6227 -580 -681 0
870 -6485 -580 681 0
-871 580 0
-871 6227 -667 0
-871 6486 667 0
871 -6227 -580 -667 0
871 -6486 -580 667 0
-872 580 0
-872 6228 -582 0
-872 6487 582 0
872 -6228 -580 -582 0
872 -6487 -580 582 0
-873 580 0
-873 6228 -691 0
-873 6488 691 0
873 -6228 -580 -691 0
873 -6488 -580 691 0
-874 580 0
-874 6228 -684 0
-874 6489 684 0
874 -6228 -580 -684 0
874 -6489 -580 684 0
-875 580 0
-875 6228 -679 0
-875 6490 679 0
875 -6228 -580 -679 0
875 -6490 -580 679 0
-876 580 0
-876 6228 -672 0
-876 6491 672 0
876 -6228 -580 -672 0
876 -6491 -580 672 0
-877 580 0
-877 6228 -676 0
-877 6492 676 0
877 -6228 -580 -676 0
877 -6492 -580 676 0
-878 580 0
-878 6228 -663 0
-878 6493 663 0
878 -6228 -580 -663 0
878 -6493 -580 663 0
-879 580 0
-879 6228 -670 0
-879 6494 670 0
879 -6228 -580 -670 0
879 -6494 -580 670 0
-880 580 0
-880 6228 -689 0
-880 6495 689 0
880 -6228 -580 -689 0
880 -6495 -580 689 0
-881 580 0
-881 6228 -687 0
-881 6496 687 0
881 -6228 -580 -687 0
881 -6496 -580 687 0
-882 580 0
-882 6228 -681 0
-882 6497 681 0
882 -6228 -580 -681 0
882 -6497 -580 681 0
-883 580 0
-883 6228 -667 0
-883 6498 667 0
883 -6228 -580 -667 0
883 -6498 -580 667 0
-884 580 0
-884 6229 -667 0
-884 6499 667 0
884 -6229 -580 -667 0
884 -6499 -580 667 0
-885 580 0
-885 6229 -663 0
-885 6500 663 0
885 -6229 -580 -663 0
885 -6500 -580 663 0
-886 580 0
-886 6229 -687 0
-886 6501 687 0
886 -6229 -580 -687 0
886 -6501 -580 687 0
-887 580 0
-887 6229 -670 0
-887 6502 670 0
887 -6229 -580 -670 0
887 -6502 -580 670 0
-888 580 0
-888 6229 -689 0
-888 6503 689 0
888 -6229 -580 -689 0
888 -6503 -580 689 0
-889 580 0
-889 6229 -672 0
-889 6504 672 0
889 -6229 -580 -672 0
889 -6504 -580 672 0
-890 580 0
-890 6229 -679 0
-890 6505 679 0
890 -6229 -580 -679 0
890 -6505 -580 679 0
-891 580 0
-891 6229 -676 0
-891 6506 676 0
891 -6229 -580 -676 0
891 -6506 -580 676 0
-892 580 0
-892 6229 -582 0
-892 6507 582 0
892 -6229 -580 -582 0
892 -6507 -580 582 0
-893 580 0
-893 6229 -684 0
-893 6508 684 0
893 -6229 -580 -684 0
893 -6508 -580 684 0
-894 580 0
-894 6229 -691 0
-894 6509 691 0
894 -6229 -580 -691 0
894 -6509 -580 691 0
-895 580 0
-895 6229 -681 0
-895 6510 681 0
895 -6229 -580 -681 0
895 -6510 -580 681 0
-896 580 0
-896 6230 -582 0
-896 6511 582 0
896 -6230 -580 -582 0
896 -6511 -580 582 0
-897 580 0
-897 6230 -667 0
-897 6512 667 0
897 -6230 -580 -667 0
897 -6512 -580 667 0
-898 580 0
-898 6230 -691 0
-898 6513 691 0
898 -6230 -580 -691 0
898 -6513 -580 691 0
-899 580 0
-899 6230 -672 0
-899 6514 672 0
899 -6230 -580 -672 0
899 -6514 -580 672 0
-900 580 0
-900 6230 -676 0
-900 6515 676 0
900 -6230 -580 -676 0
900 -6515 -580 676 0
-901 580 0
-901 6230 -670 0
-901 6516 670 0
901 -6230 -580 -670 0
901 -6516 -580 670 0
-902 580 0
-902 6230 -684 0
-902 6517 684 0
902 -6230 -580 -684 0
902 -6517 -580 684 0
-903 580 0
-903 6230 -689 0
-903 6518 689 0
903 -6230 -580 -689 0
903 -6518 -580 689 0
-904 580 0
-904 6230 -681 0
-904 6519 681 0
904 -6230 -580 -681 0
904 -6519 -580 681 0
-905 580 0
-905 6230 -679 0
-905 6520 679 0
905 -6230 -580 -679 0
905 -6520 -580 679 0
-906 580 0
-906 6230 -687 0
-906 6521 687 0
906 -6230 -580 -687 0
906 -6521 -580 687 0
-907 580 0
-907 6230 -663 0
-907 6522 663 0
907 -6230 -580 -663 0
907 -6522 -580 663 0
-908 580 0
-908 6231 -582 0
-908 6523 582 0
908 -6231 -580 -582 0
908 -6523 -580 582 0
-909 580 0
-909 6231 -667 0
-909 6524 667 0
909 -6231 -580 -667 0
909 -6524 -580 667 0
-910 580 0
-910 6231 -663 0
-910 6525 663 0
910 -6231 -580 -663 0
910 -6525 -580 663 0
-911 580 0
-911 6231 -689 0
-911 6526 689 0
911 -6231 -580 -689 0
911 -6526 -580 689 0
-912 580 0
-912 6231 -687 0
-912 6527 687 0
912 -6231 -580 -687 0
912 -6527 -580 687 0
-913 580 0
-913 6231 -672 0
-913 6528 672 0
913 -6231 -580 -672 0
913 -6528 -580 672 0
-914 580 0
-914 6231 -684 0
-914 6529 684 0
914 -6231 -580 -684 0
914 -6529 -580 684 0
-915 580 0
-915 6231 -691 0
-915 6530 691 0
915 -6231 -580 -691 0
915 -6530 -580 691 0
-916 580 0
-916 6231 -670 0
-916 6531 670 0
916 -6231 -580 -670 0
916 -6531 -580 670 0
-917 580 0
-917 6231 -679 0
-917 6532 679 0
917 -6231 -580 -679 0
917 -6532 -580 679 0
-918 580 0
-918 6231 -676 0
-918 6533 676 0
918 -6231 -580 -676 0
918 -6533 -580 676 0
-919 580 0
-919 6231 -681 0
-919 6534 681 0
919 -6231 -580 -681 0
919 -6534 -580 681 0
-920 580 0
-920 6232 -687 0
-920 6535 687 0
920 -6232 -580 -687 0
920 -6535 -580 687 0
-921 580 0
-921 6232 -684 0
-921 6536 684 0
921 -6232 -580 -684 0
921 -6536 -580 684 0
-922 580 0
-922 6232 -689 0
-922 6537 689 0
922 -6232 -580 -689 0
922 -6537 -580 689 0
-923 580 0
-923 6232 -679 0
-923 6538 679 0
923 -6232 -580 -679 0
923 -6538 -580 679 0
-924 580 0
-924 6232 -663 0
-924 6539 663 0
924 -6232 -580 -663 0
924 -6539 -580 663 0
-925 580 0
-925 6232 -667 0
-925 6540 667 0
925 -6232 -580 -667 0
925 -6540 -580 667 0
-926 580 0
-926 6232 -691 0
-926 6541 691 0
926 -6232 -580 -691 0
926 -6541 -580 691 0
-927 580 0
-927 6232 -672 0
-927 6542 672 0
927 -6232 -580 -672 0
927 -6542 -580 672 0
-928 580 0
-928 6232 -676 0
-928 6543 676 0
928 -6232 -580 -676 0
928 -6543 -580 676 0
-929 580 0
-929 6232 -681 0
-929 6544 681 0
929 -6232 -580 -681 0
929 -6544 -580 681 0
-930 580 0
-930 6232 -582 0
-930 6545 582 0
930 -6232 -580 -582 0
930 -6545 -580 582 0
-931 580 0
-931 6232 -670 0
-931 6546 670 0
931 -6232 -580 -670 0
931 -6546 -580 670 0
-932 580 0
-932 6233 -687 0
-932 6547 687 0
932 -6233 -580 -687 0
932 -6547 -580 687 0
-933 580 0
-933 6233 -691 0
-933 6548 691 0
933 -6233 -580 -691 0
933 -6548 -580 691 0
-934 580 0
-934 6233 -681 0
-934 6549 681 0
934 -6233 -580 -681 0
934 -6549 -580 681 0
-935 580 0
-935 6233 -672 0
-935 6550 672 0
935 -6233 -580 -672 0
935 -6550 -580 672 0
-936 580 0
-936 6233 -684 0
-936 6551 684 0
936 -6233 -580 -684 0
936 -6551 -580 684 0
-937 580 0
-937 6233 -582 0
-937 6552 582 0
937 -6233 -580 -582 0
937 -6552 -580 582 0
-938 580 0
-938 6233 -689 0
-938 6553 689 0
938 -6233 -580 -689 0
938 -6553 -580 689 0
-939 580 0
-939 6233 -663 0
-939 6554 663 0
939 -6233 -580 -663 0
939 -6554 -580 663 0
-940 580 0
-940 6233 -676 0
-940 6555 676 0
940 -6233 -580 -676 0
940 -6555 -580 676 0
-941 580 0
-941 6233 -679 0
-941 6556 679 0
941 -6233 -580 -679 0
941 -6556 -580 679 0
-942 580 0
-942 6233 -670 0
-942 6557 670 0
942 -6233 -580 -670 0
942 -6557 -580 670 0
-943 580 0
-943 6233 -667 0
-943 6558 667 0
943 -6233 -580 -667 0
943 -6558 -580 667 0
-944 580 0
-944 6234 -663 0
-944 6559 663 0
944 -6234 -580 -663 0
944 -6559 -580 663 0
-945 580 0
-945 6234 -676 0
-945 6560 676 0
945 -6234 -580 -676 0
945 -6560 -580 676 0
-946 580 0
-946 6234 -672 0
-946 6561 672 0
946 -6234 -580 -672 0
946 -6561 -580 672 0
-947 580 0
-947 6234 -582 0
-947 6562 582 0
947 -6234 -580 -582 0
947 -6562 -580 582 0
-948 580 0
-948 6234 -689 0
-948 6563 689 0
948 -6234 -580 -689 0
948 -6563 -580 689 0
-949 580 0
-949 6234 -681 0
-949 6564 681 0
949 -6234 -580 -681 0
949 -6564 -580 681 0
-950 580 0
-950 6234 -667 0
-950 6565 667 0
950 -6234 -580 -667 0
950 -6565 -580 667 0
-951 580 0
-951 6234 -670 0
-951 6566 670 0
951 -6234 -580 -670 0
951 -6566 -580 670 0
-952 580 0
-952 6234 -687 0
-952 6567 687 0
952 -6234 -580 -687 0
952 -6567 -580 687 0
-953 580 0
-953 6234 -691 0
-953 6568 691 0
953 -6234 -580 -691 0
953 -6568 -580 691 0
-954 580 0
-954 6234 -684 0
-954 6569 684 0
954 -6234 -580 -684 0
954 -6569 -580 684 0
-955 580 0
-955 6234 -679 0
-955 6570 679 0
955 -6234 -580 -679 0
955 -6570 -580 679 0
-956 580 0
-956 6235 -582 0
-956 6571 582 0
956 -6235 -580 -582 0
956 -6571 -580 582 0
-957 580 0
-957 6235 -663 0
-957 6572 663 0
957 -6235 -580 -663 0
957 -6572 -580 663 0
-958 580 0
-958 6235 -691 0
-958 6573 691 0
958 -6235 -580 -691 0
958 -6573 -580 691 0
-959 580 0
-959 6235 -689 0
-959 6574 689 0
959 -6235 -580 -689 0
959 -6574 -580 689 0
-960 580 0
-960 6235 -672 0
-960 6575 672 0
960 -6235 -580 -672 0
960 -6575 -580 672 0
-961 580 0
-961 6235 -684 0
-961 6576 684 0
961 -6235 -580 -684 0
961 -6576 -580 684 0
-962 580 0
-962 6235 -667 0
-962 6577 667 0
962 -6235 -580 -667 0
962 -6577 -580 667 0
-963 580 0
-963 6235 -679 0
-963 6578 679 0
963 -6235 -580 -679 0
963 -6578 -580 679 0
-964 580 0
-964 6235 -670 0
-964 6579 670 0
964 -6235 -580 -670 0
964 -6579 -580 670 0
-965 580 0
-965 6235 -687 0
-965 6580 687 0
965 -6235 -580 -687 0
965 -6580 -580 687 0
-966 580 0
-966 6235 -681 0
-966 6581 681 0
966 -6235 -580 -681 0
966 -6581 -580 681 0
-967 580 0
-967 6235 -676 0
-967 6582 676 0
967 -6235 -580 -676 0
967 -6582 -580 676 0
-968 580 0
-968 6236 -681 0
-968 6583 681 0
968 -6236 -580 -681 0
968 -6583 -580 681 0
-969 580 0
-969 6236 -663 0
-969 6584 663 0
969 -6236 -580 -663 0
969 -6584 -580 663 0
-970 580 0
-970 6236 -691 0
-970 6585 691 0
970 -6236 -580 -691 0
970 -6585 -580 691 0
-971 580 0
-971 6236 -687 0
-971 6586 687 0
971 -6236 -580 -687 0
971 -6586 -580 687 0
-972 580 0
-972 6236 -672 0
-972 6587 672 0
972 -6236 -580 -672 0
972 -6587 -580 672 0
-973 580 0
-973 6236 -676 0
-973 6588 676 0
973 -6236 -580 -676 0
973 -6588 -580 676 0
-974 580 0
-974 6236 -679 0
-974 6589 679 0
974 -6236 -580 -679 0
974 -6589 -580 679 0
-975 580 0
-975 6236 -582 0
-975 6590 582 0
975 -6236 -580 -582 0
975 -6590 -580 582 0
-976 580 0
-976 6236 -670 0
-976 6591 670 0
976 -6236 -580 -670 0
976 -6591 -580 670 0
-977 580 0
-977 6236 -689 0
-977 6592 689 0
977 -6236 -580 -689 0
977 -6592 -580 689 0
-978 580 0
-978 6236 -684 0
-978 6593 684 0
978 -6236 -580 -684 0
978 -6593 -580 684 0
-979 580 0
-979 6236 -667 0
-979 6594 667 0
979 -6236 -580 -667 0
979 -6594 -580 667 0
-980 580 0
-980 6237 -689 0
-980 6595 689 0
980 -6237 -580 -689 0
980 -6595 -580 689 0
-981 580 0
-981 6237 -681 0
-981 6596 681 0
981 -6237 -580 -681 0
981 -6596 -580 681 0
-982 580 0
-982 6237 -582 0
-982 6597 582 0
982 -6237 -580 -582 0
982 -6597 -580 582 0
-983 580 0
-983 6237 -676 0
-983 6598 676 0
983 -6237 -580 -676 0
983 -6598 -580 676 0
-984 580 0
-984 6237 -672 0
-984 6599 672 0
984 -6237 -580 -672 0
984 -6599 -580 672 0
-985 580 0
-985 6237 -670 0
-985 6600 670 0
985 -6237 -580 -670 0
985 -6600 -580 670 0
-986 580 0
-986 6237 -663 0
-986 6601 663 0
986 -6237 -580 -663 0
986 -6601 -580 663 0
-987 580 0
-987 6237 -684 0
-987 6602 684 0
987 -6237 -580 -684 0
987 -6602 -580 684 0
-988 580 0
-988 6237 -687 0
-988 6603 687 0
988 -6237 -580 -687 0
988 -6603 -580 687 0
-989 580 0
-989 6237 -679 0
-989 6604 679 0
989 -6237 -580 -679 0
989 -6604 -580 679 0
-990 580 0
-990 6237 -667 0
-990 6605 667 0
990 -6237 -580 -667 0
990 -6605 -580 667 0
-991 580 0
-991 6237 -691 0
-991 6606 691 0
991 -6237 -580 -691 0
991 -6606 -580 691 0
-992 580 0
-992 6238 -667 0
-992 6607 667 0
992 -6238 -580 -667 0
992 -6607 -580 667 0
-993 580 0
-993 6238 -689 0
-993 6608 689 0
993 -6238 -580 -689 0
993 -6608 -580 689 0
-994 580 0
-994 6238 -687 0
-994 6609 687 0
994 -6238 -580 -687 0
994 -6609 -580 687 0
-995 580 0
-995 6238 -676 0
-995 6610 676 0
995 -6238 -580 -676 0
995 -6610 -580 676 0
-996 580 0
-996 6238 -684 0
-996 6611 684 0
996 -6238 -580 -684 0
996 -6611 -580 684 0
-997 580 0
-997 6238 -672 0
-997 6612 672 0
997 -6238 -580 -672 0
997 -6612 -580 672 0
-998 580 0
-998 6238 -582 0
-998 6613 582 0
998 -6238 -580 -582 0
998 -6613 -580 582 0
-999 580 0
-999 6238 -681 0
-999 6614 681 0
999 -6238 -580 -681 0
999 -6614 -580 681 0
-1000 580 0
-1000 6238 -691 0
-1000 6615 691 0
1000 -6238 -580 -691 0
1000 -6615 -580 691 0
-1001 580 0
-1001 6238 -663 0
-1001 6616 663 0
1001 -6238 -580 -663 0
1001 -6616 -580 663 0
-1002 580 0
-1002 6238 -670 0
-1002 6617 670 0
1002 -6238 -580 -670 0
1002 -6617 -580 670 0
-1003 580 0
-1003 6238 -679 0
-1003 6618 679 0
1003 -6238 -580 -679 0
1003 -6618 -580 679 0
-1004 580 0
-1004 6239 -691 0
-1004 6619 691 0
1004 -6239 -580 -691 0
1004 -6619 -580 691 0
-1005 580 0
-1005 6239 -582 0
-1005 6620 582 0
1005 -6239 -580 -582 0
1005 -6620 -580 582 0
-1006 580 0
-1006 6239 -689 0
-1006 6621 689 0
1006 -6239 -580 -689 0
1006 -6621 -580 689 0
-1007 580 0
-1007 6239 -670 0
-1007 6622 670 0
1007 -6239 -580 -670 0
1007 -6622 -580 670 0
-1008 580 0
-1008 6239 -687 0
-1008 6623 687 0
1008 -6239 -580 -687 0
1008 -6623 -580 687 0
-1009 580 0
-1009 6239 -672 0
-1009 6624 672 0
1009 -6239 -580 -672 0
1009 -6624 -580 672 0
-1010 580 0
-1010 6239 -676 0
-1010 6625 676 0
1010 -6239 -580 -676 0
1010 -6625 -580 676 0
-1011 580 0
-1011 6239 -681 0
-1011 6626 681 0
1011 -6239 -580 -681 0
1011 -6626 -580 681 0
-1012 580 0
-1012 6239 -667 0
-1012 6627 667 0
1012 -6239 -580 -667 0
1012 -6627 -580 667 0
-1013 580 0
-1013 6239 -663 0
-1013 6628 663 0
1013 -6239 -580 -663 0
1013 -6628 -580 663 0
-1014 580 0
-1014 6239 -679 0
-1014 6629 679 0
1014 -6239 -580 -679 0
1014 -6629 -580 679 0
-1015 580 0
-1015 6239 -684 0
-1015 6630 684 0
1015 -6239 -580 -684 0
1015 -6630 -580 684 0
-1016 580 0
-1016 6240 -670 0
-1016 6631 670 0
1016 -6240 -580 -670 0
1016 -6631 -580 670 0
-1017 580 0
-1017 6240 -663 0
-1017 6632 663 0
1017 -6240 -580 -663 0
1017 -6632 -580 663 0
-1018 580 0
-1018 6240 -667 0
-1018 6633 667 0
1018 -6240 -580 -667 0
1018 -6633 -580 667 0
-1019 580 0
-1019 6240 -672 0
-1019 6634 672 0
1019 -6240 -580 -672 0
1019 -6634 -580 672 0
-1020 580 0
-1020 6240 -684 0
-1020 6635 684 0
1020 -6240 -580 -684 0
1020 -6635 -580 684 0
-1021 580 0
-1021 6240 -681 0
-1021 6636 681 0
1021 -6240 -580 -681 0
1021 -6636 -580 681 0
-1022 580 0
-1022 6240 -676 0
-1022 6637 676 0
1022 -6240 -580 -676 0
1022 -6637 -580 676 0
-1023 580 0
-1023 6240 -687 0
-1023 6638 687 0
1023 -6240 -580 -687 0
1023 -6638 -580 687 0
-1024 580 0
-1024 6240 -582 0
-1024 6639 582 0
1024 -6240 -580 -582 0
1024 -6639 -580 582 0
-1025 580 0
-1025 6240 -691 0
-1025 6640 691 0
1025 -6240 -580 -691 0
1025 -6640 -580 691 0
-1026 580 0
-1026 6240 -679 0
-1026 6641 679 0
1026 -6240 -580 -679 0
1026 -6641 -580 679 0
-1027 580 0
-1027 6240 -689 0
-1027 6642 689 0
1027 -6240 -580 -689 0
1027 -6642 -580 689 0
-1028 580 0
-1028 6241 -691 0
-1028 6643 691 0
1028 -6241 -580 -691 0
1028 -6643 -580 691 0
-1029 580 0
-1029 6241 -672 0
-1029 6644 672 0
1029 -6241 -580 -672 0
1029 -6644 -580 672 0
-1030 580 0
-1030 6241 -679 0
-1030 6645 679 0
1030 -6241 -580 -679 0
1030 -6645 -580 679 0
-1031 580 0
-1031 6241 -582 0
-1031 6646 582 0
1031 -6241 -580 -582 0
1031 -6646 -580 582 0
-1032 580 0
-1032 6241 -687 0
-1032 6647 687 0
1032 -6241 -580 -687 0
1032 -6647 -580 687 0
-1033 580 0
-1033 6241 -667 0
-1033 6648 667 0
1033 -6241 -580 -667 0
1033 -6648 -580 667 0
-1034 580 0
-1034 6241 -663 0
-1034 6649 663 0
1034 -6241 -580 -663 0
1034 -6649 -580 663 0
-1035 580 0
-1035 6241 -676 0
-1035 6650 676 0
1035 -6241 -580 -676 0
1035 -6650 -580 676 0
-1036 580 0
-1036 6241 -684 0
-1036 6651 684 0
1036 -6241 -580 -684 0
1036 -6651 -580 684 0
-1037 580 0
-1037 6241 -689 0
-1037 6652 689 0
1037 -6241 -580 -689 0
1037 -6652 -580 689 0
-1038 580 0
-1038 6241 -670 0
-1038 6653 670 0
1038 -6241 -580 -670 0
1038 -6653 -580 670 0
-1039 580 0
-1039 6241 -681 0
-1039 6654 681 0
1039 -6241 -580 -681 0
1039 -6654 -580 681 0
-1040 580 0
-1040 6242 -687 0
-1040 6655 687 0
1040 -6242 -580 -687 0
1040 -6655 -580 687 0
-1041 580 0
-1041 6242 -672 0
-1041 6656 672 0
1041 -6242 -580 -672 0
1041 -6656 -580 672 0
-1042 580 0
-1042 6242 -670 0
-1042 6657 670 0
1042 -6242 -580 -670 0
1042 -6657 -580 670 0
-1043 580 0
-1043 6242 -684 0
-1043 6658 684 0
1043 -6242 -580 -684 0
1043 -6658 -580 684 0
-1044 580 0
-1044 6242 -691 0
-1044 6659 691 0
1044 -6242 -580 -691 0
1044 -6659 -580 691 0
-1045 580 0
-1045 6242 -667 0
-1045 6660 667 0
1045 -6242 -580 -667 0
1045 -6660 -580 667 0
-1046 580 0
-1046 6242 -676 0
-1046 6661 676 0
1046 -6242 -580 -676 0
1046 -6661 -580 676 0
-1047 580 0
-1047 6242 -689 0
-1047 6662 689 0
1047 -6242 -580 -689 0
1047 -6662 -580 689 0
-1048 580 0
-1048 6242 -582 0
-1048 6663 582 0
1048 -6242 -580 -582 0
1048 -6663 -580 582 0
-1049 580 0
-1049 6242 -679 0
-1049 6664 679 0
1049 -6242 -580 -679 0
1049 -6664 -580 679 0
-1050 580 0
-1050 6242 -681 0
-1050 6665 681 0
1050 -6242 -580 -681 0
1050 -6665 -580 681 0
-1051 580 0
-1051 6242 -663 0
-1051 6666 663 0
1051 -6242 -580 -663 0
1051 -6666 -580 663 0
-1052 580 0
-1052 6243 -684 0
-1052 6667 684 0
1052 -6243 -580 -684 0
1052 -6667 -580 684 0
-1053 580 0
-1053 6243 -663 0
-1053 6668 663 0
1053 -6243 -580 -663 0
1053 -6668 -580 663 0
-1054 580 0
-1054 6243 -681 0
-1054 6669 681 0
1054 -6243 -580 -681 0
1054 -6669 -580 681 0
-1055 580 0
-1055 6243 -689 0
-1055 6670 689 0
1055 -6243 -580 -689 0
1055 -6670 -580 689 0
-1056 580 0
-1056 6243 -672 0
-1056 6671 672 0
1056 -6243 -580 -672 0
1056 -6671 -580 672 0
-1057 580 0
-1057 6243 -670 0
-1057 6672 670 0
1057 -6243 -580 -670 0
1057 -6672 -580 670 0
-1058 580 0
-1058 6243 -691 0
-1058 6673 691 0
1058 -6243 -580 -691 0
1058 -6673 -580 691 0
-1059 580 0
-1059 6243 -582 0
-1059 6674 582 0
1059 -6243 -580 -582 0
1059 -6674 -580 582 0
-1060 580 0
-1060 6243 -687 0
-1060 6675 687 0
1060 -6243 -580 -687 0
1060 -6675 -580 687 0
-1061 580 0
-1061 6243 -676 0
-1061 6676 676 0
1061 -6243 -580 -676 0
1061 -6676 -580 676 0
-1062 580 0
-1062 6243 -667 0
-1062 6677 667 0
1062 -6243 -580 -667 0
1062 -6677 -580 667 0
-1063 580 0
-1063 6243 -679 0
-1063 6678 679 0
1063 -6243 -580 -679 0
1063 -6678 -580 679 0
-1064 580 0
-1064 6244 -681 0
-1064 6679 681 0
1064 -6244 -580 -681 0
1064 -6679 -580 681 0
-1065 580 0
-1065 6244 -663 0
-1065 6680 663 0
1065 -6244 -580 -663 0
1065 -6680 -580 663 0
-1066 580 0
-1066 6244 -691 0
-1066 6681 691 0
1066 -6244 -580 -691 0
1066 -6681 -580 691 0
-1067 580 0
-1067 6244 -687 0
-1067 6682 687 0
1067 -6244 -580 -687 0
1067 -6682 -580 687 0
-1068 580 0
-1068 6244 -672 0
-1068 6683 672 0
1068 -6244 -580 -672 0
1068 -6683 -580 672 0
-1069 580 0
-1069 6244 -676 0
-1069 6684 676 0
1069 -6244 -580 -676 0
1069 -6684 -580 676 0
-1070 580 0
-1070 6244 -679 0
-1070 6685 679 0
1070 -6244 -580 -679 0
1070 -6685 -580 679 0
-1071 580 0
-1071 6244 -689 0
-1071 6686 689 0
1071 -6244 -580 -689 0
1071 -6686 -580 689 0
-1072 580 0
-1072 6244 -582 0
-1072 6687 582 0
1072 -6244 -580 -582 0
1072 -6687 -580 582 0
-1073 580 0
-1073 6244 -670 0
-1073 6688 670 0
1073 -6244 -580 -670 0
1073 -6688 -580 670 0
-1074 580 0
-1074 6244 -684 0
-1074 6689 684 0
1074 -6244 -580 -684 0
1074 -6689 -580 684 0
-1075 580 0
-1075 6244 -667 0
-1075 6690 667 0
1075 -6244 -580 -667 0
1075 -6690 -580 667 0
1076 6691 -7542 0
1076 -6691 7542 0
-1076 -6691 -7542 0
-1076 6691 7542 0
-1077 -6692 -1078 0
-1077 6692 1078 0
1077 6692 -1078 0
1077 -6692 1078 0
1078 -6691 -7542 0
-1078 6691 0
-1078 7542 0
1079 6693 -1080 0
1079 -6693 1080 0
-1079 -6693 -1080 0
-1079 6693 1080 0
1080 -6692 -1078 0
-1080 6692 0
-1080 1078 0
1081 -1082 -1083 0
1081 -6694 1082 0
-1081 -1082 1083 0
-1081 6694 1082 0
1082 -6693 -1080 0
-1082 6693 0
-1082 1080 0
1083 -7542 -7554 0
-1083 7542 0
-1083 7554 0
1084 -1083 -1085 0
1084 -6695 1085 0
-1084 6695 1085 0
-1084 1083 -1085 0
1085 6691 -6692 -6693 -7542 0
-1085 -6691 0
-1085 7542 0
-1085 6693 0
-1085 6692 0
1086 -1083 -1087 0
1086 -6696 1087 0
-1086 6696 1087 0
-1086 1083 -1087 0
1087 -6693 -1088 0
-1087 6693 0
-1087 1088 0
1088 6692 -1078 0
-1088 -6692 0
-1088 1078 0
1089 -1083 -1090 0
1089 -6697 1090 0
-1089 6697 1090 0
-1089 1083 -1090 0
1090 6691 6692 -6693 -7542 0
-1090 -6691 0
-1090 7542 0
-1090 6693 0
-1090 -6692 0
1091 -1083 -1092 0
1091 -6698 1092 0
-1091 6698 1092 0
-1091 1083 -1092 0
1092 6693 -1080 0
-1092 -6693 0
-1092 1080 0
1093 -1083 -1094 0
1093 -6699 1094 0
-1093 6699 1094 0
-1093 1083 -1094 0
1094 6691 -6692 6693 -7542 0
-1094 6692 0
-1094 -6693 0
-1094 -6691 0
-1094 7542 0
1095 -1083 -1096 0
1095 -6700 1096 0
-1095 6700 1096 0
-1095 1083 -1096 0
1096 6693 -1088 0
-1096 -6693 0
-1096 1088 0
1097 -1083 -1098 0
1097 -6701 1098 0
-1097 6701 1098 0
-1097 1083 -1098 0
1098 6691 6692 6693 -7542 0
-1098 7542 0
-1098 -6693 0
-1098 -6691 0
-1098 -6692 0
1099 -1082 -1100 0
1099 -6702 1082 0
-1099 -1082 1100 0
-1099 6702 1082 0
1100 -7542 7548 0
-1100 7542 0
-1100 -7548 0
1101 -1085 -1100 0
1101 -6703 1085 0
-1101 -1085 1100 0
-1101 6703 1085 0
1102 -1087 -1100 0
1102 -6704 1087 0
-1102 -1087 1100 0
-1102 6704 1087 0
1103 -1090 -1100 0
1103 -6705 1090 0
-1103 -1090 1100 0
-1103 6705 1090 0
1104 -1092 -1100 0
1104 -6706 1092 0
-1104 -1092 1100 0
-1104 6706 1092 0
1105 -1094 -1100 0
1105 -6707 1094 0
-1105 -1094 1100 0
-1105 6707 1094 0
1106 -1096 -1100 0
1106 -6708 1096 0
-1106 -1096 1100 0
-1106 6708 1096 0
1107 -1098 -1100 0
1107 -6709 1098 0
-1107 -1098 1100 0
-1107 6709 1098 0
1108 -1082 -1109 0
1108 -6710 1082 0
-1108 -1082 1109 0
-1108 6710 1082 0
1109 -7542 -7553 0
-1109 7542 0
-1109 7553 0
1110 -1085 -1109 0
1110 -6711 1085 0
-1110 -1085 1109 0
-1110 6711 1085 0
1111 -1087 -1109 0
1111 -6712 1087 0
-1111 -1087 1109 0
-1111 6712 1087 0
1112 -1090 -1109 0
1112 -6713 1090 0
-1112 -1090 1109 0
-1112 6713 1090 0
1113 -1092 -1109 0
1113 -6714 1092 0
-1113 -1092 1109 0
-1113 6714 1092 0
1114 -1094 -1109 0
1114 -6715 1094 0
-1114 -1094 1109 0
-1114 6715 1094 0
1115 -1096 -1109 0
1115 -6716 1096 0
-1115 -1096 1109 0
-1115 6716 1096 0
1116 -1098 -1109 0
1116 -6717 1098 0
-1116 -1098 1109 0
-1116 6717 1098 0
1117 -1082 -1118 0
1117 -6718 1082 0
-1117 -1082 1118 0
-1117 6718 1082 0
1118 -7542 7549 0
-1118 7542 0
-1118 -7549 0
1119 -1085 -1118 0
1119 -6719 1085 0
-1119 -1085 1118 0
-1119 6719 1085 0
1120 -1087 -1118 0
1120 -6720 1087 0
-1120 -1087 1118 0
-1120 6720 1087 0
1121 -1090 -1118 0
1121 -6721 1090 0
-1121 -1090 1118 0
-1121 6721 1090 0
1122 -1092 -1118 0
1122 -6722 1092 0
-1122 -1092 1118 0
-1122 6722 1092 0
1123 -1094 -1118 0
1123 -6723 1094 0
-1123 -1094 1118 0
-1123 6723 1094 0
1124 -1096 -1118 0
1124 -6724 1096 0
-1124 -1096 1118 0
-1124 6724 1096 0
1125 -1098 -1118 0
1125 -6725 1098 0
-1125 -1098 1118 0
-1125 6725 1098 0
1126 -1082 -1127 0
1126 -6726 1082 0
-1126 -1082 1127 0
-1126 6726 1082 0
1127 -7542 -7550 0
-1127 7542 0
-1127 7550 0
1128 -1085 -1127 0
1128 -6727 1085 0
-1128 -1085 1127 0
-1128 6727 1085 0
1129 -1087 -1127 0
1129 -6728 1087 0
-1129 -1087 1127 0
-1129 6728 1087 0
1130 -1090 -1127 0
1130 -6729 1090 0
-1130 -1090 1127 0
-1130 6729 1090 0
1131 -1092 -1127 0
1131 -6730 1092 0
-1131 -1092 1127 0
-1131 6730 1092 0
1132 -1094 -1127 0
1132 -6731 1094 0
-1132 -1094 1127 0
-1132 6731 1094 0
1133 -1096 -1127 0
1133 -6732 1096 0
-1133 -1096 1127 0
-1133 6732 1096 0
1134 -1098 -1127 0
1134 -6733 1098 0
-1134 -1098 1127 0
-1134 6733 1098 0
1135 -1082 -1136 0
1135 -6734 1082 0
-1135 -1082 1136 0
-1135 6734 1082 0
1136 -7542 -7552 0
-1136 7542 0
-1136 7552 0
1137 -1085 -1136 0
1137 -6735 1085 0
-1137 -1085 1136 0
-1137 6735 1085 0
1138 -1087 -1136 0
1138 -6736 1087 0
-1138 -1087 1136 0
-1138 6736 1087 0
1139 -1090 -1136 0
1139 -6737 1090 0
-1139 -1090 1136 0
-1139 6737 1090 0
1140 -1092 -1136 0
1140 -6738 1092 0
-1140 -1092 1136 0
-1140 6738 1092 0
1141 -1094 -1136 0
1141 -6739 1094 0
-1141 -1094 1136 0
-1141 6739 1094 0
1142 -1096 -1136 0
1142 -6740 1096 0
-1142 -1096 1136 0
-1142 6740 1096 0
1143 -1098 -1136 0
1143 -6741 1098 0
-1143 -1098 1136 0
-1143 6741 1098 0
1144 -1082 -1145 0
1144 -6742 1082 0
-1144 -1082 1145 0
-1144 6742 1082 0
1145 -7542 7551 0
-1145 7542 0
-1145 -7551 0
1146 -1085 -1145 0
1146 -6743 1085 0
-1146 -1085 1145 0
-1146 6743 1085 0
1147 -1087 -1145 0
1147 -6744 1087 0
-1147 -1087 1145 0
-1147 6744 1087 0
1148 -1090 -1145 0
1148 -6745 1090 0
-1148 -1090 1145 0
-1148 6745 1090 0
1149 -1092 -1145 0
1149 -6746 1092 0
-1149 -1092 1145 0
-1149 6746 1092 0
1150 -1094 -1145 0
1150 -6747 1094 0
-1150 -1094 1145 0
-1150 6747 1094 0
1151 -1096 -1145 0
1151 -6748 1096 0
-1151 -1096 1145 0
-1151 6748 1096 0
1152 -1098 -1145 0
1152 -6749 1098 0
-1152 -1098 1145 0
-1152 6749 1098 0
1153 -1082 -1154 0
1153 -6750 1082 0
-1153 -1082 1154 0
-1153 6750 1082 0
1154 -7542 7547 0
-1154 7542 0
-1154 -7547 0
1155 -1085 -1154 0
1155 -6751 1085 0
-1155 -1085 1154 0
-1155 6751 1085 0
1156 -1087 -1154 0
1156 -6752 1087 0
-1156 -1087 1154 0
-1156 6752 1087 0
1157 -1090 -1154 0
1157 -6753 1090 0
-1157 -1090 1154 0
-1157 6753 1090 0
1158 -1092 -1154 0
1158 -6754 1092 0
-1158 -1092 1154 0
-1158 6754 1092 0
1159 -1094 -1154 0
1159 -6755 1094 0
-1159 -1094 1154 0
-1159 6755 1094 0
1160 -1096 -1154 0
1160 -6756 1096 0
-1160 -1096 1154 0
-1160 6756 1096 0
1161 -1098 -1154 0
1161 -6757 1098 0
-1161 -1098 1154 0
-1161 6757 1098 0
-1162 -7428 7623 0
-1162 6758 7428 0
1162 -7428 -7623 0
1162 -6758 7428 0
-1163 -7428 7590 0
-1163 6759 7428 0
1163 -7428 -7590 0
1163 -6759 7428 0
-1164 -7428 7624 0
-1164 6760 7428 0
1164 -7428 -7624 0
1164 -6760 7428 0
-1165 -7428 7591 0
-1165 6761 7428 0
1165 -7428 -7591 0
1165 -6761 7428 0
-1166 -7428 7625 0
-1166 6762 7428 0
1166 -7428 -7625 0
1166 -6762 7428 0
-1167 -7428 7592 0
-1167 6763 7428 0
1167 -7428 -7592 0
1167 -6763 7428 0
-1168 -7428 7626 0
-1168 6764 7428 0
1168 -7428 -7626 0
1168 -6764 7428 0
-1169 -7428 7593 0
-1169 6765 7428 0
1169 -7428 -7593 0
1169 -6765 7428 0
-1170 -7428 7627 0
-1170 6766 7428 0
1170 -7428 -7627 0
1170 -6766 7428 0
-1171 -7428 7594 0
-1171 6767 7428 0
1171 -7428 -7594 0
1171 -6767 7428 0
-1172 -7428 7628 0
-1172 6768 7428 0
1172 -7428 -7628 0
1172 -6768 7428 0
-1173 -7428 7595 0
-1173 6769 7428 0
1173 -7428 -7595 0
1173 -6769 7428 0
-1174 -7428 7629 0
-1174 6770 7428 0
1174 -7428 -7629 0
1174 -6770 7428 0
-1175 -7428 7596 0
-1175 6771 7428 0
1175 -7428 -7596 0
1175 -6771 7428 0
-1176 -7428 7630 0
-1176 6772 7428 0
1176 -7428 -7630 0
1176 -6772 7428 0
-1177 -7428 7597 0
-1177 6773 7428 0
1177 -7428 -7597 0
1177 -6773 7428 0
-1178 -7428 7631 0
-1178 6774 7428 0
1178 -7428 -7631 0
1178 -6774 7428 0
-1179 -7428 7598 0
-1179 6775 7428 0
1179 -7428 -7598 0
1179 -6775 7428 0
-1180 -7428 7632 0
-1180 6776 7428 0
1180 -7428 -7632 0
1180 -6776 7428 0
-1181 -7428 7599 0
-1181 6777 7428 0
1181 -7428 -7599 0
1181 -6777 7428 0
-1182 -7428 7633 0
-1182 6778 7428 0
1182 -7428 -7633 0
1182 -6778 7428 0
-1183 -7428 7600 0
-1183 6779 7428 0
1183 -7428 -7600 0
1183 -6779 7428 0
-1184 -7428 7634 0
-1184 6780 7428 0
1184 -7428 -7634 0
1184 -6780 7428 0
-1185 -7428 7601 0
-1185 6781 7428 0
1185 -7428 -7601 0
1185 -6781 7428 0
-1186 -7428 7635 0
-1186 6782 7428 0
1186 -7428 -7635 0
1186 -6782 7428 0
-1187 -7428 7602 0
-1187 6783 7428 0
1187 -7428 -7602 0
1187 -6783 7428 0
-1188 -7428 7636 0
-1188 6784 7428 0
1188 -7428 -7636 0
1188 -6784 7428 0
-1189 -7428 7603 0
-1189 6785 7428 0
1189 -7428 -7603 0
1189 -6785 7428 0
-1190 -7428 7637 0
-1190 6786 7428 0
1190 -7428 -7637 0
1190 -6786 7428 0
-1191 -7428 7604 0
-1191 6787 7428 0
1191 -7428 -7604 0
1191 -6787 7428 0
-1192 -7428 7638 0
-1192 6788 7428 0
1192 -7428 -7638 0
1192 -6788 7428 0
-1193 -7428 7605 0
-1193 6789 7428 0
1193 -7428 -7605 0
1193 -6789 7428 0
-1194 -7428 7639 0
-1194 6790 7428 0
1194 -7428 -7639 0
1194 -6790 7428 0
-1195 -7428 7606 0
-1195 6791 7428 0
1195 -7428 -7606 0
1195 -6791 7428 0
-1196 -7428 7640 0
-1196 6792 7428 0
1196 -7428 -7640 0
1196 -6792 7428 0
-1197 -7428 7607 0
-1197 6793 7428 0
1197 -7428 -7607 0
1197 -6793 7428 0
-1198 -7428 7641 0
-1198 6794 7428 0
1198 -7428 -7641 0
1198 -6794 7428 0
-1199 -7428 7608 0
-1199 6795 7428 0
1199 -7428 -7608 0
1199 -6795 7428 0
-1200 -7428 7642 0
-1200 6796 7428 0
1200 -7428 -7642 0
1200 -6796 7428 0
-1201 -7428 7609 0
-1201 6797 7428 0
1201 -7428 -7609 0
1201 -6797 7428 0
-1202 -7428 7643 0
-1202 6798 7428 0
1202 -7428 -7643 0
1202 -6798 7428 0
-1203 -7428 7610 0
-1203 6799 7428 0
1203 -7428 -7610 0
1203 -6799 7428 0
-1204 -7428 7644 0
-1204 6800 7428 0
1204 -7428 -7644 0
1204 -6800 7428 0
-1205 -7428 7611 0
-1205 6801 7428 0
1205 -7428 -7611 0
1205 -6801 7428 0
-1206 -7428 7645 0
-1206 6802 7428 0
1206 -7428 -7645 0
1206 -6802 7428 0
-1207 -7428 7612 0
-1207 6803 7428 0
1207 -7428 -7612 0
1207 -6803 7428 0
-1208 -7428 7646 0
-1208 6804 7428 0
1208 -7428 -7646 0
1208 -6804 7428 0
-1209 -7428 7613 0
-1209 6805 7428 0
1209 -7428 -7613 0
1209 -6805 7428 0
-1210 -7428 7647 0
-1210 6806 7428 0
1210 -7428 -7647 0
1210 -6806 7428 0
-1211 -7428 7614 0
-1211 6807 7428 0
1211 -7428 -7614 0
1211 -6807 7428 0
-1212 -7428 7648 0
-1212 6808 7428 0
1212 -7428 -7648 0
1212 -6808 7428 0
-1213 -7428 7615 0
-1213 6809 7428 0
1213 -7428 -7615 0
1213 -6809 7428 0
-1214 -7428 7649 0
-1214 6810 7428 0
1214 -7428 -7649 0
1214 -6810 7428 0
-1215 -7428 7616 0
-1215 6811 7428 0
1215 -7428 -7616 0
1215 -6811 7428 0
-1216 -7428 7650 0
-1216 6812 7428 0
1216 -7428 -7650 0
1216 -6812 7428 0
-1217 -7428 7617 0
-1217 6813 7428 0
1217 -7428 -7617 0
1217 -6813 7428 0
-1218 -7428 7651 0
-1218 6814 7428 0
1218 -7428 -7651 0
1218 -6814 7428 0
-1219 -7428 7618 0
-1219 6815 7428 0
1219 -7428 -7618 0
1219 -6815 7428 0
-1220 -7428 7652 0
-1220 6816 7428 0
1220 -7428 -7652 0
1220 -6816 7428 0
-1221 -7428 7619 0
-1221 6817 7428 0
1221 -7428 -7619 0
1221 -6817 7428 0
-1222 -7428 7653 0
-1222 6818 7428 0
1222 -7428 -7653 0
1222 -6818 7428 0
-1223 -7428 7620 0
-1223 6819 7428 0
1223 -7428 -7620 0
1223 -6819 7428 0
-1224 -7428 7654 0
-1224 6820 7428 0
1224 -7428 -7654 0
1224 -6820 7428 0
-1225 -7428 7621 0
-1225 6821 7428 0
1225 -7428 -7621 0
1225 -6821 7428 0
-1226 -7428 7655 0
-1226 6822 7428 0
1226 -7428 -7655 0
1226 -6822 7428 0
-1227 -7428 7622 0
-1227 6823 7428 0
1227 -7428 -7622 0
1227 -6823 7428 0
1228 -1082 -1229 0
1228 -6824 1082 0
-1228 -1082 1229 0
-1228 6824 1082 0
1229 -7542 -7582 0
-1229 7542 0
-1229 7582 0
1230 -1085 -1229 0
1230 -6825 1085 0
-1230 -1085 1229 0
-1230 6825 1085 0
1231 -1087 -1229 0
1231 -6826 1087 0
-1231 -1087 1229 0
-1231 6826 1087 0
1232 -1090 -1229 0
1232 -6827 1090 0
-1232 -1090 1229 0
-1232 6827 1090 0
1233 -1092 -1229 0
1233 -6828 1092 0
-1233 -1092 1229 0
-1233 6828 1092 0
1234 -1094 -1229 0
1234 -6829 1094 0
-1234 -1094 1229 0
-1234 6829 1094 0
1235 -1096 -1229 0
1235 -6830 1096 0
-1235 -1096 1229 0
-1235 6830 1096 0
1236 -1098 -1229 0
1236 -6831 1098 0
-1236 -1098 1229 0
-1236 6831 1098 0
1237 -1082 -1238 0
1237 -6832 1082 0
-1237 -1082 1238 0
-1237 6832 1082 0
1238 -7542 -7583 0
-1238 7542 0
-1238 7583 0
1239 -1085 -1238 0
1239 -6833 1085 0
-1239 -1085 1238 0
-1239 6833 1085 0
1240 -1087 -1238 0
1240 -6834 1087 0
-1240 -1087 1238 0
-1240 6834 1087 0
1241 -1090 -1238 0
1241 -6835 1090 0
-1241 -1090 1238 0
-1241 6835 1090 0
1242 -1092 -1238 0
1242 -6836 1092 0
-1242 -1092 1238 0
-1242 6836 1092 0
1243 -1094 -1238 0
1243 -6837 1094 0
-1243 -1094 1238 0
-1243 6837 1094 0
1244 -1096 -1238 0
1244 -6838 1096 0
-1244 -1096 1238 0
-1244 6838 1096 0
1245 -1098 -1238 0
1245 -6839 1098 0
-1245 -1098 1238 0
-1245 6839 1098 0
-1246 6041 1247 0
-1246 -6840 1248 0
-1246 6041 -6840 0
-1246 1247 1248 0
1246 -6041 -1248 0
1246 6840 -1247 0
1247 -7462 64 0
-1247 7462 0
-1247 -64 0
1248 1249 1250 1251 -1252 0
-1248 1252 0
-1248 -1249 0
-1248 -1251 0
-1248 -1250 0
-1249 -7674 18 0
-1249 -7680 20 0
-1249 -7674 -7680 0
-1249 18 20 0
1249 7674 -20 0
1249 7680 -18 0
-1250 -7676 22 0
-1250 -7678 23 0
-1250 -7676 -7678 0
-1250 22 23 0
1250 7676 -23 0
1250 7678 -22 0
-1251 -7675 25 0
-1251 -7679 27 0
-1251 -7675 -7679 0
-1251 25 27 0
1251 7675 -27 0
1251 7679 -25 0
1252 -7677 -29 0
1252 -7681 30 0
1252 -7677 -7681 0
1252 -29 30 0
-1252 7677 -30 0
-1252 7681 29 0
1253 -1082 -1254 0
1253 -6841 1082 0
-1253 -1082 1254 0
-1253 6841 1082 0
1254 -7542 -7584 0
-1254 7542 0
-1254 7584 0
1255 -1085 -1254 0
1255 -6842 1085 0
-1255 -1085 1254 0
-1255 6842 1085 0
1256 -1087 -1254 0
1256 -6843 1087 0
-1256 -1087 1254 0
-1256 6843 1087 0
1257 -1090 -1254 0
1257 -6844 1090 0
-1257 -1090 1254 0
-1257 6844 1090 0
1258 -1092 -1254 0
1258 -6845 1092 0
-1258 -1092 1254 0
-1258 6845 1092 0
1259 -1094 -1254 0
1259 -6846 1094 0
-1259 -1094 1254 0
-1259 6846 1094 0
1260 -1096 -1254 0
1260 -6847 1096 0
-1260 -1096 1254 0
-1260 6847 1096 0
1261 -1098 -1254 0
1261 -6848 1098 0
-1261 -1098 1254 0
-1261 6848 1098 0
-1262 6041 1247 0
-1262 -6849 1263 0
-1262 6041 -6849 0
-1262 1247 1263 0
1262 -6041 -1263 0
1262 6849 -1247 0
1263 1264 1265 1266 -1267 0
-1263 1267 0
-1263 -1264 0
-1263 -1266 0
-1263 -1265 0
-1264 -7687 20 0
-1264 -7683 22 0
-1264 -7683 -7687 0
-1264 20 22 0
1264 7687 -22 0
1264 7683 -20 0
-1265 -7685 18 0
-1265 -7689 23 0
-1265 -7685 -7689 0
-1265 18 23 0
1265 7685 -23 0
1265 7689 -18 0
-1266 -7686 25 0
-1266 -7688 30 0
-1266 -7686 -7688 0
-1266 25 30 0
1266 7686 -30 0
1266 7688 -25 0
1267 -7690 27 0
1267 -7684 -29 0
1267 -7684 -7690 0
1267 27 -29 0
-1267 7690 29 0
-1267 7684 -27 0
1268 -1082 -1269 0
1268 -6850 1082 0
-1268 -1082 1269 0
-1268 6850 1082 0
1269 -7542 -7585 0
-1269 7542 0
-1269 7585 0
1270 -1085 -1269 0
1270 -6851 1085 0
-1270 -1085 1269 0
-1270 6851 1085 0
1271 -1087 -1269 0
1271 -6852 1087 0
-1271 -1087 1269 0
-1271 6852 1087 0
1272 -1090 -1269 0
1272 -6853 1090 0
-1272 -1090 1269 0
-1272 6853 1090 0
1273 -1092 -1269 0
1273 -6854 1092 0
-1273 -1092 1269 0
-1273 6854 1092 0
1274 -1094 -1269 0
1274 -6855 1094 0
-1274 -1094 1269 0
-1274 6855 1094 0
1275 -1096 -1269 0
1275 -6856 1096 0
-1275 -1096 1269 0
-1275 6856 1096 0
1276 -1098 -1269 0
1276 -6857 1098 0
-1276 -1098 1269 0
-1276 6857 1098 0
-1277 6041 1247 0
-1277 -6858 1278 0
-1277 6041 -6858 0
-1277 1247 1278 0
1277 -6041 -1278 0
1277 6858 -1247 0
1278 1279 1280 -1281 1282 0
-1278 -1282 0
-1278 -1279 0
-1278 1281 0
-1278 -1280 0
-1279 -7694 18 0
-1279 -7698 23 0
-1279 -7694 -7698 0
-1279 18 23 0
1279 7694 -23 0
1279 7698 -18 0
-1280 -7696 20 0
-1280 -7692 22 0
-1280 -7692 -7696 0
-1280 20 22 0
1280 7696 -22 0
1280 7692 -20 0
1281 -7695 -29 0
1281 -7699 30 0
1281 -7695 -7699 0
1281 -29 30 0
-1281 7695 -30 0
-1281 7699 29 0
-1282 -7693 25 0
-1282 -7697 27 0
-1282 -7693 -7697 0
-1282 25 27 0
1282 7693 -27 0
1282 7697 -25 0
1283 -1082 -1284 0
1283 -6859 1082 0
-1283 -1082 1284 0
-1283 6859 1082 0
1284 -7542 -7586 0
-1284 7542 0
-1284 7586 0
1285 -1085 -1284 0
1285 -6860 1085 0
-1285 -1085 1284 0
-1285 6860 1085 0
1286 -1087 -1284 0
1286 -6861 1087 0
-1286 -1087 1284 0
-1286 6861 1087 0
1287 -1090 -1284 0
1287 -6862 1090 0
-1287 -1090 1284 0
-1287 6862 1090 0
1288 -1092 -1284 0
1288 -6863 1092 0
-1288 -1092 1284 0
-1288 6863 1092 0
1289 -1094 -1284 0
1289 -6864 1094 0
-1289 -1094 1284 0
-1289 6864 1094 0
1290 -1096 -1284 0
1290 -6865 1096 0
-1290 -1096 1284 0
-1290 6865 1096 0
1291 -1098 -1284 0
1291 -6866 1098 0
-1291 -1098 1284 0
-1291 6866 1098 0
-1292 6041 1247 0
-1292 -6867 1293 0
-1292 6041 -6867 0
-1292 1247 1293 0
1292 -6041 -1293 0
1292 6867 -1247 0
1293 1294 1295 -1296 1297 0
-1293 -1297 0
-1293 -1294 0
-1293 1296 0
-1293 -1295 0
-1294 -7703 20 0
-1294 -7701 23 0
-1294 -7701 -7703 0
-1294 20 23 0
1294 7703 -23 0
1294 7701 -20 0
-1295 -7705 18 0
-1295 -7707 22 0
-1295 -7705 -7707 0
-1295 18 22 0
1295 7705 -22 0
1295 7707 -18 0
1296 -7704 -29 0
1296 -7708 30 0
1296 -7704 -7708 0
1296 -29 30 0
-1296 7704 -30 0
-1296 7708 29 0
-1297 -7702 25 0
-1297 -7706 27 0
-1297 -7702 -7706 0
-1297 25 27 0
1297 7702 -27 0
1297 7706 -25 0
1298 -1082 -1299 0
1298 -6868 1082 0
-1298 -1082 1299 0
-1298 6868 1082 0
1299 -7542 -7587 0
-1299 7542 0
-1299 7587 0
1300 -1085 -1299 0
1300 -6869 1085 0
-1300 -1085 1299 0
-1300 6869 1085 0
1301 -1087 -1299 0
1301 -6870 1087 0
-1301 -1087 1299 0
-1301 6870 1087 0
1302 -1090 -1299 0
1302 -6871 1090 0
-1302 -1090 1299 0
-1302 6871 1090 0
1303 -1092 -1299 0
1303 -6872 1092 0
-1303 -1092 1299 0
-1303 6872 1092 0
1304 -1094 -1299 0
1304 -6873 1094 0
-1304 -1094 1299 0
-1304 6873 1094 0
1305 -1096 -1299 0
1305 -6874 1096 0
-1305 -1096 1299 0
-1305 6874 1096 0
1306 -1098 -1299 0
1306 -6875 1098 0
-1306 -1098 1299 0
-1306 6875 1098 0
-1307 6041 1247 0
-1307 -6876 1308 0
-1307 6041 -6876 0
-1307 1247 1308 0
1307 -6041 -1308 0
1307 6876 -1247 0
1308 1309 1310 -1311 1312 0
-1308 -1312 0
-1308 -1309 0
-1308 1311 0
-1308 -1310 0
-1309 -7710 18 0
-1309 -7716 20 0
-1309 -7710 -7716 0
-1309 18 20 0
1309 7710 -20 0
1309 7716 -18 0
-1310 -7712 22 0
-1310 -7714 23 0
-1310 -7712 -7714 0
-1310 22 23 0
1310 7712 -23 0
1310 7714 -22 0
1311 -7713 -29 0
1311 -7717 30 0
1311 -7713 -7717 0
1311 -29 30 0
-1311 7713 -30 0
-1311 7717 29 0
-1312 -7711 25 0
-1312 -7715 27 0
-1312 -7711 -7715 0
-1312 25 27 0
1312 7711 -27 0
1312 7715 -25 0
1313 -1082 -1314 0
1313 -6877 1082 0
-1313 -1082 1314 0
-1313 6877 1082 0
1314 -7542 -7588 0
-1314 7542 0
-1314 7588 0
1315 -1085 -1314 0
1315 -6878 1085 0
-1315 -1085 1314 0
-1315 6878 1085 0
1316 -1087 -1314 0
1316 -6879 1087 0
-1316 -1087 1314 0
-1316 6879 1087 0
1317 -1090 -1314 0
1317 -6880 1090 0
-1317 -1090 1314 0
-1317 6880 1090 0
1318 -1092 -1314 0
1318 -6881 1092 0
-1318 -1092 1314 0
-1318 6881 1092 0
1319 -1094 -1314 0
1319 -6882 1094 0
-1319 -1094 1314 0
-1319 6882 1094 0
1320 -1096 -1314 0
1320 -6883 1096 0
-1320 -1096 1314 0
-1320 6883 1096 0
1321 -1098 -1314 0
1321 -6884 1098 0
-1321 -1098 1314 0
-1321 6884 1098 0
-1322 6041 1247 0
-1322 -6885 1323 0
-1322 6041 -6885 0
-1322 1247 1323 0
1322 -6041 -1323 0
1322 6885 -1247 0
1323 1324 1325 -1326 1327 0
-1323 -1327 0
-1323 -1324 0
-1323 1326 0
-1323 -1325 0
-1324 -7721 18 0
-1324 -7725 23 0
-1324 -7721 -7725 0
-1324 18 23 0
1324 7721 -23 0
1324 7725 -18 0
-1325 -7723 20 0
-1325 -7719 22 0
-1325 -7719 -7723 0
-1325 20 22 0
1325 7723 -22 0
1325 7719 -20 0
1326 -7722 -29 0
1326 -7726 30 0
1326 -7722 -7726 0
1326 -29 30 0
-1326 7722 -30 0
-1326 7726 29 0
-1327 -7720 25 0
-1327 -7724 27 0
-1327 -7720 -7724 0
-1327 25 27 0
1327 7720 -27 0
1327 7724 -25 0
1328 -1082 -1329 0
1328 -6886 1082 0
-1328 -1082 1329 0
-1328 6886 1082 0
1329 -7542 -7589 0
-1329 7542 0
-1329 7589 0
1330 -1085 -1329 0
1330 -6887 1085 0
-1330 -1085 1329 0
-1330 6887 1085 0
1331 -1087 -1329 0
1331 -6888 1087 0
-1331 -1087 1329 0
-1331 6888 1087 0
1332 -1090 -1329 0
1332 -6889 1090 0
-1332 -1090 1329 0
-1332 6889 1090 0
1333 -1092 -1329 0
1333 -6890 1092 0
-1333 -1092 1329 0
-1333 6890 1092 0
1334 -1094 -1329 0
1334 -6891 1094 0
-1334 -1094 1329 0
-1334 6891 1094 0
1335 -1096 -1329 0
1335 -6892 1096 0
-1335 -1096 1329 0
-1335 6892 1096 0
1336 -1098 -1329 0
1336 -6893 1098 0
-1336 -1098 1329 0
-1336 6893 1098 0
-1337 6041 1247 0
-1337 -6894 1338 0
-1337 6041 -6894 0
-1337 1247 1338 0
1337 -6041 -1338 0
1337 6894 -1247 0
1338 1339 1340 -1341 1342 0
-1338 -1342 0
-1338 -1339 0
-1338 1341 0
-1338 -1340 0
-1339 -7732 18 0
-1339 -7734 22 0
-1339 -7732 -7734 0
-1339 18 22 0
1339 7732 -22 0
1339 7734 -18 0
-1340 -7730 20 0
-1340 -7728 23 0
-1340 -7728 -7730 0
-1340 20 23 0
1340 7730 -23 0
1340 7728 -20 0
1341 -7735 25 0
1341 -7733 -29 0
1341 -7733 -7735 0
1341 25 -29 0
-1341 7735 29 0
-1341 7733 -25 0
-1342 -7731 27 0
-1342 -7729 30 0
-1342 -7729 -7731 0
-1342 27 30 0
1342 7731 -30 0
1342 7729 -27 0
-1343 6041 1247 0
-1343 -6895 1344 0
-1343 6041 -6895 0
-1343 1247 1344 0
1343 -6041 -1344 0
1343 6895 -1247 0
1344 1345 1346 -1347 1348 0
-1344 -1348 0
-1344 -1345 0
-1344 1347 0
-1344 -1346 0
-1345 -7738 20 0
-1345 -7736 23 0
-1345 -7736 -7738 0
-1345 20 23 0
1345 7738 -23 0
1345 7736 -20 0
-1346 -7740 18 0
-1346 -7742 22 0
-1346 -7740 -7742 0
-1346 18 22 0
1346 7740 -22 0
1346 7742 -18 0
1347 -7739 -29 0
1347 -7743 30 0
1347 -7739 -7743 0
1347 -29 30 0
-1347 7739 -30 0
-1347 7743 29 0
-1348 -7737 25 0
-1348 -7741 27 0
-1348 -7737 -7741 0
-1348 25 27 0
1348 7737 -27 0
1348 7741 -25 0
-1349 6041 1247 0
-1349 -6896 1350 0
-1349 6041 -6896 0
-1349 1247 1350 0
1349 -6041 -1350 0
1349 6896 -1247 0
1350 1351 1352 -1353 1354 0
-1350 -1354 0
-1350 -1351 0
-1350 1353 0
-1350 -1352 0
-1351 -7748 18 0
-1351 -7750 22 0
-1351 -7748 -7750 0
-1351 18 22 0
1351 7748 -22 0
1351 7750 -18 0
-1352 -7746 20 0
-1352 -7744 23 0
-1352 -7744 -7746 0
-1352 20 23 0
1352 7746 -23 0
1352 7744 -20 0
1353 -7751 25 0
1353 -7749 -29 0
1353 -7749 -7751 0
1353 25 -29 0
-1353 7751 29 0
-1353 7749 -25 0
-1354 -7747 27 0
-1354 -7745 30 0
-1354 -7745 -7747 0
-1354 27 30 0
1354 7747 -30 0
1354 7745 -27 0
-1355 6041 1247 0
-1355 -6897 1356 0
-1355 6041 -6897 0
-1355 1247 1356 0
1355 -6041 -1356 0
1355 6897 -1247 0
1356 1357 1358 1359 -1360 0
-1356 1360 0
-1356 -1357 0
-1356 -1359 0
-1356 -1358 0
-1357 -7754 20 0
-1357 -7752 23 0
-1357 -7752 -7754 0
-1357 20 23 0
1357 7754 -23 0
1357 7752 -20 0
-1358 -7756 18 0
-1358 -7758 22 0
-1358 -7756 -7758 0
-1358 18 22 0
1358 7756 -22 0
1358 7758 -18 0
-1359 -7753 25 0
-1359 -7757 27 0
-1359 -7753 -7757 0
-1359 25 27 0
1359 7753 -27 0
1359 7757 -25 0
1360 -7755 -29 0
1360 -7759 30 0
1360 -7755 -7759 0
1360 -29 30 0
-1360 7755 -30 0
-1360 7759 29 0
-1361 6041 1247 0
-1361 -6898 1362 0
-1361 6041 -6898 0
-1361 1247 1362 0
1361 -6041 -1362 0
1361 6898 -1247 0
1362 1363 1364 1365 -1366 0
-1362 1366 0
-1362 -1363 0
-1362 -1365 0
-1362 -1364 0
-1363 -7760 18 0
-1363 -7766 20 0
-1363 -7760 -7766 0
-1363 18 20 0
1363 7760 -20 0
1363 7766 -18 0
-1364 -7762 22 0
-1364 -7764 23 0
-1364 -7762 -7764 0
-1364 22 23 0
1364 7762 -23 0
1364 7764 -22 0
-1365 -7761 25 0
-1365 -7765 27 0
-1365 -7761 -7765 0
-1365 25 27 0
1365 7761 -27 0
1365 7765 -25 0
1366 -7763 -29 0
1366 -7767 30 0
1366 -7763 -7767 0
1366 -29 30 0
-1366 7763 -30 0
-1366 7767 29 0
-1367 6041 1247 0
-1367 -6899 1368 0
-1367 6041 -6899 0
-1367 1247 1368 0
1367 -6041 -1368 0
1367 6899 -1247 0
1368 1369 1370 1371 -1372 0
-1368 1372 0
-1368 -1369 0
-1368 -1371 0
-1368 -1370 0
-1369 -7772 20 0
-1369 -7768 22 0
-1369 -7768 -7772 0
-1369 20 22 0
1369 7772 -22 0
1369 7768 -20 0
-1370 -7770 18 0
-1370 -7774 23 0
-1370 -7770 -7774 0
-1370 18 23 0
1370 7770 -23 0
1370 7774 -18 0
-1371 -7771 27 0
-1371 -7769 30 0
-1371 -7769 -7771 0
-1371 27 30 0
1371 7771 -30 0
1371 7769 -27 0
1372 -7775 25 0
1372 -7773 -29 0
1372 -7773 -7775 0
1372 25 -29 0
-1372 7775 29 0
-1372 7773 -25 0
-1373 6041 1247 0
-1373 -6900 1374 0
-1373 6041 -6900 0
-1373 1247 1374 0
1373 -6041 -1374 0
1373 6900 -1247 0
1374 1375 1376 -1377 1378 0
-1374 -1378 0
-1374 -1375 0
-1374 1377 0
-1374 -1376 0
-1375 -7778 20 0
-1375 -7776 23 0
-1375 -7776 -7778 0
-1375 20 23 0
1375 7778 -23 0
1375 7776 -20 0
-1376 -7780 18 0
-1376 -7782 22 0
-1376 -7780 -7782 0
-1376 18 22 0
1376 7780 -22 0
1376 7782 -18 0
1377 -7779 -29 0
1377 -7783 30 0
1377 -7779 -7783 0
1377 -29 30 0
-1377 7779 -30 0
-1377 7783 29 0
-1378 -7777 25 0
-1378 -7781 27 0
-1378 -7777 -7781 0
-1378 25 27 0
1378 7777 -27 0
1378 7781 -25 0
-1379 6041 1247 0
-1379 -6901 1380 0
-1379 6041 -6901 0
-1379 1247 1380 0
1379 -6041 -1380 0
1379 6901 -1247 0
1380 1381 1382 -1383 1384 0
-1380 -1384 0
-1380 -1381 0
-1380 1383 0
-1380 -1382 0
-1381 -7786 20 0
-1381 -7784 23 0
-1381 -7784 -7786 0
-1381 20 23 0
1381 7786 -23 0
1381 7784 -20 0
-1382 -7788 18 0
-1382 -7790 22 0
-1382 -7788 -7790 0
-1382 18 22 0
1382 7788 -22 0
1382 7790 -18 0
1383 -7791 27 0
1383 -7785 -29 0
1383 -7785 -7791 0
1383 27 -29 0
-1383 7791 29 0
-1383 7785 -27 0
-1384 -7787 25 0
-1384 -7789 30 0
-1384 -7787 -7789 0
-1384 25 30 0
1384 7787 -30 0
1384 7789 -25 0
-1385 6041 1247 0
-1385 -6902 1386 0
-1385 6041 -6902 0
-1385 1247 1386 0
1385 -6041 -1386 0
1385 6902 -1247 0
1386 1387 1388 1389 -1390 0
-1386 1390 0
-1386 -1387 0
-1386 -1389 0
-1386 -1388 0
-1387 -7794 20 0
-1387 -7792 23 0
-1387 -7792 -7794 0
-1387 20 23 0
1387 7794 -23 0
1387 7792 -20 0
-1388 -7796 18 0
-1388 -7798 22 0
-1388 -7796 -7798 0
-1388 18 22 0
1388 7796 -22 0
1388 7798 -18 0
-1389 -7793 25 0
-1389 -7797 27 0
-1389 -7793 -7797 0
-1389 25 27 0
1389 7793 -27 0
1389 7797 -25 0
1390 -7795 -29 0
1390 -7799 30 0
1390 -7795 -7799 0
1390 -29 30 0
-1390 7795 -30 0
-1390 7799 29 0
-1391 6041 1247 0
-1391 -6903 1392 0
-1391 6041 -6903 0
-1391 1247 1392 0
1391 -6041 -1392 0
1391 6903 -1247 0
1392 1393 1394 -1395 1396 0
-1392 -1396 0
-1392 -1393 0
-1392 1395 0
-1392 -1394 0
-1393 -7802 20 0
-1393 -7800 23 0
-1393 -7800 -7802 0
-1393 20 23 0
1393 7802 -23 0
1393 7800 -20 0
-1394 -7804 18 0
-1394 -7806 22 0
-1394 -7804 -7806 0
-1394 18 22 0
1394 7804 -22 0
1394 7806 -18 0
1395 -7803 -29 0
1395 -7807 30 0
1395 -7803 -7807 0
1395 -29 30 0
-1395 7803 -30 0
-1395 7807 29 0
-1396 -7801 25 0
-1396 -7805 27 0
-1396 -7801 -7805 0
-1396 25 27 0
1396 7801 -27 0
1396 7805 -25 0
-1397 6041 1247 0
-1397 -6904 1398 0
-1397 6041 -6904 0
-1397 1247 1398 0
1397 -6041 -1398 0
1397 6904 -1247 0
1398 1399 1400 1401 -1402 0
-1398 1402 0
-1398 -1399 0
-1398 -1401 0
-1398 -1400 0
-1399 -7810 22 0
-1399 -7812 23 0
-1399 -7810 -7812 0
-1399 22 23 0
1399 7810 -23 0
1399 7812 -22 0
-1400 -7808 18 0
-1400 -7814 20 0
-1400 -7808 -7814 0
-1400 18 20 0
1400 7808 -20 0
1400 7814 -18 0
-1401 -7811 25 0
-1401 -7813 30 0
-1401 -7811 -7813 0
-1401 25 30 0
1401 7811 -30 0
1401 7813 -25 0
1402 -7815 27 0
1402 -7809 -29 0
1402 -7809 -7815 0
1402 27 -29 0
-1402 7815 29 0
-1402 7809 -27 0
-1403 6041 1247 0
-1403 -6905 1404 0
-1403 6041 -6905 0
-1403 1247 1404 0
1403 -6041 -1404 0
1403 6905 -1247 0
1404 1405 1406 -1407 1408 0
-1404 -1408 0
-1404 -1405 0
-1404 1407 0
-1404 -1406 0
-1405 -7820 18 0
-1405 -7822 22 0
-1405 -7820 -7822 0
-1405 18 22 0
1405 7820 -22 0
1405 7822 -18 0
-1406 -7818 20 0
-1406 -7816 23 0
-1406 -7816 -7818 0
-1406 20 23 0
1406 7818 -23 0
1406 7816 -20 0
1407 -7819 -29 0
1407 -7823 30 0
1407 -7819 -7823 0
1407 -29 30 0
-1407 7819 -30 0
-1407 7823 29 0
-1408 -7817 25 0
-1408 -7821 27 0
-1408 -7817 -7821 0
-1408 25 27 0
1408 7817 -27 0
1408 7821 -25 0
-1409 6041 1247 0
-1409 -6906 1410 0
-1409 6041 -6906 0
-1409 1247 1410 0
1409 -6041 -1410 0
1409 6906 -1247 0
1410 1411 1412 -1413 1414 0
-1410 -1414 0
-1410 -1411 0
-1410 1413 0
-1410 -1412 0
-1411 -7828 18 0
-1411 -7830 22 0
-1411 -7828 -7830 0
-1411 18 22 0
1411 7828 -22 0
1411 7830 -18 0
-1412 -7826 20 0
-1412 -7824 23 0
-1412 -7824 -7826 0
-1412 20 23 0
1412 7826 -23 0
1412 7824 -20 0
1413 -7827 -29 0
1413 -7831 30 0
1413 -7827 -7831 0
1413 -29 30 0
-1413 7827 -30 0
-1413 7831 29 0
-1414 -7825 25 0
-1414 -7829 27 0
-1414 -7825 -7829 0
-1414 25 27 0
1414 7825 -27 0
1414 7829 -25 0
-1415 6041 1247 0
-1415 -6907 1416 0
-1415 6041 -6907 0
-1415 1247 1416 0
1415 -6041 -1416 0
1415 6907 -1247 0
1416 1417 1418 -1419 1420 0
-1416 -1420 0
-1416 -1417 0
-1416 1419 0
-1416 -1418 0
-1417 -7836 20 0
-1417 -7832 22 0
-1417 -7832 -7836 0
-1417 20 22 0
1417 7836 -22 0
1417 7832 -20 0
-1418 -7834 18 0
-1418 -7838 23 0
-1418 -7834 -7838 0
-1418 18 23 0
1418 7834 -23 0
1418 7838 -18 0
1419 -7835 -29 0
1419 -7839 30 0
1419 -7835 -7839 0
1419 -29 30 0
-1419 7835 -30 0
-1419 7839 29 0
-1420 -7833 25 0
-1420 -7837 27 0
-1420 -7833 -7837 0
-1420 25 27 0
1420 7833 -27 0
1420 7837 -25 0
-1421 6041 1247 0
-1421 -6908 1422 0
-1421 6041 -6908 0
-1421 1247 1422 0
1421 -6041 -1422 0
1421 6908 -1247 0
1422 1423 1424 -1425 1426 0
-1422 -1426 0
-1422 -1423 0
-1422 1425 0
-1422 -1424 0
-1423 -7840 18 0
-1423 -7846 20 0
-1423 -7840 -7846 0
-1423 18 20 0
1423 7840 -20 0
1423 7846 -18 0
-1424 -7842 22 0
-1424 -7844 23 0
-1424 -7842 -7844 0
-1424 22 23 0
1424 7842 -23 0
1424 7844 -22 0
1425 -7847 25 0
1425 -7845 -29 0
1425 -7845 -7847 0
1425 25 -29 0
-1425 7847 29 0
-1425 7845 -25 0
-1426 -7843 27 0
-1426 -7841 30 0
-1426 -7841 -7843 0
-1426 27 30 0
1426 7843 -30 0
1426 7841 -27 0
-1427 6041 1247 0
-1427 -6909 1428 0
-1427 6041 -6909 0
-1427 1247 1428 0
1427 -6041 -1428 0
1427 6909 -1247 0
1428 1429 1430 -1431 1432 0
-1428 -1432 0
-1428 -1429 0
-1428 1431 0
-1428 -1430 0
-1429 -7852 20 0
-1429 -7848 22 0
-1429 -7848 -7852 0
-1429 20 22 0
1429 7852 -22 0
1429 7848 -20 0
-1430 -7850 18 0
-1430 -7854 23 0
-1430 -7850 -7854 0
-1430 18 23 0
1430 7850 -23 0
1430 7854 -18 0
1431 -7851 -29 0
1431 -7855 30 0
1431 -7851 -7855 0
1431 -29 30 0
-1431 7851 -30 0
-1431 7855 29 0
-1432 -7849 25 0
-1432 -7853 27 0
-1432 -7849 -7853 0
-1432 25 27 0
1432 7849 -27 0
1432 7853 -25 0
-1433 6041 1247 0
-1433 -6910 1434 0
-1433 6041 -6910 0
-1433 1247 1434 0
1433 -6041 -1434 0
1433 6910 -1247 0
1434 1435 1436 -1437 1438 0
-1434 -1438 0
-1434 -1435 0
-1434 1437 0
-1434 -1436 0
-1435 -7860 18 0
-1435 -7862 22 0
-1435 -7860 -7862 0
-1435 18 22 0
1435 7860 -22 0
1435 7862 -18 0
-1436 -7858 20 0
-1436 -7856 23 0
-1436 -7856 -7858 0
-1436 20 23 0
1436 7858 -23 0
1436 7856 -20 0
1437 -7859 -29 0
1437 -7863 30 0
1437 -7859 -7863 0
1437 -29 30 0
-1437 7859 -30 0
-1437 7863 29 0
-1438 -7857 25 0
-1438 -7861 27 0
-1438 -7857 -7861 0
-1438 25 27 0
1438 7857 -27 0
1438 7861 -25 0
-1439 6041 1247 0
-1439 -6911 1440 0
-1439 6041 -6911 0
-1439 1247 1440 0
1439 -6041 -1440 0
1439 6911 -1247 0
1440 1441 1442 -1443 1444 0
-1440 -1444 0
-1440 -1441 0
-1440 1443 0
-1440 -1442 0
-1441 -7866 20 0
-1441 -7864 23 0
-1441 -7864 -7866 0
-1441 20 23 0
1441 7866 -23 0
1441 7864 -20 0
-1442 -7868 18 0
-1442 -7870 22 0
-1442 -7868 -7870 0
-1442 18 22 0
1442 7868 -22 0
1442 7870 -18 0
1443 -7867 -29 0
1443 -7871 30 0
1443 -7867 -7871 0
1443 -29 30 0
-1443 7867 -30 0
-1443 7871 29 0
-1444 -7865 25 0
-1444 -7869 27 0
-1444 -7865 -7869 0
-1444 25 27 0
1444 7865 -27 0
1444 7869 -25 0
-1445 6041 1247 0
-1445 -6912 1446 0
-1445 6041 -6912 0
-1445 1247 1446 0
1445 -6041 -1446 0
1445 6912 -1247 0
1446 1447 1448 -1449 1450 0
-1446 -1450 0
-1446 -1447 0
-1446 1449 0
-1446 -1448 0
-1447 -7872 18 0
-1447 -7878 20 0
-1447 -7872 -7878 0
-1447 18 20 0
1447 7872 -20 0
1447 7878 -18 0
-1448 -7874 22 0
-1448 -7876 23 0
-1448 -7874 -7876 0
-1448 22 23 0
1448 7874 -23 0
1448 7876 -22 0
1449 -7879 25 0
1449 -7877 -29 0
1449 -7877 -7879 0
1449 25 -29 0
-1449 7879 29 0
-1449 7877 -25 0
-1450 -7875 27 0
-1450 -7873 30 0
-1450 -7873 -7875 0
-1450 27 30 0
1450 7875 -30 0
1450 7873 -27 0
-1451 6041 1247 0
-1451 -6913 1452 0
-1451 6041 -6913 0
-1451 1247 1452 0
1451 -6041 -1452 0
1451 6913 -1247 0
1452 1453 1454 -1455 1456 0
-1452 -1456 0
-1452 -1453 0
-1452 1455 0
-1452 -1454 0
-1453 -7882 22 0
-1453 -7884 23 0
-1453 -7882 -7884 0
-1453 22 23 0
1453 7882 -23 0
1453 7884 -22 0
-1454 -7880 18 0
-1454 -7886 20 0
-1454 -7880 -7886 0
-1454 18 20 0
1454 7880 -20 0
1454 7886 -18 0
1455 -7887 27 0
1455 -7881 -29 0
1455 -7881 -7887 0
1455 27 -29 0
-1455 7887 29 0
-1455 7881 -27 0
-1456 -7883 25 0
-1456 -7885 30 0
-1456 -7883 -7885 0
-1456 25 30 0
1456 7883 -30 0
1456 7885 -25 0
-1457 6041 1247 0
-1457 -6914 1458 0
-1457 6041 -6914 0
-1457 1247 1458 0
1457 -6041 -1458 0
1457 6914 -1247 0
1458 1459 1460 1461 -1462 0
-1458 1462 0
-1458 -1459 0
-1458 -1461 0
-1458 -1460 0
-1459 -7888 18 0
-1459 -7894 20 0
-1459 -7888 -7894 0
-1459 18 20 0
1459 7888 -20 0
1459 7894 -18 0
-1460 -7890 22 0
-1460 -7892 23 0
-1460 -7890 -7892 0
-1460 22 23 0
1460 7890 -23 0
1460 7892 -22 0
-1461 -7889 25 0
-1461 -7893 27 0
-1461 -7889 -7893 0
-1461 25 27 0
1461 7889 -27 0
1461 7893 -25 0
1462 -7891 -29 0
1462 -7895 30 0
1462 -7891 -7895 0
1462 -29 30 0
-1462 7891 -30 0
-1462 7895 29 0
-1463 6041 1247 0
-1463 -6915 1464 0
-1463 6041 -6915 0
-1463 1247 1464 0
1463 -6041 -1464 0
1463 6915 -1247 0
1464 1465 1466 -1467 1468 0
-1464 -1468 0
-1464 -1465 0
-1464 1467 0
-1464 -1466 0
-1465 -7898 18 0
-1465 -7902 23 0
-1465 -7898 -7902 0
-1465 18 23 0
1465 7898 -23 0
1465 7902 -18 0
-1466 -7900 20 0
-1466 -7896 22 0
-1466 -7896 -7900 0
-1466 20 22 0
1466 7900 -22 0
1466 7896 -20 0
1467 -7899 -29 0
1467 -7903 30 0
1467 -7899 -7903 0
1467 -29 30 0
-1467 7899 -30 0
-1467 7903 29 0
-1468 -7897 25 0
-1468 -7901 27 0
-1468 -7897 -7901 0
-1468 25 27 0
1468 7897 -27 0
1468 7901 -25 0
-1469 6041 1247 0
-1469 -6916 1470 0
-1469 6041 -6916 0
-1469 1247 1470 0
1469 -6041 -1470 0
1469 6916 -1247 0
1470 1471 1472 -1473 1474 0
-1470 -1474 0
-1470 -1471 0
-1470 1473 0
-1470 -1472 0
-1471 -7906 20 0
-1471 -7904 23 0
-1471 -7904 -7906 0
-1471 20 23 0
1471 7906 -23 0
1471 7904 -20 0
-1472 -7908 18 0
-1472 -7910 22 0
-1472 -7908 -7910 0
-1472 18 22 0
1472 7908 -22 0
1472 7910 -18 0
1473 -7911 25 0
1473 -7909 -29 0
1473 -7909 -7911 0
1473 25 -29 0
-1473 7911 29 0
-1473 7909 -25 0
-1474 -7907 27 0
-1474 -7905 30 0
-1474 -7905 -7907 0
-1474 27 30 0
1474 7907 -30 0
1474 7905 -27 0
-1475 6041 1247 0
-1475 -6917 1476 0
-1475 6041 -6917 0
-1475 1247 1476 0
1475 -6041 -1476 0
1475 6917 -1247 0
1476 1477 1478 -1479 1480 0
-1476 -1480 0
-1476 -1477 0
-1476 1479 0
-1476 -1478 0
-1477 -7914 20 0
-1477 -7912 23 0
-1477 -7912 -7914 0
-1477 20 23 0
1477 7914 -23 0
1477 7912 -20 0
-1478 -7916 18 0
-1478 -7918 22 0
-1478 -7916 -7918 0
-1478 18 22 0
1478 7916 -22 0
1478 7918 -18 0
1479 -7915 -29 0
1479 -7919 30 0
1479 -7915 -7919 0
1479 -29 30 0
-1479 7915 -30 0
-1479 7919 29 0
-1480 -7913 25 0
-1480 -7917 27 0
-1480 -7913 -7917 0
-1480 25 27 0
1480 7913 -27 0
1480 7917 -25 0
-1481 6041 1247 0
-1481 -6918 1482 0
-1481 6041 -6918 0
-1481 1247 1482 0
1481 -6041 -1482 0
1481 6918 -1247 0
1482 1483 1484 -1485 1486 0
-1482 -1486 0
-1482 -1483 0
-1482 1485 0
-1482 -1484 0
-1483 -7924 18 0
-1483 -7926 22 0
-1483 -7924 -7926 0
-1483 18 22 0
1483 7924 -22 0
1483 7926 -18 0
-1484 -7922 20 0
-1484 -7920 23 0
-1484 -7920 -7922 0
-1484 20 23 0
1484 7922 -23 0
1484 7920 -20 0
1485 -7923 -29 0
1485 -7927 30 0
1485 -7923 -7927 0
1485 -29 30 0
-1485 7923 -30 0
-1485 7927 29 0
-1486 -7921 25 0
-1486 -7925 27 0
-1486 -7921 -7925 0
-1486 25 27 0
1486 7921 -27 0
1486 7925 -25 0
-1487 6041 1247 0
-1487 -6919 1488 0
-1487 6041 -6919 0
-1487 1247 1488 0
1487 -6041 -1488 0
1487 6919 -1247 0
1488 1489 1490 1491 -1492 0
-1488 1492 0
-1488 -1489 0
-1488 -1491 0
-1488 -1490 0
-1489 -7932 20 0
-1489 -7928 22 0
-1489 -7928 -7932 0
-1489 20 22 0
1489 7932 -22 0
1489 7928 -20 0
-1490 -7930 18 0
-1490 -7934 23 0
-1490 -7930 -7934 0
-1490 18 23 0
1490 7930 -23 0
1490 7934 -18 0
-1491 -7931 25 0
-1491 -7933 30 0
-1491 -7931 -7933 0
-1491 25 30 0
1491 7931 -30 0
1491 7933 -25 0
1492 -7935 27 0
1492 -7929 -29 0
1492 -7929 -7935 0
1492 27 -29 0
-1492 7935 29 0
-1492 7929 -27 0
-1493 6041 1247 0
-1493 -6920 1494 0
-1493 6041 -6920 0
-1493 1247 1494 0
1493 -6041 -1494 0
1493 6920 -1247 0
1494 1495 1496 -1497 1498 0
-1494 -1498 0
-1494 -1495 0
-1494 1497 0
-1494 -1496 0
-1495 -7938 18 0
-1495 -7942 23 0
-1495 -7938 -7942 0
-1495 18 23 0
1495 7938 -23 0
1495 7942 -18 0
-1496 -7940 20 0
-1496 -7936 22 0
-1496 -7936 -7940 0
-1496 20 22 0
1496 7940 -22 0
1496 7936 -20 0
1497 -7943 27 0
1497 -7937 -29 0
1497 -7937 -7943 0
1497 27 -29 0
-1497 7943 29 0
-1497 7937 -27 0
-1498 -7939 25 0
-1498 -7941 30 0
-1498 -7939 -7941 0
-1498 25 30 0
1498 7939 -30 0
1498 7941 -25 0
-1499 6041 1247 0
-1499 -6921 1500 0
-1499 6041 -6921 0
-1499 1247 1500 0
1499 -6041 -1500 0
1499 6921 -1247 0
1500 1501 1502 1503 -1504 0
-1500 1504 0
-1500 -1501 0
-1500 -1503 0
-1500 -1502 0
-1501 -7948 20 0
-1501 -7944 22 0
-1501 -7944 -7948 0
-1501 20 22 0
1501 7948 -22 0
1501 7944 -20 0
-1502 -7946 18 0
-1502 -7950 23 0
-1502 -7946 -7950 0
-1502 18 23 0
1502 7946 -23 0
1502 7950 -18 0
-1503 -7947 25 0
-1503 -7949 30 0
-1503 -7947 -7949 0
-1503 25 30 0
1503 7947 -30 0
1503 7949 -25 0
1504 -7951 27 0
1504 -7945 -29 0
1504 -7945 -7951 0
1504 27 -29 0
-1504 7951 29 0
-1504 7945 -27 0
-1505 6041 1247 0
-1505 -6922 1506 0
-1505 6041 -6922 0
-1505 1247 1506 0
1505 -6041 -1506 0
1505 6922 -1247 0
1506 1507 1508 -1509 1510 0
-1506 -1510 0
-1506 -1507 0
-1506 1509 0
-1506 -1508 0
-1507 -7952 18 0
-1507 -7958 20 0
-1507 -7952 -7958 0
-1507 18 20 0
1507 7952 -20 0
1507 7958 -18 0
-1508 -7954 22 0
-1508 -7956 23 0
-1508 -7954 -7956 0
-1508 22 23 0
1508 7954 -23 0
1508 7956 -22 0
1509 -7959 25 0
1509 -7957 -29 0
1509 -7957 -7959 0
1509 25 -29 0
-1509 7959 29 0
-1509 7957 -25 0
-1510 -7955 27 0
-1510 -7953 30 0
-1510 -7953 -7955 0
-1510 27 30 0
1510 7955 -30 0
1510 7953 -27 0
-1511 6041 1247 0
-1511 -6923 1512 0
-1511 6041 -6923 0
-1511 1247 1512 0
1511 -6041 -1512 0
1511 6923 -1247 0
1512 1513 1514 1515 -1516 0
-1512 1516 0
-1512 -1513 0
-1512 -1515 0
-1512 -1514 0
-1513 -7962 18 0
-1513 -7966 23 0
-1513 -7962 -7966 0
-1513 18 23 0
1513 7962 -23 0
1513 7966 -18 0
-1514 -7964 20 0
-1514 -7960 22 0
-1514 -7960 -7964 0
-1514 20 22 0
1514 7964 -22 0
1514 7960 -20 0
-1515 -7963 25 0
-1515 -7965 30 0
-1515 -7963 -7965 0
-1515 25 30 0
1515 7963 -30 0
1515 7965 -25 0
1516 -7967 27 0
1516 -7961 -29 0
1516 -7961 -7967 0
1516 27 -29 0
-1516 7967 29 0
-1516 7961 -27 0
-1517 6041 1247 0
-1517 -6924 1518 0
-1517 6041 -6924 0
-1517 1247 1518 0
1517 -6041 -1518 0
1517 6924 -1247 0
1518 1519 1520 1521 -1522 0
-1518 1522 0
-1518 -1519 0
-1518 -1521 0
-1518 -1520 0
-1519 -7970 20 0
-1519 -7968 23 0
-1519 -7968 -7970 0
-1519 20 23 0
1519 7970 -23 0
1519 7968 -20 0
-1520 -7972 18 0
-1520 -7974 22 0
-1520 -7972 -7974 0
-1520 18 22 0
1520 7972 -22 0
1520 7974 -18 0
-1521 -7969 25 0
-1521 -7973 27 0
-1521 -7969 -7973 0
-1521 25 27 0
1521 7969 -27 0
1521 7973 -25 0
1522 -7971 -29 0
1522 -7975 30 0
1522 -7971 -7975 0
1522 -29 30 0
-1522 7971 -30 0
-1522 7975 29 0
-1523 6041 1247 0
-1523 -6925 1524 0
-1523 6041 -6925 0
-1523 1247 1524 0
1523 -6041 -1524 0
1523 6925 -1247 0
1524 1525 1526 1527 -1528 0
-1524 1528 0
-1524 -1525 0
-1524 -1527 0
-1524 -1526 0
-1525 -7976 18 0
-1525 -7982 20 0
-1525 -7976 -7982 0
-1525 18 20 0
1525 7976 -20 0
1525 7982 -18 0
-1526 -7978 22 0
-1526 -7980 23 0
-1526 -7978 -7980 0
-1526 22 23 0
1526 7978 -23 0
1526 7980 -22 0
-1527 -7977 25 0
-1527 -7981 27 0
-1527 -7977 -7981 0
-1527 25 27 0
1527 7977 -27 0
1527 7981 -25 0
1528 -7979 -29 0
1528 -7983 30 0
1528 -7979 -7983 0
1528 -29 30 0
-1528 7979 -30 0
-1528 7983 29 0
-1529 6041 1247 0
-1529 -6926 1530 0
-1529 6041 -6926 0
-1529 1247 1530 0
1529 -6041 -1530 0
1529 6926 -1247 0
1530 1531 1532 1533 -1534 0
-1530 1534 0
-1530 -1531 0
-1530 -1533 0
-1530 -1532 0
-1531 -7988 20 0
-1531 -7984 22 0
-1531 -7984 -7988 0
-1531 20 22 0
1531 7988 -22 0
1531 7984 -20 0
-1532 -7986 18 0
-1532 -7990 23 0
-1532 -7986 -7990 0
-1532 18 23 0
1532 7986 -23 0
1532 7990 -18 0
-1533 -7987 27 0
-1533 -7985 30 0
-1533 -7985 -7987 0
-1533 27 30 0
1533 7987 -30 0
1533 7985 -27 0
1534 -7991 25 0
1534 -7989 -29 0
1534 -7989 -7991 0
1534 25 -29 0
-1534 7991 29 0
-1534 7989 -25 0
-1535 6041 1247 0
-1535 -6927 1536 0
-1535 6041 -6927 0
-1535 1247 1536 0
1535 -6041 -1536 0
1535 6927 -1247 0
1536 1537 1538 -1539 1540 0
-1536 -1540 0
-1536 -1537 0
-1536 1539 0
-1536 -1538 0
-1537 -7996 18 0
-1537 -7998 22 0
-1537 -7996 -7998 0
-1537 18 22 0
1537 7996 -22 0
1537 7998 -18 0
-1538 -7994 20 0
-1538 -7992 23 0
-1538 -7992 -7994 0
-1538 20 23 0
1538 7994 -23 0
1538 7992 -20 0
1539 -7999 27 0
1539 -7993 -29 0
1539 -7993 -7999 0
1539 27 -29 0
-1539 7999 29 0
-1539 7993 -27 0
-1540 -7995 25 0
-1540 -7997 30 0
-1540 -7995 -7997 0
-1540 25 30 0
1540 7995 -30 0
1540 7997 -25 0
-1541 6041 1247 0
-1541 -6928 1542 0
-1541 6041 -6928 0
-1541 1247 1542 0
1541 -6041 -1542 0
1541 6928 -1247 0
1542 1543 1544 -1545 1546 0
-1542 -1546 0
-1542 -1543 0
-1542 1545 0
-1542 -1544 0
-1543 -8004 18 0
-1543 -8006 22 0
-1543 -8004 -8006 0
-1543 18 22 0
1543 8004 -22 0
1543 8006 -18 0
-1544 -8002 20 0
-1544 -8000 23 0
-1544 -8000 -8002 0
-1544 20 23 0
1544 8002 -23 0
1544 8000 -20 0
1545 -8007 25 0
1545 -8005 -29 0
1545 -8005 -8007 0
1545 25 -29 0
-1545 8007 29 0
-1545 8005 -25 0
-1546 -8003 27 0
-1546 -8001 30 0
-1546 -8001 -8003 0
-1546 27 30 0
1546 8003 -30 0
1546 8001 -27 0
-1547 6041 1247 0
-1547 -6929 1548 0
-1547 6041 -6929 0
-1547 1247 1548 0
1547 -6041 -1548 0
1547 6929 -1247 0
1548 1549 1550 -1551 1552 0
-1548 -1552 0
-1548 -1549 0
-1548 1551 0
-1548 -1550 0
-1549 -8010 18 0
-1549 -8014 23 0
-1549 -8010 -8014 0
-1549 18 23 0
1549 8010 -23 0
1549 8014 -18 0
-1550 -8012 20 0
-1550 -8008 22 0
-1550 -8008 -8012 0
-1550 20 22 0
1550 8012 -22 0
1550 8008 -20 0
1551 -8011 -29 0
1551 -8015 30 0
1551 -8011 -8015 0
1551 -29 30 0
-1551 8011 -30 0
-1551 8015 29 0
-1552 -8009 25 0
-1552 -8013 27 0
-1552 -8009 -8013 0
-1552 25 27 0
1552 8009 -27 0
1552 8013 -25 0
-1553 6041 1247 0
-1553 -6930 1554 0
-1553 6041 -6930 0
-1553 1247 1554 0
1553 -6041 -1554 0
1553 6930 -1247 0
1554 1555 1556 1557 -1558 0
-1554 1558 0
-1554 -1555 0
-1554 -1557 0
-1554 -1556 0
-1555 -8020 18 0
-1555 -8022 22 0
-1555 -8020 -8022 0
-1555 18 22 0
1555 8020 -22 0
1555 8022 -18 0
-1556 -8018 20 0
-1556 -8016 23 0
-1556 -8016 -8018 0
-1556 20 23 0
1556 8018 -23 0
1556 8016 -20 0
-1557 -8017 25 0
-1557 -8021 27 0
-1557 -8017 -8021 0
-1557 25 27 0
1557 8017 -27 0
1557 8021 -25 0
1558 -8019 -29 0
1558 -8023 30 0
1558 -8019 -8023 0
1558 -29 30 0
-1558 8019 -30 0
-1558 8023 29 0
-1559 6041 1247 0
-1559 -6931 1560 0
-1559 6041 -6931 0
-1559 1247 1560 0
1559 -6041 -1560 0
1559 6931 -1247 0
1560 1561 1562 -1563 1564 0
-1560 -1564 0
-1560 -1561 0
-1560 1563 0
-1560 -1562 0
-1561 -8028 18 0
-1561 -8030 22 0
-1561 -8028 -8030 0
-1561 18 22 0
1561 8028 -22 0
1561 8030 -18 0
-1562 -8026 20 0
-1562 -8024 23 0
-1562 -8024 -8026 0
-1562 20 23 0
1562 8026 -23 0
1562 8024 -20 0
1563 -8027 -29 0
1563 -8031 30 0
1563 -8027 -8031 0
1563 -29 30 0
-1563 8027 -30 0
-1563 8031 29 0
-1564 -8025 25 0
-1564 -8029 27 0
-1564 -8025 -8029 0
-1564 25 27 0
1564 8025 -27 0
1564 8029 -25 0
-1565 6041 1247 0
-1565 -6932 1566 0
-1565 6041 -6932 0
-1565 1247 1566 0
1565 -6041 -1566 0
1565 6932 -1247 0
1566 1567 1568 -1569 1570 0
-1566 -1570 0
-1566 -1567 0
-1566 1569 0
-1566 -1568 0
-1567 -8036 18 0
-1567 -8038 22 0
-1567 -8036 -8038 0
-1567 18 22 0
1567 8036 -22 0
1567 8038 -18 0
-1568 -8034 20 0
-1568 -8032 23 0
-1568 -8032 -8034 0
-1568 20 23 0
1568 8034 -23 0
1568 8032 -20 0
1569 -8039 27 0
1569 -8033 -29 0
1569 -8033 -8039 0
1569 27 -29 0
-1569 8039 29 0
-1569 8033 -27 0
-1570 -8035 25 0
-1570 -8037 30 0
-1570 -8035 -8037 0
-1570 25 30 0
1570 8035 -30 0
1570 8037 -25 0
-1571 6041 1247 0
-1571 -6933 1572 0
-1571 6041 -6933 0
-1571 1247 1572 0
1571 -6041 -1572 0
1571 6933 -1247 0
1572 1573 1574 -1575 1576 0
-1572 -1576 0
-1572 -1573 0
-1572 1575 0
-1572 -1574 0
-1573 -8044 18 0
-1573 -8046 22 0
-1573 -8044 -8046 0
-1573 18 22 0
1573 8044 -22 0
1573 8046 -18 0
-1574 -8042 20 0
-1574 -8040 23 0
-1574 -8040 -8042 0
-1574 20 23 0
1574 8042 -23 0
1574 8040 -20 0
1575 -8047 25 0
1575 -8045 -29 0
1575 -8045 -8047 0
1575 25 -29 0
-1575 8047 29 0
-1575 8045 -25 0
-1576 -8043 27 0
-1576 -8041 30 0
-1576 -8041 -8043 0
-1576 27 30 0
1576 8043 -30 0
1576 8041 -27 0
-1577 6041 1247 0
-1577 -6934 1578 0
-1577 6041 -6934 0
-1577 1247 1578 0
1577 -6041 -1578 0
1577 6934 -1247 0
1578 1579 1580 -1581 1582 0
-1578 -1582 0
-1578 -1579 0
-1578 1581 0
-1578 -1580 0
-1579 -8050 20 0
-1579 -8048 23 0
-1579 -8048 -8050 0
-1579 20 23 0
1579 8050 -23 0
1579 8048 -20 0
-1580 -8052 18 0
-1580 -8054 22 0
-1580 -8052 -8054 0
-1580 18 22 0
1580 8052 -22 0
1580 8054 -18 0
1581 -8051 -29 0
1581 -8055 30 0
1581 -8051 -8055 0
1581 -29 30 0
-1581 8051 -30 0
-1581 8055 29 0
-1582 -8049 25 0
-1582 -8053 27 0
-1582 -8049 -8053 0
-1582 25 27 0
1582 8049 -27 0
1582 8053 -25 0
-1583 6041 1247 0
-1583 -6935 1584 0
-1583 6041 -6935 0
-1583 1247 1584 0
1583 -6041 -1584 0
1583 6935 -1247 0
1584 1585 1586 -1587 1588 0
-1584 -1588 0
-1584 -1585 0
-1584 1587 0
-1584 -1586 0
-1585 -8058 20 0
-1585 -8056 23 0
-1585 -8056 -8058 0
-1585 20 23 0
1585 8058 -23 0
1585 8056 -20 0
-1586 -8060 18 0
-1586 -8062 22 0
-1586 -8060 -8062 0
-1586 18 22 0
1586 8060 -22 0
1586 8062 -18 0
1587 -8063 27 0
1587 -8057 -29 0
1587 -8057 -8063 0
1587 27 -29 0
-1587 8063 29 0
-1587 8057 -27 0
-1588 -8059 25 0
-1588 -8061 30 0
-1588 -8059 -8061 0
-1588 25 30 0
1588 8059 -30 0
1588 8061 -25 0
-1589 6041 1247 0
-1589 -6936 1590 0
-1589 6041 -6936 0
-1589 1247 1590 0
1589 -6041 -1590 0
1589 6936 -1247 0
1590 1591 1592 -1593 1594 0
-1590 -1594 0
-1590 -1591 0
-1590 1593 0
-1590 -1592 0
-1591 -8068 20 0
-1591 -8064 22 0
-1591 -8064 -8068 0
-1591 20 22 0
1591 8068 -22 0
1591 8064 -20 0
-1592 -8066 18 0
-1592 -8070 23 0
-1592 -8066 -8070 0
-1592 18 23 0
1592 8066 -23 0
1592 8070 -18 0
1593 -8067 -29 0
1593 -8071 30 0
1593 -8067 -8071 0
1593 -29 30 0
-1593 8067 -30 0
-1593 8071 29 0
-1594 -8065 25 0
-1594 -8069 27 0
-1594 -8065 -8069 0
-1594 25 27 0
1594 8065 -27 0
1594 8069 -25 0
-1595 6041 1247 0
-1595 -6937 1596 0
-1595 6041 -6937 0
-1595 1247 1596 0
1595 -6041 -1596 0
1595 6937 -1247 0
1596 1597 1598 1599 -1600 0
-1596 1600 0
-1596 -1597 0
-1596 -1599 0
-1596 -1598 0
-1597 -8076 20 0
-1597 -8072 22 0
-1597 -8072 -8076 0
-1597 20 22 0
1597 8076 -22 0
1597 8072 -20 0
-1598 -8074 18 0
-1598 -8078 23 0
-1598 -8074 -8078 0
-1598 18 23 0
1598 8074 -23 0
1598 8078 -18 0
-1599 -8075 27 0
-1599 -8073 30 0
-1599 -8073 -8075 0
-1599 27 30 0
1599 8075 -30 0
1599 8073 -27 0
1600 -8079 25 0
1600 -8077 -29 0
1600 -8077 -8079 0
1600 25 -29 0
-1600 8079 29 0
-1600 8077 -25 0
-1601 6041 1247 0
-1601 -6938 1602 0
-1601 6041 -6938 0
-1601 1247 1602 0
1601 -6041 -1602 0
1601 6938 -1247 0
1602 1603 1604 -1605 1606 0
-1602 -1606 0
-1602 -1603 0
-1602 1605 0
-1602 -1604 0
-1603 -8082 18 0
-1603 -8086 23 0
-1603 -8082 -8086 0
-1603 18 23 0
1603 8082 -23 0
1603 8086 -18 0
-1604 -8084 20 0
-1604 -8080 22 0
-1604 -8080 -8084 0
-1604 20 22 0
1604 8084 -22 0
1604 8080 -20 0
1605 -8083 -29 0
1605 -8087 30 0
1605 -8083 -8087 0
1605 -29 30 0
-1605 8083 -30 0
-1605 8087 29 0
-1606 -8081 25 0
-1606 -8085 27 0
-1606 -8081 -8085 0
-1606 25 27 0
1606 8081 -27 0
1606 8085 -25 0
-1607 6041 1247 0
-1607 -6939 1608 0
-1607 6041 -6939 0
-1607 1247 1608 0
1607 -6041 -1608 0
1607 6939 -1247 0
1608 1609 1610 1611 -1612 0
-1608 1612 0
-1608 -1609 0
-1608 -1611 0
-1608 -1610 0
-1609 -8092 20 0
-1609 -8088 22 0
-1609 -8088 -8092 0
-1609 20 22 0
1609 8092 -22 0
1609 8088 -20 0
-1610 -8090 18 0
-1610 -8094 23 0
-1610 -8090 -8094 0
-1610 18 23 0
1610 8090 -23 0
1610 8094 -18 0
-1611 -8091 27 0
-1611 -8089 30 0
-1611 -8089 -8091 0
-1611 27 30 0
1611 8091 -30 0
1611 8089 -27 0
1612 -8095 25 0
1612 -8093 -29 0
1612 -8093 -8095 0
1612 25 -29 0
-1612 8095 29 0
-1612 8093 -25 0
-1613 6041 1247 0
-1613 -6940 1614 0
-1613 6041 -6940 0
-1613 1247 1614 0
1613 -6041 -1614 0
1613 6940 -1247 0
1614 1615 1616 -1617 1618 0
-1614 -1618 0
-1614 -1615 0
-1614 1617 0
-1614 -1616 0
-1615 -8098 18 0
-1615 -8102 23 0
-1615 -8098 -8102 0
-1615 18 23 0
1615 8098 -23 0
1615 8102 -18 0
-1616 -8100 20 0
-1616 -8096 22 0
-1616 -8096 -8100 0
-1616 20 22 0
1616 8100 -22 0
1616 8096 -20 0
1617 -8099 -29 0
1617 -8103 30 0
1617 -8099 -8103 0
1617 -29 30 0
-1617 8099 -30 0
-1617 8103 29 0
-1618 -8097 25 0
-1618 -8101 27 0
-1618 -8097 -8101 0
-1618 25 27 0
1618 8097 -27 0
1618 8101 -25 0
-1619 6041 1247 0
-1619 -6941 1620 0
-1619 6041 -6941 0
-1619 1247 1620 0
1619 -6041 -1620 0
1619 6941 -1247 0
1620 1621 1622 1623 -1624 0
-1620 1624 0
-1620 -1621 0
-1620 -1623 0
-1620 -1622 0
-1621 -8108 20 0
-1621 -8104 22 0
-1621 -8104 -8108 0
-1621 20 22 0
1621 8108 -22 0
1621 8104 -20 0
-1622 -8106 18 0
-1622 -8110 23 0
-1622 -8106 -8110 0
-1622 18 23 0
1622 8106 -23 0
1622 8110 -18 0
-1623 -8107 27 0
-1623 -8105 30 0
-1623 -8105 -8107 0
-1623 27 30 0
1623 8107 -30 0
1623 8105 -27 0
1624 -8111 25 0
1624 -8109 -29 0
1624 -8109 -8111 0
1624 25 -29 0
-1624 8111 29 0
-1624 8109 -25 0
-1625 6041 1247 0
-1625 -6942 1626 0
-1625 6041 -6942 0
-1625 1247 1626 0
1625 -6041 -1626 0
1625 6942 -1247 0
1626 1627 1628 -1629 1630 0
-1626 -1630 0
-1626 -1627 0
-1626 1629 0
-1626 -1628 0
-1627 -8114 18 0
-1627 -8118 23 0
-1627 -8114 -8118 0
-1627 18 23 0
1627 8114 -23 0
1627 8118 -18 0
-1628 -8116 20 0
-1628 -8112 22 0
-1628 -8112 -8116 0
-1628 20 22 0
1628 8116 -22 0
1628 8112 -20 0
1629 -8115 -29 0
1629 -8119 30 0
1629 -8115 -8119 0
1629 -29 30 0
-1629 8115 -30 0
-1629 8119 29 0
-1630 -8113 25 0
-1630 -8117 27 0
-1630 -8113 -8117 0
-1630 25 27 0
1630 8113 -27 0
1630 8117 -25 0
-1631 6041 1247 0
-1631 -6943 1632 0
-1631 6041 -6943 0
-1631 1247 1632 0
1631 -6041 -1632 0
1631 6943 -1247 0
1632 1633 1634 1635 -1636 0
-1632 1636 0
-1632 -1633 0
-1632 -1635 0
-1632 -1634 0
-1633 -8120 18 0
-1633 -8126 20 0
-1633 -8120 -8126 0
-1633 18 20 0
1633 8120 -20 0
1633 8126 -18 0
-1634 -8122 22 0
-1634 -8124 23 0
-1634 -8122 -8124 0
-1634 22 23 0
1634 8122 -23 0
1634 8124 -22 0
-1635 -8123 25 0
-1635 -8125 30 0
-1635 -8123 -8125 0
-1635 25 30 0
1635 8123 -30 0
1635 8125 -25 0
1636 -8127 27 0
1636 -8121 -29 0
1636 -8121 -8127 0
1636 27 -29 0
-1636 8127 29 0
-1636 8121 -27 0
-1637 6041 1247 0
-1637 -6944 1638 0
-1637 6041 -6944 0
-1637 1247 1638 0
1637 -6041 -1638 0
1637 6944 -1247 0
1638 1639 1640 1641 -1642 0
-1638 1642 0
-1638 -1639 0
-1638 -1641 0
-1638 -1640 0
-1639 -8128 18 0
-1639 -8134 20 0
-1639 -8128 -8134 0
-1639 18 20 0
1639 8128 -20 0
1639 8134 -18 0
-1640 -8130 22 0
-1640 -8132 23 0
-1640 -8130 -8132 0
-1640 22 23 0
1640 8130 -23 0
1640 8132 -22 0
-1641 -8129 25 0
-1641 -8133 27 0
-1641 -8129 -8133 0
-1641 25 27 0
1641 8129 -27 0
1641 8133 -25 0
1642 -8131 -29 0
1642 -8135 30 0
1642 -8131 -8135 0
1642 -29 30 0
-1642 8131 -30 0
-1642 8135 29 0
-1643 6041 1247 0
-1643 -6945 1644 0
-1643 6041 -6945 0
-1643 1247 1644 0
1643 -6041 -1644 0
1643 6945 -1247 0
1644 1645 1646 -1647 1648 0
-1644 -1648 0
-1644 -1645 0
-1644 1647 0
-1644 -1646 0
-1645 -8138 18 0
-1645 -8142 23 0
-1645 -8138 -8142 0
-1645 18 23 0
1645 8138 -23 0
1645 8142 -18 0
-1646 -8140 20 0
-1646 -8136 22 0
-1646 -8136 -8140 0
-1646 20 22 0
1646 8140 -22 0
1646 8136 -20 0
1647 -8139 -29 0
1647 -8143 30 0
1647 -8139 -8143 0
1647 -29 30 0
-1647 8139 -30 0
-1647 8143 29 0
-1648 -8137 25 0
-1648 -8141 27 0
-1648 -8137 -8141 0
-1648 25 27 0
1648 8137 -27 0
1648 8141 -25 0
-1649 6041 1247 0
-1649 -6946 1650 0
-1649 6041 -6946 0
-1649 1247 1650 0
1649 -6041 -1650 0
1649 6946 -1247 0
1650 1651 1652 -1653 1654 0
-1650 -1654 0
-1650 -1651 0
-1650 1653 0
-1650 -1652 0
-1651 -8148 20 0
-1651 -8144 22 0
-1651 -8144 -8148 0
-1651 20 22 0
1651 8148 -22 0
1651 8144 -20 0
-1652 -8146 18 0
-1652 -8150 23 0
-1652 -8146 -8150 0
-1652 18 23 0
1652 8146 -23 0
1652 8150 -18 0
1653 -8147 -29 0
1653 -8151 30 0
1653 -8147 -8151 0
1653 -29 30 0
-1653 8147 -30 0
-1653 8151 29 0
-1654 -8145 25 0
-1654 -8149 27 0
-1654 -8145 -8149 0
-1654 25 27 0
1654 8145 -27 0
1654 8149 -25 0
-1655 6041 1247 0
-1655 -6947 1656 0
-1655 6041 -6947 0
-1655 1247 1656 0
1655 -6041 -1656 0
1655 6947 -1247 0
1656 1657 1658 -1659 1660 0
-1656 -1660 0
-1656 -1657 0
-1656 1659 0
-1656 -1658 0
-1657 -8154 18 0
-1657 -8158 23 0
-1657 -8154 -8158 0
-1657 18 23 0
1657 8154 -23 0
1657 8158 -18 0
-1658 -8156 20 0
-1658 -8152 22 0
-1658 -8152 -8156 0
-1658 20 22 0
1658 8156 -22 0
1658 8152 -20 0
1659 -8159 25 0
1659 -8157 -29 0
1659 -8157 -8159 0
1659 25 -29 0
-1659 8159 29 0
-1659 8157 -25 0
-1660 -8155 27 0
-1660 -8153 30 0
-1660 -8153 -8155 0
-1660 27 30 0
1660 8155 -30 0
1660 8153 -27 0
-1661 6041 1247 0
-1661 -6948 1662 0
-1661 6041 -6948 0
-1661 1247 1662 0
1661 -6041 -1662 0
1661 6948 -1247 0
1662 1663 1664 1665 -1666 0
-1662 1666 0
-1662 -1663 0
-1662 -1665 0
-1662 -1664 0
-1663 -8162 18 0
-1663 -8166 23 0
-1663 -8162 -8166 0
-1663 18 23 0
1663 8162 -23 0
1663 8166 -18 0
-1664 -8164 20 0
-1664 -8160 22 0
-1664 -8160 -8164 0
-1664 20 22 0
1664 8164 -22 0
1664 8160 -20 0
-1665 -8163 25 0
-1665 -8165 30 0
-1665 -8163 -8165 0
-1665 25 30 0
1665 8163 -30 0
1665 8165 -25 0
1666 -8167 27 0
1666 -8161 -29 0
1666 -8161 -8167 0
1666 27 -29 0
-1666 8167 29 0
-1666 8161 -27 0
-1667 6041 1247 0
-1667 -6949 1668 0
-1667 6041 -6949 0
-1667 1247 1668 0
1667 -6041 -1668 0
1667 6949 -1247 0
1668 1669 1670 1671 -1672 0
-1668 1672 0
-1668 -1669 0
-1668 -1671 0
-1668 -1670 0
-1669 -8168 18 0
-1669 -8174 20 0
-1669 -8168 -8174 0
-1669 18 20 0
1669 8168 -20 0
1669 8174 -18 0
-1670 -8170 22 0
-1670 -8172 23 0
-1670 -8170 -8172 0
-1670 22 23 0
1670 8170 -23 0
1670 8172 -22 0
-1671 -8171 25 0
-1671 -8173 30 0
-1671 -8171 -8173 0
-1671 25 30 0
1671 8171 -30 0
1671 8173 -25 0
1672 -8175 27 0
1672 -8169 -29 0
1672 -8169 -8175 0
1672 27 -29 0
-1672 8175 29 0
-1672 8169 -27 0
-1673 -15 1248 0
-1673 6950 15 0
1673 -15 -1248 0
1673 -6950 15 0
-1674 -15 1263 0
-1674 6951 15 0
1674 -15 -1263 0
1674 -6951 15 0
-1675 -15 1278 0
-1675 6952 15 0
1675 -15 -1278 0
1675 -6952 15 0
-1676 -15 1293 0
-1676 6953 15 0
1676 -15 -1293 0
1676 -6953 15 0
-1677 -15 1308 0
-1677 6954 15 0
1677 -15 -1308 0
1677 -6954 15 0
-1678 -15 1323 0
-1678 6955 15 0
1678 -15 -1323 0
1678 -6955 15 0
-1679 -15 1338 0
-1679 6956 15 0
1679 -15 -1338 0
1679 -6956 15 0
-1680 -15 1344 0
-1680 6957 15 0
1680 -15 -1344 0
1680 -6957 15 0
-1681 -15 1350 0
-1681 6958 15 0
1681 -15 -1350 0
1681 -6958 15 0
-1682 -15 1356 0
-1682 6959 15 0
1682 -15 -1356 0
1682 -6959 15 0
-1683 -15 1362 0
-1683 6960 15 0
1683 -15 -1362 0
1683 -6960 15 0
-1684 -15 1368 0
-1684 6961 15 0
1684 -15 -1368 0
1684 -6961 15 0
-1685 -15 1374 0
-1685 6962 15 0
1685 -15 -1374 0
1685 -6962 15 0
-1686 -15 1380 0
-1686 6963 15 0
1686 -15 -1380 0
1686 -6963 15 0
-1687 -15 1386 0
-1687 6964 15 0
1687 -15 -1386 0
1687 -6964 15 0
-1688 -15 1392 0
-1688 6965 15 0
1688 -15 -1392 0
1688 -6965 15 0
-1689 -15 1398 0
-1689 6966 15 0
1689 -15 -1398 0
1689 -6966 15 0
-1690 -15 1404 0
-1690 6967 15 0
1690 -15 -1404 0
1690 -6967 15 0
-1691 -15 1410 0
-1691 6968 15 0
1691 -15 -1410 0
1691 -6968 15 0
-1692 -15 1416 0
-1692 6969 15 0
1692 -15 -1416 0
1692 -6969 15 0
-1693 -15 1422 0
-1693 6970 15 0
1693 -15 -1422 0
1693 -6970 15 0
-1694 -15 1428 0
-1694 6971 15 0
1694 -15 -1428 0
1694 -6971 15 0
-1695 -15 1434 0
-1695 6972 15 0
1695 -15 -1434 0
1695 -6972 15 0
-1696 -15 1440 0
-1696 6973 15 0
1696 -15 -1440 0
1696 -6973 15 0
-1697 -15 1446 0
-1697 6974 15 0
1697 -15 -1446 0
1697 -6974 15 0
-1698 -15 1452 0
-1698 6975 15 0
1698 -15 -1452 0
1698 -6975 15 0
-1699 -15 1458 0
-1699 6976 15 0
1699 -15 -1458 0
1699 -6976 15 0
-1700 -15 1464 0
-1700 6977 15 0
1700 -15 -1464 0
1700 -6977 15 0
-1701 -15 1470 0
-1701 6978 15 0
1701 -15 -1470 0
1701 -6978 15 0
-1702 -15 1476 0
-1702 6979 15 0
1702 -15 -1476 0
1702 -6979 15 0
-1703 -15 1482 0
-1703 6980 15 0
1703 -15 -1482 0
1703 -6980 15 0
-1704 -15 1488 0
-1704 6981 15 0
1704 -15 -1488 0
1704 -6981 15 0
-1705 -15 1494 0
-1705 6982 15 0
1705 -15 -1494 0
1705 -6982 15 0
-1706 -15 1500 0
-1706 6983 15 0
1706 -15 -1500 0
1706 -6983 15 0
-1707 -15 1506 0
-1707 6984 15 0
1707 -15 -1506 0
1707 -6984 15 0
-1708 -15 1512 0
-1708 6985 15 0
1708 -15 -1512 0
1708 -6985 15 0
-1709 -15 1518 0
-1709 6986 15 0
1709 -15 -1518 0
1709 -6986 15 0
-1710 -15 1524 0
-1710 6987 15 0
1710 -15 -1524 0
1710 -6987 15 0
-1711 -15 1530 0
-1711 6988 15 0
1711 -15 -1530 0
1711 -6988 15 0
-1712 -15 1536 0
-1712 6989 15 0
1712 -15 -1536 0
1712 -6989 15 0
-1713 -15 1542 0
-1713 6990 15 0
1713 -15 -1542 0
1713 -6990 15 0
-1714 -15 1548 0
-1714 6991 15 0
1714 -15 -1548 0
1714 -6991 15 0
-1715 -15 1554 0
-1715 6992 15 0
1715 -15 -1554 0
1715 -6992 15 0
-1716 -15 1560 0
-1716 6993 15 0
1716 -15 -1560 0
1716 -6993 15 0
-1717 -15 1566 0
-1717 6994 15 0
1717 -15 -1566 0
1717 -6994 15 0
-1718 -15 1572 0
-1718 6995 15 0
1718 -15 -1572 0
1718 -6995 15 0
-1719 -15 1578 0
-1719 6996 15 0
1719 -15 -1578 0
1719 -6996 15 0
-1720 -15 1584 0
-1720 6997 15 0
1720 -15 -1584 0
1720 -6997 15 0
-1721 -15 1590 0
-1721 6998 15 0
1721 -15 -1590 0
1721 -6998 15 0
-1722 -15 1596 0
-1722 6999 15 0
1722 -15 -1596 0
1722 -6999 15 0
-1723 -15 1602 0
-1723 7000 15 0
1723 -15 -1602 0
1723 -7000 15 0
-1724 -15 1608 0
-1724 7001 15 0
1724 -15 -1608 0
1724 -7001 15 0
-1725 -15 1614 0
-1725 7002 15 0
1725 -15 -1614 0
1725 -7002 15 0
-1726 -15 1620 0
-1726 7003 15 0
1726 -15 -1620 0
1726 -7003 15 0
-1727 -15 1626 0
-1727 7004 15 0
1727 -15 -1626 0
1727 -7004 15 0
-1728 -15 1632 0
-1728 7005 15 0
1728 -15 -1632 0
1728 -7005 15 0
-1729 -15 1638 0
-1729 7006 15 0
1729 -15 -1638 0
1729 -7006 15 0
-1730 -15 1644 0
-1730 7007 15 0
1730 -15 -1644 0
1730 -7007 15 0
-1731 -15 1650 0
-1731 7008 15 0
1731 -15 -1650 0
1731 -7008 15 0
-1732 -15 1656 0
-1732 7009 15 0
1732 -15 -1656 0
1732 -7009 15 0
-1733 -15 1662 0
-1733 7010 15 0
1733 -15 -1662 0
1733 -7010 15 0
-1734 -15 1668 0
-1734 7011 15 0
1734 -15 -1668 0
1734 -7011 15 0
1735 -1082 -1736 0
1735 -7012 1082 0
-1735 -1082 1736 0
-1735 7012 1082 0
1736 -7542 9039 -1737 0
1736 -7542 -7590 -9039 0
-1736 7542 0
-1736 9039 1737 0
-1736 7590 -9039 0
1737 -6759 -1738 0
1737 579 -1738 0
-1737 1738 0
-1737 6759 -579 0
1738 -6758 -7429 0
1738 -7372 7428 0
1738 -6758 7428 0
1738 -7372 -7429 0
-1738 6758 7372 0
-1738 -7428 7429 0
1739 -1085 -1736 0
1739 -7013 1085 0
-1739 -1085 1736 0
-1739 7013 1085 0
1740 -1087 -1736 0
1740 -7014 1087 0
-1740 -1087 1736 0
-1740 7014 1087 0
1741 -1090 -1736 0
1741 -7015 1090 0
-1741 -1090 1736 0
-1741 7015 1090 0
1742 -1092 -1736 0
1742 -7016 1092 0
-1742 -1092 1736 0
-1742 7016 1092 0
1743 -1094 -1736 0
1743 -7017 1094 0
-1743 -1094 1736 0
-1743 7017 1094 0
1744 -1096 -1736 0
1744 -7018 1096 0
-1744 -1096 1736 0
-1744 7018 1096 0
1745 -1098 -1736 0
1745 -7019 1098 0
-1745 -1098 1736 0
-1745 7019 1098 0
1746 -1082 -1747 0
1746 -7020 1082 0
-1746 -1082 1747 0
-1746 7020 1082 0
1747 -7542 9039 -1748 0
1747 -7542 -7591 -9039 0
-1747 7542 0
-1747 9039 1748 0
-1747 7591 -9039 0
1748 -6761 -1749 0
1748 579 -1749 0
-1748 1749 0
-1748 6761 -579 0
1749 -6760 -7430 0
1749 -7372 7428 0
1749 -6760 7428 0
1749 -7372 -7430 0
-1749 6760 7372 0
-1749 -7428 7430 0
1750 -1085 -1747 0
1750 -7021 1085 0
-1750 -1085 1747 0
-1750 7021 1085 0
1751 -1087 -1747 0
1751 -7022 1087 0
-1751 -1087 1747 0
-1751 7022 1087 0
1752 -1090 -1747 0
1752 -7023 1090 0
-1752 -1090 1747 0
-1752 7023 1090 0
1753 -1092 -1747 0
1753 -7024 1092 0
-1753 -1092 1747 0
-1753 7024 1092 0
1754 -1094 -1747 0
1754 -7025 1094 0
-1754 -1094 1747 0
-1754 7025 1094 0
1755 -1096 -1747 0
1755 -7026 1096 0
-1755 -1096 1747 0
-1755 7026 1096 0
1756 -1098 -1747 0
1756 -7027 1098 0
-1756 -1098 1747 0
-1756 7027 1098 0
1757 -1082 -1758 0
1757 -7028 1082 0
-1757 -1082 1758 0
-1757 7028 1082 0
1758 -7542 9039 -1759 0
1758 -7542 -7592 -9039 0
-1758 7542 0
-1758 9039 1759 0
-1758 7592 -9039 0
1759 -6763 -1760 0
1759 579 -1760 0
-1759 1760 0
-1759 6763 -579 0
1760 -6762 -7431 0
1760 -7372 7428 0
1760 -6762 7428 0
1760 -7372 -7431 0
-1760 6762 7372 0
-1760 -7428 7431 0
1761 -1085 -1758 0
1761 -7029 1085 0
-1761 -1085 1758 0
-1761 7029 1085 0
1762 -1087 -1758 0
1762 -7030 1087 0
-1762 -1087 1758 0
-1762 7030 1087 0
1763 -1090 -1758 0
1763 -7031 1090 0
-1763 -1090 1758 0
-1763 7031 1090 0
1764 -1092 -1758 0
1764 -7032 1092 0
-1764 -1092 1758 0
-1764 7032 1092 0
1765 -1094 -1758 0
1765 -7033 1094 0
-1765 -1094 1758 0
-1765 7033 1094 0
1766 -1096 -1758 0
1766 -7034 1096 0
-1766 -1096 1758 0
-1766 7034 1096 0
1767 -1098 -1758 0
1767 -7035 1098 0
-1767 -1098 1758 0
-1767 7035 1098 0
1768 -1082 -1769 0
1768 -7036 1082 0
-1768 -1082 1769 0
-1768 7036 1082 0
1769 -7542 9039 -1770 0
1769 -7542 -7593 -9039 0
-1769 7542 0
-1769 9039 1770 0
-1769 7593 -9039 0
1770 -6765 -1771 0
1770 579 -1771 0
-1770 1771 0
-1770 6765 -579 0
1771 -6764 -7432 0
1771 -7372 7428 0
1771 -6764 7428 0
1771 -7372 -7432 0
-1771 6764 7372 0
-1771 -7428 7432 0
1772 -1085 -1769 0
1772 -7037 1085 0
-1772 -1085 1769 0
-1772 7037 1085 0
1773 -1087 -1769 0
1773 -7038 1087 0
-1773 -1087 1769 0
-1773 7038 1087 0
1774 -1090 -1769 0
1774 -7039 1090 0
-1774 -1090 1769 0
-1774 7039 1090 0
1775 -1092 -1769 0
1775 -7040 1092 0
-1775 -1092 1769 0
-1775 7040 1092 0
1776 -1094 -1769 0
1776 -7041 1094 0
-1776 -1094 1769 0
-1776 7041 1094 0
1777 -1096 -1769 0
1777 -7042 1096 0
-1777 -1096 1769 0
-1777 7042 1096 0
1778 -1098 -1769 0
1778 -7043 1098 0
-1778 -1098 1769 0
-1778 7043 1098 0
1779 -1082 -1780 0
1779 -7044 1082 0
-1779 -1082 1780 0
-1779 7044 1082 0
1780 -7542 9039 -1781 0
1780 -7542 -7594 -9039 0
-1780 7542 0
-1780 9039 1781 0
-1780 7594 -9039 0
1781 -6767 -1782 0
1781 579 -1782 0
-1781 1782 0
-1781 6767 -579 0
1782 -6766 -7433 0
1782 -7372 7428 0
1782 -6766 7428 0
1782 -7372 -7433 0
-1782 6766 7372 0
-1782 -7428 7433 0
1783 -1085 -1780 0
1783 -7045 1085 0
-1783 -1085 1780 0
-1783 7045 1085 0
1784 -1087 -1780 0
1784 -7046 1087 0
-1784 -1087 1780 0
-1784 7046 1087 0
1785 -1090 -1780 0
1785 -7047 1090 0
-1785 -1090 1780 0
-1785 7047 1090 0
1786 -1092 -1780 0
1786 -7048 1092 0
-1786 -1092 1780 0
-1786 7048 1092 0
1787 -1094 -1780 0
1787 -7049 1094 0
-1787 -1094 1780 0
-1787 7049 1094 0
1788 -1096 -1780 0
1788 -7050 1096 0
-1788 -1096 1780 0
-1788 7050 1096 0
1789 -1098 -1780 0
1789 -7051 1098 0
-1789 -1098 1780 0
-1789 7051 1098 0
1790 -1082 -1791 0
1790 -7052 1082 0
-1790 -1082 1791 0
-1790 7052 1082 0
1791 -7542 9039 -1792 0
1791 -7542 -7595 -9039 0
-1791 7542 0
-1791 9039 1792 0
-1791 7595 -9039 0
1792 -6769 -1793 0
1792 579 -1793 0
-1792 1793 0
-1792 6769 -579 0
1793 -6768 -7434 0
1793 -7372 7428 0
1793 -6768 7428 0
1793 -7372 -7434 0
-1793 6768 7372 0
-1793 -7428 7434 0
1794 -1085 -1791 0
1794 -7053 1085 0
-1794 -1085 1791 0
-1794 7053 1085 0
1795 -1087 -1791 0
1795 -7054 1087 0
-1795 -1087 1791 0
-1795 7054 1087 0
1796 -1090 -1791 0
1796 -7055 1090 0
-1796 -1090 1791 0
-1796 7055 1090 0
1797 -1092 -1791 0
1797 -7056 1092 0
-1797 -1092 1791 0
-1797 7056 1092 0
1798 -1094 -1791 0
1798 -7057 1094 0
-1798 -1094 1791 0
-1798 7057 1094 0
1799 -1096 -1791 0
1799 -7058 1096 0
-1799 -1096 1791 0
-1799 7058 1096 0
1800 -1098 -1791 0
1800 -7059 1098 0
-1800 -1098 1791 0
-1800 7059 1098 0
1801 -1082 -1802 0
1801 -7060 1082 0
-1801 -1082 1802 0
-1801 7060 1082 0
1802 -7542 9039 -1803 0
1802 -7542 -7596 -9039 0
-1802 7542 0
-1802 9039 1803 0
-1802 7596 -9039 0
1803 -6771 -1804 0
1803 579 -1804 0
-1803 1804 0
-1803 6771 -579 0
1804 -6770 -7435 0
1804 -7372 7428 0
1804 -6770 7428 0
1804 -7372 -7435 0
-1804 6770 7372 0
-1804 -7428 7435 0
1805 -1085 -1802 0
1805 -7061 1085 0
-1805 -1085 1802 0
-1805 7061 1085 0
1806 -1087 -1802 0
1806 -7062 1087 0
-1806 -1087 1802 0
-1806 7062 1087 0
1807 -1090 -1802 0
1807 -7063 1090 0
-1807 -1090 1802 0
-1807 7063 1090 0
1808 -1092 -1802 0
1808 -7064 1092 0
-1808 -1092 1802 0
-1808 7064 1092 0
1809 -1094 -1802 0
1809 -7065 1094 0
-1809 -1094 1802 0
-1809 7065 1094 0
1810 -1096 -1802 0
1810 -7066 1096 0
-1810 -1096 1802 0
-1810 7066 1096 0
1811 -1098 -1802 0
1811 -7067 1098 0
-1811 -1098 1802 0
-1811 7067 1098 0
1812 -1082 -1813 0
1812 -7068 1082 0
-1812 -1082 1813 0
-1812 7068 1082 0
1813 -7542 9039 -1814 0
1813 -7542 -7597 -9039 0
-1813 7542 0
-1813 9039 1814 0
-1813 7597 -9039 0
1814 -6773 -1815 0
1814 579 -1815 0
-1814 1815 0
-1814 6773 -579 0
1815 -6772 -7436 0
1815 -7372 7428 0
1815 -6772 7428 0
1815 -7372 -7436 0
-1815 6772 7372 0
-1815 -7428 7436 0
1816 -1085 -1813 0
1816 -7069 1085 0
-1816 -1085 1813 0
-1816 7069 1085 0
1817 -1087 -1813 0
1817 -7070 1087 0
-1817 -1087 1813 0
-1817 7070 1087 0
1818 -1090 -1813 0
1818 -7071 1090 0
-1818 -1090 1813 0
-1818 7071 1090 0
1819 -1092 -1813 0
1819 -7072 1092 0
-1819 -1092 1813 0
-1819 7072 1092 0
1820 -1094 -1813 0
1820 -7073 1094 0
-1820 -1094 1813 0
-1820 7073 1094 0
1821 -1096 -1813 0
1821 -7074 1096 0
-1821 -1096 1813 0
-1821 7074 1096 0
1822 -1098 -1813 0
1822 -7075 1098 0
-1822 -1098 1813 0
-1822 7075 1098 0
1823 -1082 -1824 0
1823 -7076 1082 0
-1823 -1082 1824 0
-1823 7076 1082 0
1824 -7542 9039 -1825 0
1824 -7542 -7598 -9039 0
-1824 7542 0
-1824 9039 1825 0
-1824 7598 -9039 0
1825 -6775 -1826 0
1825 579 -1826 0
-1825 1826 0
-1825 6775 -579 0
1826 -6774 -7437 0
1826 -7372 7428 0
1826 -6774 7428 0
1826 -7372 -7437 0
-1826 6774 7372 0
-1826 -7428 7437 0
1827 -1085 -1824 0
1827 -7077 1085 0
-1827 -1085 1824 0
-1827 7077 1085 0
1828 -1087 -1824 0
1828 -7078 1087 0
-1828 -1087 1824 0
-1828 7078 1087 0
1829 -1090 -1824 0
1829 -7079 1090 0
-1829 -1090 1824 0
-1829 7079 1090 0
1830 -1092 -1824 0
1830 -7080 1092 0
-1830 -1092 1824 0
-1830 7080 1092 0
1831 -1094 -1824 0
1831 -7081 1094 0
-1831 -1094 1824 0
-1831 7081 1094 0
1832 -1096 -1824 0
1832 -7082 1096 0
-1832 -1096 1824 0
-1832 7082 1096 0
1833 -1098 -1824 0
1833 -7083 1098 0
-1833 -1098 1824 0
-1833 7083 1098 0
1834 -1082 -1835 0
1834 -7084 1082 0
-1834 -1082 1835 0
-1834 7084 1082 0
1835 -7542 9039 -1836 0
1835 -7542 -7599 -9039 0
-1835 7542 0
-1835 9039 1836 0
-1835 7599 -9039 0
1836 -6777 -1837 0
1836 579 -1837 0
-1836 1837 0
-1836 6777 -579 0
1837 -6776 -7438 0
1837 -7372 7428 0
1837 -6776 7428 0
1837 -7372 -7438 0
-1837 6776 7372 0
-1837 -7428 7438 0
1838 -1085 -1835 0
1838 -7085 1085 0
-1838 -1085 1835 0
-1838 7085 1085 0
1839 -1087 -1835 0
1839 -7086 1087 0
-1839 -1087 1835 0
-1839 7086 1087 0
1840 -1090 -1835 0
1840 -7087 1090 0
-1840 -1090 1835 0
-1840 7087 1090 0
1841 -1092 -1835 0
1841 -7088 1092 0
-1841 -1092 1835 0
-1841 7088 1092 0
1842 -1094 -1835 0
1842 -7089 1094 0
-1842 -1094 1835 0
-1842 7089 1094 0
1843 -1096 -1835 0
1843 -7090 1096 0
-1843 -1096 1835 0
-1843 7090 1096 0
1844 -1098 -1835 0
1844 -7091 1098 0
-1844 -1098 1835 0
-1844 7091 1098 0
1845 -1082 -1846 0
1845 -7092 1082 0
-1845 -1082 1846 0
-1845 7092 1082 0
1846 -7542 9039 -1847 0
1846 -7542 -7600 -9039 0
-1846 7542 0
-1846 9039 1847 0
-1846 7600 -9039 0
1847 -6779 -1848 0
1847 579 -1848 0
-1847 1848 0
-1847 6779 -579 0
1848 -6778 -7439 0
1848 -7372 7428 0
1848 -6778 7428 0
1848 -7372 -7439 0
-1848 6778 7372 0
-1848 -7428 7439 0
1849 -1085 -1846 0
1849 -7093 1085 0
-1849 -1085 1846 0
-1849 7093 1085 0
1850 -1087 -1846 0
1850 -7094 1087 0
-1850 -1087 1846 0
-1850 7094 1087 0
1851 -1090 -1846 0
1851 -7095 1090 0
-1851 -1090 1846 0
-1851 7095 1090 0
1852 -1092 -1846 0
1852 -7096 1092 0
-1852 -1092 1846 0
-1852 7096 1092 0
1853 -1094 -1846 0
1853 -7097 1094 0
-1853 -1094 1846 0
-1853 7097 1094 0
1854 -1096 -1846 0
1854 -7098 1096 0
-1854 -1096 1846 0
-1854 7098 1096 0
1855 -1098 -1846 0
1855 -7099 1098 0
-1855 -1098 1846 0
-1855 7099 1098 0
1856 -1082 -1857 0
1856 -7100 1082 0
-1856 -1082 1857 0
-1856 7100 1082 0
1857 -7542 9039 -1858 0
1857 -7542 -7601 -9039 0
-1857 7542 0
-1857 9039 1858 0
-1857 7601 -9039 0
1858 -6781 -1859 0
1858 579 -1859 0
-1858 1859 0
-1858 6781 -579 0
1859 -6780 -7440 0
1859 -7372 7428 0
1859 -6780 7428 0
1859 -7372 -7440 0
-1859 6780 7372 0
-1859 -7428 7440 0
1860 -1085 -1857 0
1860 -7101 1085 0
-1860 -1085 1857 0
-1860 7101 1085 0
1861 -1087 -1857 0
1861 -7102 1087 0
-1861 -1087 1857 0
-1861 7102 1087 0
1862 -1090 -1857 0
1862 -7103 1090 0
-1862 -1090 1857 0
-1862 7103 1090 0
1863 -1092 -1857 0
1863 -7104 1092 0
-1863 -1092 1857 0
-1863 7104 1092 0
1864 -1094 -1857 0
1864 -7105 1094 0
-1864 -1094 1857 0
-1864 7105 1094 0
1865 -1096 -1857 0
1865 -7106 1096 0
-1865 -1096 1857 0
-1865 7106 1096 0
1866 -1098 -1857 0
1866 -7107 1098 0
-1866 -1098 1857 0
-1866 7107 1098 0
1867 -1082 -1868 0
1867 -7108 1082 0
-1867 -1082 1868 0
-1867 7108 1082 0
1868 -7542 9039 -1869 0
1868 -7542 -7602 -9039 0
-1868 7542 0
-1868 9039 1869 0
-1868 7602 -9039 0
1869 -6783 -1870 0
1869 579 -1870 0
-1869 1870 0
-1869 6783 -579 0
1870 -6782 -7441 0
1870 -7372 7428 0
1870 -6782 7428 0
1870 -7372 -7441 0
-1870 6782 7372 0
-1870 -7428 7441 0
1871 -1085 -1868 0
1871 -7109 1085 0
-1871 -1085 1868 0
-1871 7109 1085 0
1872 -1087 -1868 0
1872 -7110 1087 0
-1872 -1087 1868 0
-1872 7110 1087 0
1873 -1090 -1868 0
1873 -7111 1090 0
-1873 -1090 1868 0
-1873 7111 1090 0
1874 -1092 -1868 0
1874 -7112 1092 0
-1874 -1092 1868 0
-1874 7112 1092 0
1875 -1094 -1868 0
1875 -7113 1094 0
-1875 -1094 1868 0
-1875 7113 1094 0
1876 -1096 -1868 0
1876 -7114 1096 0
-1876 -1096 1868 0
-1876 7114 1096 0
1877 -1098 -1868 0
1877 -7115 1098 0
-1877 -1098 1868 0
-1877 7115 1098 0
1878 -1082 -1879 0
1878 -7116 1082 0
-1878 -1082 1879 0
-1878 7116 1082 0
1879 -7542 9039 -1880 0
1879 -7542 -7603 -9039 0
-1879 7542 0
-1879 9039 1880 0
-1879 7603 -9039 0
1880 -6785 -1881 0
1880 579 -1881 0
-1880 1881 0
-1880 6785 -579 0
1881 -6784 -7442 0
1881 -7372 7428 0
1881 -6784 7428 0
1881 -7372 -7442 0
-1881 6784 7372 0
-1881 -7428 7442 0
1882 -1085 -1879 0
1882 -7117 1085 0
-1882 -1085 1879 0
-1882 7117 1085 0
1883 -1087 -1879 0
1883 -7118 1087 0
-1883 -1087 1879 0
-1883 7118 1087 0
1884 -1090 -1879 0
1884 -7119 1090 0
-1884 -1090 1879 0
-1884 7119 1090 0
1885 -1092 -1879 0
1885 -7120 1092 0
-1885 -1092 1879 0
-1885 7120 1092 0
1886 -1094 -1879 0
1886 -7121 1094 0
-1886 -1094 1879 0
-1886 7121 1094 0
1887 -1096 -1879 0
1887 -7122 1096 0
-1887 -1096 1879 0
-1887 7122 1096 0
1888 -1098 -1879 0
1888 -7123 1098 0
-1888 -1098 1879 0
-1888 7123 1098 0
1889 -1082 -1890 0
1889 -7124 1082 0
-1889 -1082 1890 0
-1889 7124 1082 0
1890 -7542 9039 -1891 0
1890 -7542 -7604 -9039 0
-1890 7542 0
-1890 9039 1891 0
-1890 7604 -9039 0
1891 -6787 -1892 0
1891 579 -1892 0
-1891 1892 0
-1891 6787 -579 0
1892 -6786 -7443 0
1892 -7372 7428 0
1892 -6786 7428 0
1892 -7372 -7443 0
-1892 6786 7372 0
-1892 -7428 7443 0
1893 -1085 -1890 0
1893 -7125 1085 0
-1893 -1085 1890 0
-1893 7125 1085 0
1894 -1087 -1890 0
1894 -7126 1087 0
-1894 -1087 1890 0
-1894 7126 1087 0
1895 -1090 -1890 0
1895 -7127 1090 0
-1895 -1090 1890 0
-1895 7127 1090 0
1896 -1092 -1890 0
1896 -7128 1092 0
-1896 -1092 1890 0
-1896 7128 1092 0
1897 -1094 -1890 0
1897 -7129 1094 0
-1897 -1094 1890 0
-1897 7129 1094 0
1898 -1096 -1890 0
1898 -7130 1096 0
-1898 -1096 1890 0
-1898 7130 1096 0
1899 -1098 -1890 0
1899 -7131 1098 0
-1899 -1098 1890 0
-1899 7131 1098 0
1900 -1082 -1901 0
1900 -7132 1082 0
-1900 -1082 1901 0
-1900 7132 1082 0
1901 -7542 9039 -1902 0
1901 -7542 -7605 -9039 0
-1901 7542 0
-1901 9039 1902 0
-1901 7605 -9039 0
1902 -6789 -1903 0
1902 579 -1903 0
-1902 1903 0
-1902 6789 -579 0
1903 -6788 -7444 0
1903 -7372 7428 0
1903 -6788 7428 0
1903 -7372 -7444 0
-1903 6788 7372 0
-1903 -7428 7444 0
1904 -1085 -1901 0
1904 -7133 1085 0
-1904 -1085 1901 0
-1904 7133 1085 0
1905 -1087 -1901 0
1905 -7134 1087 0
-1905 -1087 1901 0
-1905 7134 1087 0
1906 -1090 -1901 0
1906 -7135 1090 0
-1906 -1090 1901 0
-1906 7135 1090 0
1907 -1092 -1901 0
1907 -7136 1092 0
-1907 -1092 1901 0
-1907 7136 1092 0
1908 -1094 -1901 0
1908 -7137 1094 0
-1908 -1094 1901 0
-1908 7137 1094 0
1909 -1096 -1901 0
1909 -7138 1096 0
-1909 -1096 1901 0
-1909 7138 1096 0
1910 -1098 -1901 0
1910 -7139 1098 0
-1910 -1098 1901 0
-1910 7139 1098 0
1911 -1082 -1912 0
1911 -7140 1082 0
-1911 -1082 1912 0
-1911 7140 1082 0
1912 -7542 9039 -1913 0
1912 -7542 -7606 -9039 0
-1912 7542 0
-1912 9039 1913 0
-1912 7606 -9039 0
1913 -6791 -1914 0
1913 579 -1914 0
-1913 1914 0
-1913 6791 -579 0
1914 -6790 -7445 0
1914 -7372 7428 0
1914 -6790 7428 0
1914 -7372 -7445 0
-1914 6790 7372 0
-1914 -7428 7445 0
1915 -1085 -1912 0
1915 -7141 1085 0
-1915 -1085 1912 0
-1915 7141 1085 0
1916 -1087 -1912 0
1916 -7142 1087 0
-1916 -1087 1912 0
-1916 7142 1087 0
1917 -1090 -1912 0
1917 -7143 1090 0
-1917 -1090 1912 0
-1917 7143 1090 0
1918 -1092 -1912 0
1918 -7144 1092 0
-1918 -1092 1912 0
-1918 7144 1092 0
1919 -1094 -1912 0
1919 -7145 1094 0
-1919 -1094 1912 0
-1919 7145 1094 0
1920 -1096 -1912 0
1920 -7146 1096 0
-1920 -1096 1912 0
-1920 7146 1096 0
1921 -1098 -1912 0
1921 -7147 1098 0
-1921 -1098 1912 0
-1921 7147 1098 0
1922 -1082 -1923 0
1922 -7148 1082 0
-1922 -1082 1923 0
-1922 7148 1082 0
1923 -7542 9039 -1924 0
1923 -7542 -7607 -9039 0
-1923 7542 0
-1923 9039 1924 0
-1923 7607 -9039 0
1924 -6793 -1925 0
1924 579 -1925 0
-1924 1925 0
-1924 6793 -579 0
1925 -6792 -7446 0
1925 -7372 7428 0
1925 -6792 7428 0
1925 -7372 -7446 0
-1925 6792 7372 0
-1925 -7428 7446 0
1926 -1085 -1923 0
1926 -7149 1085 0
-1926 -1085 1923 0
-1926 7149 1085 0
1927 -1087 -1923 0
1927 -7150 1087 0
-1927 -1087 1923 0
-1927 7150 1087 0
1928 -1090 -1923 0
1928 -7151 1090 0
-1928 -1090 1923 0
-1928 7151 1090 0
1929 -1092 -1923 0
1929 -7152 1092 0
-1929 -1092 1923 0
-1929 7152 1092 0
1930 -1094 -1923 0
1930 -7153 1094 0
-1930 -1094 1923 0
-1930 7153 1094 0
1931 -1096 -1923 0
1931 -7154 1096 0
-1931 -1096 1923 0
-1931 7154 1096 0
1932 -1098 -1923 0
1932 -7155 1098 0
-1932 -1098 1923 0
-1932 7155 1098 0
1933 -1082 -1934 0
1933 -7156 1082 0
-1933 -1082 1934 0
-1933 7156 1082 0
1934 -7542 9039 -1935 0
1934 -7542 -7608 -9039 0
-1934 7542 0
-1934 9039 1935 0
-1934 7608 -9039 0
1935 -6795 -1936 0
1935 579 -1936 0
-1935 1936 0
-1935 6795 -579 0
1936 -6794 -7447 0
1936 -7372 7428 0
1936 -6794 7428 0
1936 -7372 -7447 0
-1936 6794 7372 0
-1936 -7428 7447 0
1937 -1085 -1934 0
1937 -7157 1085 0
-1937 -1085 1934 0
-1937 7157 1085 0
1938 -1087 -1934 0
1938 -7158 1087 0
-1938 -1087 1934 0
-1938 7158 1087 0
1939 -1090 -1934 0
1939 -7159 1090 0
-1939 -1090 1934 0
-1939 7159 1090 0
1940 -1092 -1934 0
1940 -7160 1092 0
-1940 -1092 1934 0
-1940 7160 1092 0
1941 -1094 -1934 0
1941 -7161 1094 0
-1941 -1094 1934 0
-1941 7161 1094 0
1942 -1096 -1934 0
1942 -7162 1096 0
-1942 -1096 1934 0
-1942 7162 1096 0
1943 -1098 -1934 0
1943 -7163 1098 0
-1943 -1098 1934 0
-1943 7163 1098 0
1944 -1082 -1945 0
1944 -7164 1082 0
-1944 -1082 1945 0
-1944 7164 1082 0
1945 -7542 9039 -1946 0
1945 -7542 -7609 -9039 0
-1945 7542 0
-1945 9039 1946 0
-1945 7609 -9039 0
1946 -6797 -1947 0
1946 579 -1947 0
-1946 1947 0
-1946 6797 -579 0
1947 -6796 -7448 0
1947 -7372 7428 0
1947 -6796 7428 0
1947 -7372 -7448 0
-1947 6796 7372 0
-1947 -7428 7448 0
1948 -1085 -1945 0
1948 -7165 1085 0
-1948 -1085 1945 0
-1948 7165 1085 0
1949 -1087 -1945 0
1949 -7166 1087 0
-1949 -1087 1945 0
-1949 7166 1087 0
1950 -1090 -1945 0
1950 -7167 1090 0
-1950 -1090 1945 0
-1950 7167 1090 0
1951 -1092 -1945 0
1951 -7168 1092 0
-1951 -1092 1945 0
-1951 7168 1092 0
1952 -1094 -1945 0
1952 -7169 1094 0
-1952 -1094 1945 0
-1952 7169 1094 0
1953 -1096 -1945 0
1953 -7170 1096 0
-1953 -1096 1945 0
-1953 7170 1096 0
1954 -1098 -1945 0
1954 -7171 1098 0
-1954 -1098 1945 0
-1954 7171 1098 0
1955 -1082 -1956 0
1955 -7172 1082 0
-1955 -1082 1956 0
-1955 7172 1082 0
1956 -7542 9039 -1957 0
1956 -7542 -7610 -9039 0
-1956 7542 0
-1956 9039 1957 0
-1956 7610 -9039 0
1957 -6799 -1958 0
1957 579 -1958 0
-1957 1958 0
-1957 6799 -579 0
1958 -6798 -7449 0
1958 -7372 7428 0
1958 -6798 7428 0
1958 -7372 -7449 0
-1958 6798 7372 0
-1958 -7428 7449 0
1959 -1085 -1956 0
1959 -7173 1085 0
-1959 -1085 1956 0
-1959 7173 1085 0
1960 -1087 -1956 0
1960 -7174 1087 0
-1960 -1087 1956 0
-1960 7174 1087 0
1961 -1090 -1956 0
1961 -7175 1090 0
-1961 -1090 1956 0
-1961 7175 1090 0
1962 -1092 -1956 0
1962 -7176 1092 0
-1962 -1092 1956 0
-1962 7176 1092 0
1963 -1094 -1956 0
1963 -7177 1094 0
-1963 -1094 1956 0
-1963 7177 1094 0
1964 -1096 -1956 0
1964 -7178 1096 0
-1964 -1096 1956 0
-1964 7178 1096 0
1965 -1098 -1956 0
1965 -7179 1098 0
-1965 -1098 1956 0
-1965 7179 1098 0
1966 -1082 -1967 0
1966 -7180 1082 0
-1966 -1082 1967 0
-1966 7180 1082 0
1967 -7542 9039 -1968 0
1967 -7542 -7611 -9039 0
-1967 7542 0
-1967 9039 1968 0
-1967 7611 -9039 0
1968 -6801 -1969 0
1968 579 -1969 0
-1968 1969 0
-1968 6801 -579 0
1969 -6800 -7450 0
1969 -7372 7428 0
1969 -6800 7428 0
1969 -7372 -7450 0
-1969 6800 7372 0
-1969 -7428 7450 0
1970 -1085 -1967 0
1970 -7181 1085 0
-1970 -1085 1967 0
-1970 7181 1085 0
1971 -1087 -1967 0
1971 -7182 1087 0
-1971 -1087 1967 0
-1971 7182 1087 0
1972 -1090 -1967 0
1972 -7183 1090 0
-1972 -1090 1967 0
-1972 7183 1090 0
1973 -1092 -1967 0
1973 -7184 1092 0
-1973 -1092 1967 0
-1973 7184 1092 0
1974 -1094 -1967 0
1974 -7185 1094 0
-1974 -1094 1967 0
-1974 7185 1094 0
1975 -1096 -1967 0
1975 -7186 1096 0
-1975 -1096 1967 0
-1975 7186 1096 0
1976 -1098 -1967 0
1976 -7187 1098 0
-1976 -1098 1967 0
-1976 7187 1098 0
1977 -1082 -1978 0
1977 -7188 1082 0
-1977 -1082 1978 0
-1977 7188 1082 0
1978 -7542 9039 -1979 0
1978 -7542 -7612 -9039 0
-1978 7542 0
-1978 9039 1979 0
-1978 7612 -9039 0
1979 -6803 -1980 0
1979 579 -1980 0
-1979 1980 0
-1979 6803 -579 0
1980 -6802 -7451 0
1980 -7372 7428 0
1980 -6802 7428 0
1980 -7372 -7451 0
-1980 6802 7372 0
-1980 -7428 7451 0
1981 -1085 -1978 0
1981 -7189 1085 0
-1981 -1085 1978 0
-1981 7189 1085 0
1982 -1087 -1978 0
1982 -7190 1087 0
-1982 -1087 1978 0
-1982 7190 1087 0
1983 -1090 -1978 0
1983 -7191 1090 0
-1983 -1090 1978 0
-1983 7191 1090 0
1984 -1092 -1978 0
1984 -7192 1092 0
-1984 -1092 1978 0
-1984 7192 1092 0
1985 -1094 -1978 0
1985 -7193 1094 0
-1985 -1094 1978 0
-1985 7193 1094 0
1986 -1096 -1978 0
1986 -7194 1096 0
-1986 -1096 1978 0
-1986 7194 1096 0
1987 -1098 -1978 0
1987 -7195 1098 0
-1987 -1098 1978 0
-1987 7195 1098 0
1988 -1082 -1989 0
1988 -7196 1082 0
-1988 -1082 1989 0
-1988 7196 1082 0
1989 -7542 9039 -1990 0
1989 -7542 -7613 -9039 0
-1989 7542 0
-1989 9039 1990 0
-1989 7613 -9039 0
1990 -6805 -1991 0
1990 579 -1991 0
-1990 1991 0
-1990 6805 -579 0
1991 -6804 -7452 0
1991 -7372 7428 0
1991 -6804 7428 0
1991 -7372 -7452 0
-1991 6804 7372 0
-1991 -7428 7452 0
1992 -1085 -1989 0
1992 -7197 1085 0
-1992 -1085 1989 0
-1992 7197 1085 0
1993 -1087 -1989 0
1993 -7198 1087 0
-1993 -1087 1989 0
-1993 7198 1087 0
1994 -1090 -1989 0
1994 -7199 1090 0
-1994 -1090 1989 0
-1994 7199 1090 0
1995 -1092 -1989 0
1995 -7200 1092 0
-1995 -1092 1989 0
-1995 7200 1092 0
1996 -1094 -1989 0
1996 -7201 1094 0
-1996 -1094 1989 0
-1996 7201 1094 0
1997 -1096 -1989 0
1997 -7202 1096 0
-1997 -1096 1989 0
-1997 7202 1096 0
1998 -1098 -1989 0
1998 -7203 1098 0
-1998 -1098 1989 0
-1998 7203 1098 0
1999 -1082 -2000 0
1999 -7204 1082 0
-1999 -1082 2000 0
-1999 7204 1082 0
2000 -7542 9039 -2001 0
2000 -7542 -7614 -9039 0
-2000 7542 0
-2000 9039 2001 0
-2000 7614 -9039 0
2001 -6807 -2002 0
2001 579 -2002 0
-2001 2002 0
-2001 6807 -579 0
2002 -6806 -7453 0
2002 -7372 7428 0
2002 -6806 7428 0
2002 -7372 -7453 0
-2002 6806 7372 0
-2002 -7428 7453 0
2003 -1085 -2000 0
2003 -7205 1085 0
-2003 -1085 2000 0
-2003 7205 1085 0
2004 -1087 -2000 0
2004 -7206 1087 0
-2004 -1087 2000 0
-2004 7206 1087 0
2005 -1090 -2000 0
2005 -7207 1090 0
-2005 -1090 2000 0
-2005 7207 1090 0
2006 -1092 -2000 0
2006 -7208 1092 0
-2006 -1092 2000 0
-2006 7208 1092 0
2007 -1094 -2000 0
2007 -7209 1094 0
-2007 -1094 2000 0
-2007 7209 1094 0
2008 -1096 -2000 0
2008 -7210 1096 0
-2008 -1096 2000 0
-2008 7210 1096 0
2009 -1098 -2000 0
2009 -7211 1098 0
-2009 -1098 2000 0
-2009 7211 1098 0
2010 -1082 -2011 0
2010 -7212 1082 0
-2010 -1082 2011 0
-2010 7212 1082 0
2011 -7542 9039 -2012 0
2011 -7542 -7615 -9039 0
-2011 7542 0
-2011 9039 2012 0
-2011 7615 -9039 0
2012 -6809 -2013 0
2012 579 -2013 0
-2012 2013 0
-2012 6809 -579 0
2013 -6808 -7454 0
2013 -7372 7428 0
2013 -6808 7428 0
2013 -7372 -7454 0
-2013 6808 7372 0
-2013 -7428 7454 0
2014 -1085 -2011 0
2014 -7213 1085 0
-2014 -1085 2011 0
-2014 7213 1085 0
2015 -1087 -2011 0
2015 -7214 1087 0
-2015 -1087 2011 0
-2015 7214 1087 0
2016 -1090 -2011 0
2016 -7215 1090 0
-2016 -1090 2011 0
-2016 7215 1090 0
2017 -1092 -2011 0
2017 -7216 1092 0
-2017 -1092 2011 0
-2017 7216 1092 0
2018 -1094 -2011 0
2018 -7217 1094 0
-2018 -1094 2011 0
-2018 7217 1094 0
2019 -1096 -2011 0
2019 -7218 1096 0
-2019 -1096 2011 0
-2019 7218 1096 0
2020 -1098 -2011 0
2020 -7219 1098 0
-2020 -1098 2011 0
-2020 7219 1098 0
2021 -1082 -2022 0
2021 -7220 1082 0
-2021 -1082 2022 0
-2021 7220 1082 0
2022 -7542 9039 -2023 0
2022 -7542 -7616 -9039 0
-2022 7542 0
-2022 9039 2023 0
-2022 7616 -9039 0
2023 -6811 -2024 0
2023 579 -2024 0
-2023 2024 0
-2023 6811 -579 0
2024 -6810 -7455 0
2024 -7372 7428 0
2024 -6810 7428 0
2024 -7372 -7455 0
-2024 6810 7372 0
-2024 -7428 7455 0
2025 -1085 -2022 0
2025 -7221 1085 0
-2025 -1085 2022 0
-2025 7221 1085 0
2026 -1087 -2022 0
2026 -7222 1087 0
-2026 -1087 2022 0
-2026 7222 1087 0
2027 -1090 -2022 0
2027 -7223 1090 0
-2027 -1090 2022 0
-2027 7223 1090 0
2028 -1092 -2022 0
2028 -7224 1092 0
-2028 -1092 2022 0
-2028 7224 1092 0
2029 -1094 -2022 0
2029 -7225 1094 0
-2029 -1094 2022 0
-2029 7225 1094 0
2030 -1096 -2022 0
2030 -7226 1096 0
-2030 -1096 2022 0
-2030 7226 1096 0
2031 -1098 -2022 0
2031 -7227 1098 0
-2031 -1098 2022 0
-2031 7227 1098 0
2032 -1082 -2033 0
2032 -7228 1082 0
-2032 -1082 2033 0
-2032 7228 1082 0
2033 -7542 9039 -2034 0
2033 -7542 -7617 -9039 0
-2033 7542 0
-2033 9039 2034 0
-2033 7617 -9039 0
2034 -6813 -2035 0
2034 579 -2035 0
-2034 2035 0
-2034 6813 -579 0
2035 -6812 -7456 0
2035 -7372 7428 0
2035 -6812 7428 0
2035 -7372 -7456 0
-2035 6812 7372 0
-2035 -7428 7456 0
2036 -1085 -2033 0
2036 -7229 1085 0
-2036 -1085 2033 0
-2036 7229 1085 0
2037 -1087 -2033 0
2037 -7230 1087 0
-2037 -1087 2033 0
-2037 7230 1087 0
2038 -1090 -2033 0
2038 -7231 1090 0
-2038 -1090 2033 0
-2038 7231 1090 0
2039 -1092 -2033 0
2039 -7232 1092 0
-2039 -1092 2033 0
-2039 7232 1092 0
2040 -1094 -2033 0
2040 -7233 1094 0
-2040 -1094 2033 0
-2040 7233 1094 0
2041 -1096 -2033 0
2041 -7234 1096 0
-2041 -1096 2033 0
-2041 7234 1096 0
2042 -1098 -2033 0
2042 -7235 1098 0
-2042 -1098 2033 0
-2042 7235 1098 0
2043 -1082 -2044 0
2043 -7236 1082 0
-2043 -1082 2044 0
-2043 7236 1082 0
2044 -7542 9039 -2045 0
2044 -7542 -7618 -9039 0
-2044 7542 0
-2044 9039 2045 0
-2044 7618 -9039 0
2045 -6815 -2046 0
2045 579 -2046 0
-2045 2046 0
-2045 6815 -579 0
2046 -6814 -7457 0
2046 -7372 7428 0
2046 -6814 7428 0
2046 -7372 -7457 0
-2046 6814 7372 0
-2046 -7428 7457 0
2047 -1085 -2044 0
2047 -7237 1085 0
-2047 -1085 2044 0
-2047 7237 1085 0
2048 -1087 -2044 0
2048 -7238 1087 0
-2048 -1087 2044 0
-2048 7238 1087 0
2049 -1090 -2044 0
2049 -7239 1090 0
-2049 -1090 2044 0
-2049 7239 1090 0
2050 -1092 -2044 0
2050 -7240 1092 0
-2050 -1092 2044 0
-2050 7240 1092 0
2051 -1094 -2044 0
2051 -7241 1094 0
-2051 -1094 2044 0
-2051 7241 1094 0
2052 -1096 -2044 0
2052 -7242 1096 0
-2052 -1096 2044 0
-2052 7242 1096 0
2053 -1098 -2044 0
2053 -7243 1098 0
-2053 -1098 2044 0
-2053 7243 1098 0
2054 -1082 -2055 0
2054 -7244 1082 0
-2054 -1082 2055 0
-2054 7244 1082 0
2055 -7542 9039 -2056 0
2055 -7542 -7619 -9039 0
-2055 7542 0
-2055 9039 2056 0
-2055 7619 -9039 0
2056 -6817 -2057 0
2056 579 -2057 0
-2056 2057 0
-2056 6817 -579 0
2057 -6816 -7458 0
2057 -7372 7428 0
2057 -6816 7428 0
2057 -7372 -7458 0
-2057 6816 7372 0
-2057 -7428 7458 0
2058 -1085 -2055 0
2058 -7245 1085 0
-2058 -1085 2055 0
-2058 7245 1085 0
2059 -1087 -2055 0
2059 -7246 1087 0
-2059 -1087 2055 0
-2059 7246 1087 0
2060 -1090 -2055 0
2060 -7247 1090 0
-2060 -1090 2055 0
-2060 7247 1090 0
2061 -1092 -2055 0
2061 -7248 1092 0
-2061 -1092 2055 0
-2061 7248 1092 0
2062 -1094 -2055 0
2062 -7249 1094 0
-2062 -1094 2055 0
-2062 7249 1094 0
2063 -1096 -2055 0
2063 -7250 1096 0
-2063 -1096 2055 0
-2063 7250 1096 0
2064 -1098 -2055 0
2064 -7251 1098 0
-2064 -1098 2055 0
-2064 7251 1098 0
2065 -1082 -2066 0
2065 -7252 1082 0
-2065 -1082 2066 0
-2065 7252 1082 0
2066 -7542 9039 -2067 0
2066 -7542 -7620 -9039 0
-2066 7542 0
-2066 9039 2067 0
-2066 7620 -9039 0
2067 -6819 -2068 0
2067 579 -2068 0
-2067 2068 0
-2067 6819 -579 0
2068 -6818 -7459 0
2068 -7372 7428 0
2068 -6818 7428 0
2068 -7372 -7459 0
-2068 6818 7372 0
-2068 -7428 7459 0
2069 -1085 -2066 0
2069 -7253 1085 0
-2069 -1085 2066 0
-2069 7253 1085 0
2070 -1087 -2066 0
2070 -7254 1087 0
-2070 -1087 2066 0
-2070 7254 1087 0
2071 -1090 -2066 0
2071 -7255 1090 0
-2071 -1090 2066 0
-2071 7255 1090 0
2072 -1092 -2066 0
2072 -7256 1092 0
-2072 -1092 2066 0
-2072 7256 1092 0
2073 -1094 -2066 0
2073 -7257 1094 0
-2073 -1094 2066 0
-2073 7257 1094 0
2074 -1096 -2066 0
2074 -7258 1096 0
-2074 -1096 2066 0
-2074 7258 1096 0
2075 -1098 -2066 0
2075 -7259 1098 0
-2075 -1098 2066 0
-2075 7259 1098 0
2076 -1082 -2077 0
2076 -7260 1082 0
-2076 -1082 2077 0
-2076 7260 1082 0
2077 -7542 9039 -2078 0
2077 -7542 -7621 -9039 0
-2077 7542 0
-2077 9039 2078 0
-2077 7621 -9039 0
2078 -6821 -2079 0
2078 579 -2079 0
-2078 2079 0
-2078 6821 -579 0
2079 -6820 -7460 0
2079 -7372 7428 0
2079 -6820 7428 0
2079 -7372 -7460 0
-2079 6820 7372 0
-2079 -7428 7460 0
2080 -1085 -2077 0
2080 -7261 1085 0
-2080 -1085 2077 0
-2080 7261 1085 0
2081 -1087 -2077 0
2081 -7262 1087 0
-2081 -1087 2077 0
-2081 7262 1087 0
2082 -1090 -2077 0
2082 -7263 1090 0
-2082 -1090 2077 0
-2082 7263 1090 0
2083 -1092 -2077 0
2083 -7264 1092 0
-2083 -1092 2077 0
-2083 7264 1092 0
2084 -1094 -2077 0
2084 -7265 1094 0
-2084 -1094 2077 0
-2084 7265 1094 0
2085 -1096 -2077 0
2085 -7266 1096 0
-2085 -1096 2077 0
-2085 7266 1096 0
2086 -1098 -2077 0
2086 -7267 1098 0
-2086 -1098 2077 0
-2086 7267 1098 0
2087 -1082 -2088 0
2087 -7268 1082 0
-2087 -1082 2088 0
-2087 7268 1082 0
2088 -7542 9039 -2089 0
2088 -7542 -7622 -9039 0
-2088 7542 0
-2088 9039 2089 0
-2088 7622 -9039 0
2089 -6823 -2090 0
2089 579 -2090 0
-2089 2090 0
-2089 6823 -579 0
2090 -6822 -7461 0
2090 -7372 7428 0
2090 -6822 7428 0
2090 -7372 -7461 0
-2090 6822 7372 0
-2090 -7428 7461 0
2091 -1085 -2088 0
2091 -7269 1085 0
-2091 -1085 2088 0
-2091 7269 1085 0
2092 -1087 -2088 0
2092 -7270 1087 0
-2092 -1087 2088 0
-2092 7270 1087 0
2093 -1090 -2088 0
2093 -7271 1090 0
-2093 -1090 2088 0
-2093 7271 1090 0
2094 -1092 -2088 0
2094 -7272 1092 0
-2094 -1092 2088 0
-2094 7272 1092 0
2095 -1094 -2088 0
2095 -7273 1094 0
-2095 -1094 2088 0
-2095 7273 1094 0
2096 -1096 -2088 0
2096 -7274 1096 0
-2096 -1096 2088 0
-2096 7274 1096 0
2097 -1098 -2088 0
2097 -7275 1098 0
-2097 -1098 2088 0
-2097 7275 1098 0
2098 -5823 -6105 5 0
-2098 5823 0
-2098 6105 0
-2098 -5 0
-2099 7283 2100 0
-2099 7560 -2100 0
2099 -7560 -2100 0
2099 -7283 2100 0
2100 7302 7303 -7304 -7581 0
-2100 -7302 0
-2100 7581 0
-2100 7304 0
-2100 -7303 0
-2101 7284 2102 0
-2101 7560 -2102 0
2101 -7560 -2102 0
2101 -7284 2102 0
2102 7304 -2103 0
-2102 -7304 0
-2102 2103 0
2103 -7303 -2104 0
-2103 7303 0
-2103 2104 0
2104 -7302 -7581 0
-2104 7302 0
-2104 7581 0
-2105 7285 2106 0
-2105 7560 -2106 0
2105 -7560 -2106 0
2105 -7285 2106 0
2106 -7304 -2103 0
-2106 7304 0
-2106 2103 0
-2107 7286 2108 0
-2107 7560 -2108 0
2107 -7560 -2108 0
2107 -7286 2108 0
2108 7302 7303 7304 -7581 0
-2108 7581 0
-2108 -7304 0
-2108 -7302 0
-2108 -7303 0
-2109 7287 2110 0
-2109 7560 -2110 0
2109 -7560 -2110 0
2109 -7287 2110 0
2110 7302 -7303 7304 -7581 0
-2110 7303 0
-2110 -7304 0
-2110 -7302 0
-2110 7581 0
-2111 7288 2112 0
-2111 7560 -2112 0
2111 -7560 -2112 0
2111 -7288 2112 0
2112 7304 -2113 0
-2112 -7304 0
-2112 2113 0
2113 7303 -2104 0
-2113 -7303 0
-2113 2104 0
-2114 7289 2115 0
-2114 7560 -2115 0
2114 -7560 -2115 0
2114 -7289 2115 0
2115 -7304 -2113 0
-2115 7304 0
-2115 2113 0
-2116 7290 2117 0
-2116 7560 -2117 0
2116 -7560 -2117 0
2116 -7290 2117 0
2117 7302 -7303 -7304 -7581 0
-2117 -7302 0
-2117 7581 0
-2117 7304 0
-2117 7303 0
2118 6039 -51 323 0
-2118 -6039 0
-2118 51 0
-2118 -323 0
-2119 2118 2120 0
2119 -2118 0
2119 -2120 0
2120 32 -51 0
-2120 -32 0
-2120 51 0
2121 7293 -7558 -2122 0
2121 -7293 -7558 2122 0
-2121 7558 0
-2121 -7293 -2122 0
-2121 7293 2122 0
2122 7579 -2123 -2126 0
-2122 2126 0
-2122 2123 0
-2122 -7579 0
-2123 7296 7529 0
-2123 7296 -2124 0
2123 -7296 0
2123 -7529 2124 0
2124 -7557 -2125 0
-2124 7557 0
-2124 2125 0
2125 7555 -7556 0
-2125 -7555 0
-2125 7556 0
2126 -7561 7562 0
-2126 7561 0
-2126 -7562 0
2127 7294 -7558 -2128 0
2127 -7294 -7558 2128 0
-2127 7558 0
-2127 -7294 -2128 0
-2127 7294 2128 0
2128 7293 -2122 0
-2128 -7293 0
-2128 2122 0
2129 -580 2130 0
-2129 580 0
-2129 -2130 0
2130 -7294 7295 -7558 0
2130 7295 -7558 2128 0
2130 7294 -7295 -7558 -2128 0
-2130 -7294 -7295 0
-2130 -7295 2128 0
-2130 7558 0
-2130 7294 7295 -2128 0
2131 -7559 -7561 7562 0
-2131 7559 0
-2131 7561 0
-2131 -7562 0
2132 7568 -2133 0
-2132 -7568 0
-2132 2133 0
-2133 7297 7298 0
-2133 7298 7566 2134 0
2133 -7298 0
2133 -7297 -2134 0
2133 -7297 -7566 0
-2134 7565 7567 0
2134 -7565 0
2134 -7567 0
2135 -7568 -2136 0
-2135 7568 0
-2135 2136 0
2136 -6119 7299 0
-2136 6119 0
-2136 -7299 0
-2137 7299 2139 0
-2137 7556 2138 2139 0
2137 -2139 0
2137 -7299 -2138 0
2137 -7299 -7556 0
2138 7555 -7557 0
-2138 -7555 0
-2138 7557 0
2139 2123 -2140 0
-2139 -2123 0
-2139 2140 0
2140 -7555 7556 0
-2140 7555 0
-2140 -7556 0
2141 -7300 2125 0
2141 7557 -2125 0
-2141 -7557 -2125 0
-2141 7300 2125 0
-2142 7301 2131 0
-2142 -6121 580 2131 0
2142 -2131 0
2142 -7301 -580 0
2142 6121 -7301 0
2143 7302 -7581 0
2143 -7302 7581 0
-2143 -7302 -7581 0
-2143 7302 7581 0
-2144 -7303 -2104 0
-2144 7303 2104 0
2144 7303 -2104 0
2144 -7303 2104 0
2145 7304 -2103 0
2145 -7304 2103 0
-2145 -7304 -2103 0
-2145 7304 2103 0
2146 7305 -2147 0
-2146 -7305 0
-2146 2147 0
2147 8245 -8262 0
2147 -8262 2148 0
-2147 8262 0
-2147 -8245 -2148 0
2148 -8246 8251 0
-2148 8246 0
-2148 -8251 0
2149 7305 -8263 -2147 0
-2149 2147 0
-2149 8263 0
-2149 -7305 0
-2150 2151 2152 0
2150 -2151 0
2150 -2152 0
2151 -7307 -2147 0
-2151 7307 0
-2151 2147 0
2152 -2153 -2154 0
-2152 2153 0
-2152 2154 0
2153 -7308 -2147 0
-2153 7308 0
-2153 2147 0
2154 -7530 -2149 0
-2154 7530 0
-2154 2149 0
2155 2153 -2154 0
2155 -2153 2154 0
-2155 -2153 -2154 0
-2155 2153 2154 0
-2156 7535 7536 7539 0
2156 -7535 0
2156 -7539 0
2156 -7536 0
-2157 7310 2158 0
-2157 -2158 -2162 -2198 0
-2157 -2158 2162 2198 0
2157 -7310 2158 0
2157 -2158 -2162 2198 0
2157 -2158 2162 -2198 0
-2158 2159 2160 0
2158 -2159 0
2158 -2160 0
2159 7309 -7539 0
2159 7309 -7536 0
2159 7309 -7535 0
-2159 -7309 0
-2159 7535 7536 7539 0
-2160 8354 2161 0
2160 -8354 0
2160 -2161 0
-2161 8355 8356 8357 8358 0
2161 -8358 0
2161 -8357 0
2161 -8355 0
2161 -8356 0
-2162 -7311 -2163 0
-2162 7311 2163 0
2162 7311 -2163 0
2162 -7311 2163 0
2163 2164 -2185 2192 2195 0
-2163 -2195 0
-2163 -2164 0
-2163 -2192 0
-2163 2185 0
-2164 2165 2172 2178 2182 0
2164 -2182 0
2164 -2165 0
2164 -2178 0
2164 -2172 0
-2165 -8836 2166 0
-2165 -8831 2169 0
-2165 -8831 -8836 0
-2165 2166 2169 0
2165 8836 -2169 0
2165 8831 -2166 0
2166 -2167 -2168 0
-2166 2167 0
-2166 2168 0
2167 -6124 -8359 0
-2167 6124 0
-2167 8359 0
2168 -8361 -8362 0
-2168 8361 0
-2168 8362 0
2169 -2170 2171 0
-2169 2170 0
-2169 -2171 0
2170 -8361 8362 0
-2170 8361 0
-2170 -8362 0
-2171 8359 8360 0
2171 -8359 0
2171 -8360 0
-2172 -8841 2173 0
-2172 -8838 2175 0
-2172 -8838 -8841 0
-2172 2173 2175 0
2172 8841 -2175 0
2172 8838 -2173 0
2173 -2170 -2174 0
-2173 2170 0
-2173 2174 0
2174 8359 -8360 0
-2174 -8359 0
-2174 8360 0
2175 -2176 -2177 0
-2175 2176 0
-2175 2177 0
2176 8361 -8362 0
-2176 -8361 0
-2176 8362 0
2177 6124 -8359 0
-2177 -6124 0
-2177 8359 0
-2178 -8842 2179 0
-2178 -8833 2181 0
-2178 -8833 -8842 0
-2178 2179 2181 0
2178 8842 -2181 0
2178 8833 -2179 0
2179 -2177 2180 0
-2179 2177 0
-2179 -2180 0
-2180 8361 8362 0
2180 -8361 0
2180 -8362 0
2181 -2174 -2176 0
-2181 2174 0
-2181 2176 0
-2182 -8837 2183 0
-2182 -8839 2184 0
-2182 -8837 -8839 0
-2182 2183 2184 0
2182 8837 -2184 0
2182 8839 -2183 0
2183 -2167 -2170 0
-2183 2167 0
-2183 2170 0
2184 -2170 -2177 0
-2184 2170 0
-2184 2177 0
2185 -8840 -2186 2189 0
2185 -2186 2189 2191 0
-2185 2186 0
-2185 -2189 0
-2185 8840 -2191 0
2186 -8835 -2187 0
2186 -8832 2188 0
2186 -8832 -8835 0
2186 -2187 2188 0
-2186 8835 -2188 0
-2186 8832 2187 0
-2187 2171 2180 0
2187 -2171 0
2187 -2180 0
2188 -2167 2180 0
-2188 2167 0
-2188 -2180 0
2189 8834 -2190 0
-2189 -8834 0
-2189 2190 0
2190 -2174 2180 0
-2190 2174 0
-2190 -2180 0
2191 2171 -2176 0
-2191 -2171 0
-2191 2176 0
-2192 -8845 2193 0
-2192 -8843 2194 0
-2192 -8843 -8845 0
-2192 2193 2194 0
2192 8845 -2194 0
2192 8843 -2193 0
2193 -2167 -2176 0
-2193 2167 0
-2193 2176 0
2194 -2168 -2177 0
-2194 2168 0
-2194 2177 0
-2195 -8844 2196 0
-2195 -8846 2197 0
-2195 -8844 -8846 0
-2195 2196 2197 0
2195 8844 -2197 0
2195 8846 -2196 0
2196 -2168 -2174 0
-2196 2168 0
-2196 2174 0
2197 -2168 2171 0
-2197 2168 0
-2197 -2171 0
2198 2199 -2211 0
-2198 -2199 0
-2198 2211 0
2199 -7312 2200 0
-2199 7312 0
-2199 -2200 0
2200 -2201 2206 2209 2210 0
-2200 -2210 0
-2200 2201 0
-2200 -2209 0
-2200 -2206 0
2201 2202 -2203 2204 2205 0
-2201 -2205 0
-2201 -2202 0
-2201 -2204 0
-2201 2203 0
-2202 -8820 2166 0
-2202 -8815 2169 0
-2202 -8815 -8820 0
-2202 2166 2169 0
2202 8820 -2169 0
2202 8815 -2166 0
2203 -8830 -2187 0
2203 -8816 2196 0
2203 -8816 -8830 0
2203 -2187 2196 0
-2203 8830 -2196 0
-2203 8816 2187 0
-2204 -8823 2175 0
-2204 -8825 2183 0
-2204 -8823 -8825 0
-2204 2175 2183 0
2204 8823 -2183 0
2204 8825 -2175 0
-2205 -8827 2190 0
-2205 -8818 2193 0
-2205 -8818 -8827 0
-2205 2190 2193 0
2205 8827 -2193 0
2205 8818 -2190 0
-2206 -8826 2207 2208 0
-2206 2181 2207 2208 0
2206 -2207 0
2206 -2208 0
2206 8826 -2181 0
-2207 -8829 2191 0
-2207 -8824 2194 0
-2207 -8824 -8829 0
-2207 2191 2194 0
2207 8829 -2194 0
2207 8824 -2191 0
2208 8821 -2184 0
-2208 -8821 0
-2208 2184 0
-2209 -8819 2173 0
-2209 -8822 2188 0
-2209 -8819 -8822 0
-2209 2173 2188 0
2209 8819 -2188 0
2209 8822 -2173 0
-2210 -8828 2179 0
-2210 -8817 2197 0
-2210 -8817 -8828 0
-2210 2179 2197 0
2210 8828 -2197 0
2210 8817 -2179 0
-2211 2212 2213 0
2211 -2212 0
2211 -2213 0
-2212 -7312 -2200 0
-2212 7312 2200 0
2212 7312 -2200 0
2212 -7312 2200 0
2213 2214 -2226 0
-2213 -2214 0
-2213 2226 0
2214 -7313 2215 0
-2214 7313 0
-2214 -2215 0
2215 2216 2221 -2224 2225 0
-2215 -2225 0
-2215 -2216 0
-2215 2224 0
-2215 -2221 0
-2216 2217 2218 2219 2220 0
2216 -2220 0
2216 -2217 0
2216 -2219 0
2216 -2218 0
-2217 -8806 2166 0
-2217 -8799 2173 0
-2217 -8799 -8806 0
-2217 2166 2173 0
2217 8806 -2173 0
2217 8799 -2166 0
-2218 -8811 2188 0
-2218 -8803 2193 0
-2218 -8803 -8811 0
-2218 2188 2193 0
2218 8811 -2193 0
2218 8803 -2188 0
-2219 -8814 2190 0
-2219 -8802 2196 0
-2219 -8802 -8814 0
-2219 2190 2196 0
2219 8814 -2196 0
2219 8802 -2190 0
-2220 -8812 2181 0
-2220 -8810 2197 0
-2220 -8810 -8812 0
-2220 2181 2197 0
2220 8812 -2197 0
2220 8810 -2181 0
-2221 -8801 2222 2223 0
-2221 2179 2222 2223 0
2221 -2222 0
2221 -2223 0
2221 8801 -2179 0
-2222 -8813 2175 0
-2222 -8809 2194 0
-2222 -8809 -8813 0
-2222 2175 2194 0
2222 8813 -2194 0
2222 8809 -2175 0
2223 8804 -2169 0
-2223 -8804 0
-2223 2169 0
2224 -8808 -2187 0
2224 -8800 2191 0
2224 -8800 -8808 0
2224 -2187 2191 0
-2224 8808 -2191 0
-2224 8800 2187 0
-2225 -8805 2183 0
-2225 -8807 2184 0
-2225 -8805 -8807 0
-2225 2183 2184 0
2225 8805 -2184 0
2225 8807 -2183 0
-2226 2227 2228 0
2226 -2227 0
2226 -2228 0
-2227 -7313 -2215 0
-2227 7313 2215 0
2227 7313 -2215 0
2227 -7313 2215 0
2228 2229 -2241 0
-2228 -2229 0
-2228 2241 0
2229 -7314 2230 0
-2229 7314 0
-2229 -2230 0
2230 2231 -2236 2239 2240 0
-2230 -2240 0
-2230 -2231 0
-2230 -2239 0
-2230 2236 0
-2231 2232 2233 2234 2235 0
2231 -2235 0
2231 -2232 0
2231 -2234 0
2231 -2233 0
-2232 -8796 2166 0
-2232 -8783 2197 0
-2232 -8783 -8796 0
-2232 2166 2197 0
2232 8796 -2197 0
2232 8783 -2166 0
-2233 -8792 2183 0
-2233 -8791 2191 0
-2233 -8791 -8792 0
-2233 2183 2191 0
2233 8792 -2191 0
2233 8791 -2183 0
-2234 -8795 2175 0
-2234 -8793 2193 0
-2234 -8793 -8795 0
-2234 2175 2193 0
2234 8795 -2193 0
2234 8793 -2175 0
-2235 -8798 2188 0
-2235 -8787 2196 0
-2235 -8787 -8798 0
-2235 2188 2196 0
2235 8798 -2196 0
2235 8787 -2188 0
2236 -8785 -2237 2238 0
2236 2179 -2237 2238 0
-2236 2237 0
-2236 -2238 0
-2236 8785 -2179 0
2237 -8784 2184 0
2237 -8789 -2187 0
2237 -8784 -8789 0
2237 2184 -2187 0
-2237 8784 2187 0
-2237 8789 -2184 0
2238 8788 -2169 0
-2238 -8788 0
-2238 2169 0
-2239 -8797 2190 0
-2239 -8786 2194 0
-2239 -8786 -8797 0
-2239 2190 2194 0
2239 8797 -2194 0
2239 8786 -2190 0
-2240 -8794 2173 0
-2240 -8790 2181 0
-2240 -8790 -8794 0
-2240 2173 2181 0
2240 8794 -2181 0
2240 8790 -2173 0
-2241 2242 2243 0
2241 -2242 0
2241 -2243 0
-2242 -7314 -2230 0
-2242 7314 2230 0
2242 7314 -2230 0
2242 -7314 2230 0
2243 2244 -2256 0
-2243 -2244 0
-2243 2256 0
2244 -7315 2245 0
-2244 7315 0
-2244 -2245 0
2245 2246 2251 2254 -2255 0
-2245 2255 0
-2245 -2246 0
-2245 -2254 0
-2245 -2251 0
-2246 2247 2248 2249 2250 0
2246 -2250 0
2246 -2247 0
2246 -2249 0
2246 -2248 0
-2247 -8769 2166 0
-2247 -8767 2179 0
-2247 -8767 -8769 0
-2247 2166 2179 0
2247 8769 -2179 0
2247 8767 -2166 0
-2248 -8781 2183 0
-2248 -8775 2194 0
-2248 -8775 -8781 0
-2248 2183 2194 0
2248 8781 -2194 0
2248 8775 -2183 0
-2249 -8776 2181 0
-2249 -8778 2191 0
-2249 -8776 -8778 0
-2249 2181 2191 0
2249 8776 -2191 0
2249 8778 -2181 0
-2250 -8782 2188 0
-2250 -8771 2196 0
-2250 -8771 -8782 0
-2250 2188 2196 0
2250 8782 -2196 0
2250 8771 -2188 0
-2251 -8772 2252 2253 0
-2251 2169 2252 2253 0
2251 -2252 0
2251 -2253 0
2251 8772 -2169 0
-2252 -8780 2184 0
-2252 -8773 2197 0
-2252 -8773 -8780 0
-2252 2184 2197 0
2252 8780 -2197 0
2252 8773 -2184 0
2253 8774 -2173 0
-2253 -8774 0
-2253 2173 0
-2254 -8779 2190 0
-2254 -8770 2193 0
-2254 -8770 -8779 0
-2254 2190 2193 0
2254 8779 -2193 0
2254 8770 -2190 0
2255 -8768 2175 0
2255 -8777 -2187 0
2255 -8768 -8777 0
2255 2175 -2187 0
-2255 8768 2187 0
-2255 8777 -2175 0
-2256 2257 2258 0
2256 -2257 0
2256 -2258 0
-2257 -7315 -2245 0
-2257 7315 2245 0
2257 7315 -2245 0
2257 -7315 2245 0
2258 2259 -2271 0
-2258 -2259 0
-2258 2271 0
2259 -7316 2260 0
-2259 7316 0
-2259 -2260 0
2260 -2261 2266 2269 2270 0
-2260 -2270 0
-2260 2261 0
-2260 -2269 0
-2260 -2266 0
2261 2262 -2263 2264 2265 0
-2261 -2265 0
-2261 -2262 0
-2261 -2264 0
-2261 2263 0
-2262 -8756 2166 0
-2262 -8751 2169 0
-2262 -8751 -8756 0
-2262 2166 2169 0
2262 8756 -2169 0
2262 8751 -2166 0
2263 -8765 -2187 0
2263 -8752 2194 0
2263 -8752 -8765 0
2263 -2187 2194 0
-2263 8765 -2194 0
-2263 8752 2187 0
-2264 -8763 2188 0
-2264 -8755 2193 0
-2264 -8755 -8763 0
-2264 2188 2193 0
2264 8763 -2193 0
2264 8755 -2188 0
-2265 -8766 2191 0
-2265 -8760 2196 0
-2265 -8760 -8766 0
-2265 2191 2196 0
2265 8766 -2196 0
2265 8760 -2191 0
-2266 -8759 2267 2268 0
-2266 2183 2267 2268 0
2266 -2267 0
2266 -2268 0
2266 8759 -2183 0
-2267 -8764 2181 0
-2267 -8762 2197 0
-2267 -8762 -8764 0
-2267 2181 2197 0
2267 8764 -2197 0
2267 8762 -2181 0
2268 8754 -2190 0
-2268 -8754 0
-2268 2190 0
-2269 -8757 2173 0
-2269 -8758 2184 0
-2269 -8757 -8758 0
-2269 2173 2184 0
2269 8757 -2184 0
2269 8758 -2173 0
-2270 -8753 2175 0
-2270 -8761 2179 0
-2270 -8753 -8761 0
-2270 2175 2179 0
2270 8753 -2179 0
2270 8761 -2175 0
-2271 2272 2273 0
2271 -2272 0
2271 -2273 0
-2272 -7316 -2260 0
-2272 7316 2260 0
2272 7316 -2260 0
2272 -7316 2260 0
2273 2274 -2286 0
-2273 -2274 0
-2273 2286 0
2274 -7317 2275 0
-2274 7317 0
-2274 -2275 0
2275 2276 -2281 2284 2285 0
-2275 -2285 0
-2275 -2276 0
-2275 -2284 0
-2275 2281 0
-2276 2277 2278 2279 2280 0
2276 -2280 0
2276 -2277 0
2276 -2279 0
2276 -2278 0
-2277 -8742 2166 0
-2277 -8735 2173 0
-2277 -8735 -8742 0
-2277 2166 2173 0
2277 8742 -2173 0
2277 8735 -2166 0
-2278 -8749 2169 0
-2278 -8740 2194 0
-2278 -8740 -8749 0
-2278 2169 2194 0
2278 8749 -2194 0
2278 8740 -2169 0
-2279 -8739 2179 0
-2279 -8737 2188 0
-2279 -8737 -8739 0
-2279 2179 2188 0
2279 8739 -2188 0
2279 8737 -2179 0
-2280 -8750 2190 0
-2280 -8738 2196 0
-2280 -8738 -8750 0
-2280 2190 2196 0
2280 8750 -2196 0
2280 8738 -2190 0
2281 -8736 2282 2283 0
2281 -2187 2282 2283 0
-2281 -2282 0
-2281 -2283 0
-2281 8736 2187 0
-2282 -8744 2175 0
-2282 -8745 2191 0
-2282 -8744 -8745 0
-2282 2175 2191 0
2282 8744 -2191 0
2282 8745 -2175 0
2283 8741 -2184 0
-2283 -8741 0
-2283 2184 0
-2284 -8747 2181 0
-2284 -8746 2193 0
-2284 -8746 -8747 0
-2284 2181 2193 0
2284 8747 -2193 0
2284 8746 -2181 0
-2285 -8748 2183 0
-2285 -8743 2197 0
-2285 -8743 -8748 0
-2285 2183 2197 0
2285 8748 -2197 0
2285 8743 -2183 0
-2286 2287 2288 0
2286 -2287 0
2286 -2288 0
-2287 -7317 -2275 0
-2287 7317 2275 0
2287 7317 -2275 0
2287 -7317 2275 0
2288 2289 -2301 0
-2288 -2289 0
-2288 2301 0
2289 -7318 2290 0
-2289 7318 0
-2289 -2290 0
2290 2291 -2296 2299 2300 0
-2290 -2300 0
-2290 -2291 0
-2290 -2299 0
-2290 2296 0
-2291 2292 2293 2294 2295 0
2291 -2295 0
2291 -2292 0
2291 -2294 0
2291 -2293 0
-2292 -8724 2166 0
-2292 -8719 2169 0
-2292 -8719 -8724 0
-2292 2166 2169 0
2292 8724 -2169 0
2292 8719 -2166 0
-2293 -8732 2188 0
-2293 -8723 2197 0
-2293 -8723 -8732 0
-2293 2188 2197 0
2293 8732 -2197 0
2293 8723 -2188 0
-2294 -8730 2173 0
-2294 -8726 2181 0
-2294 -8726 -8730 0
-2294 2173 2181 0
2294 8730 -2181 0
2294 8726 -2173 0
-2295 -8734 2183 0
-2295 -8727 2196 0
-2295 -8727 -8734 0
-2295 2183 2196 0
2295 8734 -2196 0
2295 8727 -2183 0
2296 -8720 2297 2298 0
2296 -2187 2297 2298 0
-2296 -2297 0
-2296 -2298 0
-2296 8720 2187 0
-2297 -8728 2184 0
-2297 -8725 2191 0
-2297 -8725 -8728 0
-2297 2184 2191 0
2297 8728 -2191 0
2297 8725 -2184 0
2298 8722 -2190 0
-2298 -8722 0
-2298 2190 0
-2299 -8731 2179 0
-2299 -8721 2193 0
-2299 -8721 -8731 0
-2299 2179 2193 0
2299 8731 -2193 0
2299 8721 -2179 0
-2300 -8733 2175 0
-2300 -8729 2194 0
-2300 -8729 -8733 0
-2300 2175 2194 0
2300 8733 -2194 0
2300 8729 -2175 0
-2301 2302 2303 0
2301 -2302 0
2301 -2303 0
-2302 -7318 -2290 0
-2302 7318 2290 0
2302 7318 -2290 0
2302 -7318 2290 0
2303 2304 -2316 0
-2303 -2304 0
-2303 2316 0
2304 -7319 2305 0
-2304 7319 0
-2304 -2305 0
2305 -2306 2311 2314 2315 0
-2305 -2315 0
-2305 2306 0
-2305 -2314 0
-2305 -2311 0
2306 2307 2308 2309 -2310 0
-2306 2310 0
-2306 -2307 0
-2306 -2309 0
-2306 -2308 0
-2307 -8709 2166 0
-2307 -8703 2184 0
-2307 -8703 -8709 0
-2307 2166 2184 0
2307 8709 -2184 0
2307 8703 -2166 0
-2308 -8718 2183 0
-2308 -8711 2196 0
-2308 -8711 -8718 0
-2308 2183 2196 0
2308 8718 -2196 0
2308 8711 -2183 0
-2309 -8715 2179 0
-2309 -8705 2193 0
-2309 -8705 -8715 0
-2309 2179 2193 0
2309 8715 -2193 0
2309 8705 -2179 0
2310 -8704 2181 0
2310 -8714 -2187 0
2310 -8704 -8714 0
2310 2181 -2187 0
-2310 8704 2187 0
-2310 8714 -2181 0
-2311 -8717 2312 2313 0
-2311 2194 2312 2313 0
2311 -2312 0
2311 -2313 0
2311 8717 -2194 0
-2312 -8712 2175 0
-2312 -8713 2191 0
-2312 -8712 -8713 0
-2312 2175 2191 0
2312 8712 -2191 0
2312 8713 -2175 0
2313 8707 -2188 0
-2313 -8707 0
-2313 2188 0
-2314 -8716 2190 0
-2314 -8706 2197 0
-2314 -8706 -8716 0
-2314 2190 2197 0
2314 8716 -2197 0
2314 8706 -2190 0
-2315 -8710 2169 0
-2315 -8708 2173 0
-2315 -8708 -8710 0
-2315 2169 2173 0
2315 8710 -2173 0
2315 8708 -2169 0
-2316 2317 2318 0
2316 -2317 0
2316 -2318 0
-2317 -7319 -2305 0
-2317 7319 2305 0
2317 7319 -2305 0
2317 -7319 2305 0
2318 2319 -2331 0
-2318 -2319 0
-2318 2331 0
2319 -7320 2320 0
-2319 7320 0
-2319 -2320 0
2320 2321 -2326 2329 2330 0
-2320 -2330 0
-2320 -2321 0
-2320 -2329 0
-2320 2326 0
-2321 2322 2323 2324 2325 0
2321 -2325 0
2321 -2322 0
2321 -2324 0
2321 -2323 0
-2322 -8693 2166 0
-2322 -8687 2184 0
-2322 -8687 -8693 0
-2322 2166 2184 0
2322 8693 -2184 0
2322 8687 -2166 0
-2323 -8700 2194 0
-2323 -8701 2197 0
-2323 -8700 -8701 0
-2323 2194 2197 0
2323 8700 -2197 0
2323 8701 -2194 0
-2324 -8699 2188 0
-2324 -8691 2193 0
-2324 -8691 -8699 0
-2324 2188 2193 0
2324 8699 -2193 0
2324 8691 -2188 0
-2325 -8695 2169 0
-2325 -8692 2183 0
-2325 -8692 -8695 0
-2325 2169 2183 0
2325 8695 -2183 0
2325 8692 -2169 0
2326 -8688 2327 2328 0
2326 -2187 2327 2328 0
-2326 -2327 0
-2326 -2328 0
-2326 8688 2187 0
-2327 -8698 2175 0
-2327 -8697 2181 0
-2327 -8697 -8698 0
-2327 2175 2181 0
2327 8698 -2181 0
2327 8697 -2175 0
2328 8689 -2179 0
-2328 -8689 0
-2328 2179 0
-2329 -8690 2173 0
-2329 -8694 2190 0
-2329 -8690 -8694 0
-2329 2173 2190 0
2329 8690 -2190 0
2329 8694 -2173 0
-2330 -8702 2191 0
-2330 -8696 2196 0
-2330 -8696 -8702 0
-2330 2191 2196 0
2330 8702 -2196 0
2330 8696 -2191 0
-2331 2332 2333 0
2331 -2332 0
2331 -2333 0
-2332 -7320 -2320 0
-2332 7320 2320 0
2332 7320 -2320 0
2332 -7320 2320 0
2333 2334 -2346 0
-2333 -2334 0
-2333 2346 0
2334 -7321 2335 0
-2334 7321 0
-2334 -2335 0
2335 2336 -2341 2344 2345 0
-2335 -2345 0
-2335 -2336 0
-2335 -2344 0
-2335 2341 0
-2336 2337 2338 2339 2340 0
2336 -2340 0
2336 -2337 0
2336 -2339 0
2336 -2338 0
-2337 -8686 2166 0
-2337 -8671 2196 0
-2337 -8671 -8686 0
-2337 2166 2196 0
2337 8686 -2196 0
2337 8671 -2166 0
-2338 -8680 2181 0
-2338 -8682 2191 0
-2338 -8680 -8682 0
-2338 2181 2191 0
2338 8680 -2191 0
2338 8682 -2181 0
-2339 -8674 2173 0
-2339 -8678 2190 0
-2339 -8674 -8678 0
-2339 2173 2190 0
2339 8674 -2190 0
2339 8678 -2173 0
-2340 -8683 2188 0
-2340 -8675 2193 0
-2340 -8675 -8683 0
-2340 2188 2193 0
2340 8683 -2193 0
2340 8675 -2188 0
2341 -8685 2342 -2343 0
2341 2194 2342 -2343 0
-2341 -2342 0
-2341 2343 0
-2341 8685 -2194 0
-2342 -8673 2175 0
-2342 -8681 2179 0
-2342 -8673 -8681 0
-2342 2175 2179 0
2342 8673 -2179 0
2342 8681 -2175 0
-2343 8672 2187 0
2343 -8672 0
2343 -2187 0
-2344 -8684 2184 0
-2344 -8677 2197 0
-2344 -8677 -8684 0
-2344 2184 2197 0
2344 8684 -2197 0
2344 8677 -2184 0
-2345 -8679 2169 0
-2345 -8676 2183 0
-2345 -8676 -8679 0
-2345 2169 2183 0
2345 8679 -2183 0
2345 8676 -2169 0
-2346 2347 2348 0
2346 -2347 0
2346 -2348 0
-2347 -7321 -2335 0
-2347 7321 2335 0
2347 7321 -2335 0
2347 -7321 2335 0
2348 2349 -2361 0
-2348 -2349 0
-2348 2361 0
2349 -7322 2350 0
-2349 7322 0
-2349 -2350 0
2350 2351 -2356 2359 2360 0
-2350 -2360 0
-2350 -2351 0
-2350 -2359 0
-2350 2356 0
-2351 2352 2353 2354 2355 0
2351 -2355 0
2351 -2352 0
2351 -2354 0
2351 -2353 0
-2352 -8669 2166 0
-2352 -8655 2194 0
-2352 -8655 -8669 0
-2352 2166 2194 0
2352 8669 -2194 0
2352 8655 -2166 0
-2353 -8658 2169 0
-2353 -8660 2190 0
-2353 -8658 -8660 0
-2353 2169 2190 0
2353 8658 -2190 0
2353 8660 -2169 0
-2354 -8659 2183 0
-2354 -8663 2188 0
-2354 -8659 -8663 0
-2354 2183 2188 0
2354 8659 -2188 0
2354 8663 -2183 0
-2355 -8667 2173 0
-2355 -8662 2193 0
-2355 -8662 -8667 0
-2355 2173 2193 0
2355 8667 -2193 0
2355 8662 -2173 0
2356 -8656 2357 2358 0
2356 -2187 2357 2358 0
-2356 -2357 0
-2356 -2358 0
-2356 8656 2187 0
-2357 -8668 2179 0
-2357 -8657 2197 0
-2357 -8657 -8668 0
-2357 2179 2197 0
2357 8668 -2197 0
2357 8657 -2179 0
2358 8661 -2184 0
-2358 -8661 0
-2358 2184 0
-2359 -8666 2175 0
-2359 -8665 2181 0
-2359 -8665 -8666 0
-2359 2175 2181 0
2359 8666 -2181 0
2359 8665 -2175 0
-2360 -8670 2191 0
-2360 -8664 2196 0
-2360 -8664 -8670 0
-2360 2191 2196 0
2360 8670 -2196 0
2360 8664 -2191 0
-2361 2362 2363 0
2361 -2362 0
2361 -2363 0
-2362 -7322 -2350 0
-2362 7322 2350 0
2362 7322 -2350 0
2362 -7322 2350 0
2363 2364 -2376 0
-2363 -2364 0
-2363 2376 0
2364 -7323 2365 0
-2364 7323 0
-2364 -2365 0
2365 2366 -2371 2374 2375 0
-2365 -2375 0
-2365 -2366 0
-2365 -2374 0
-2365 2371 0
-2366 2367 2368 2369 2370 0
2366 -2370 0
2366 -2367 0
2366 -2369 0
2366 -2368 0
-2367 -8652 2166 0
-2367 -8639 2197 0
-2367 -8639 -8652 0
-2367 2166 2197 0
2367 8652 -2197 0
2367 8639 -2166 0
-2368 -8654 2173 0
-2368 -8646 2196 0
-2368 -8646 -8654 0
-2368 2173 2196 0
2368 8654 -2196 0
2368 8646 -2173 0
-2369 -8651 2183 0
-2369 -8647 2193 0
-2369 -8647 -8651 0
-2369 2183 2193 0
2369 8651 -2193 0
2369 8647 -2183 0
-2370 -8643 2184 0
-2370 -8645 2188 0
-2370 -8643 -8645 0
-2370 2184 2188 0
2370 8643 -2188 0
2370 8645 -2184 0
2371 -8640 2372 2373 0
2371 -2187 2372 2373 0
-2371 -2372 0
-2371 -2373 0
-2371 8640 2187 0
-2372 -8648 2169 0
-2372 -8644 2191 0
-2372 -8644 -8648 0
-2372 2169 2191 0
2372 8648 -2191 0
2372 8644 -2169 0
2373 8650 -2181 0
-2373 -8650 0
-2373 2181 0
-2374 -8642 2175 0
-2374 -8649 2190 0
-2374 -8642 -8649 0
-2374 2175 2190 0
2374 8642 -2190 0
2374 8649 -2175 0
-2375 -8653 2179 0
-2375 -8641 2194 0
-2375 -8641 -8653 0
-2375 2179 2194 0
2375 8653 -2194 0
2375 8641 -2179 0
-2376 2377 2378 0
2376 -2377 0
2376 -2378 0
-2377 -7323 -2365 0
-2377 7323 2365 0
2377 7323 -2365 0
2377 -7323 2365 0
2378 2379 -2391 0
-2378 -2379 0
-2378 2391 0
2379 -7324 2380 0
-2379 7324 0
-2379 -2380 0
2380 2381 -2386 2389 2390 0
-2380 -2390 0
-2380 -2381 0
-2380 -2389 0
-2380 2386 0
-2381 2382 2383 2384 2385 0
2381 -2385 0
2381 -2382 0
2381 -2384 0
2381 -2383 0
-2382 -8633 2166 0
-2382 -8623 2175 0
-2382 -8623 -8633 0
-2382 2166 2175 0
2382 8633 -2175 0
2382 8623 -2166 0
-2383 -8632 2183 0
-2383 -8631 2191 0
-2383 -8631 -8632 0
-2383 2183 2191 0
2383 8632 -2191 0
2383 8631 -2183 0
-2384 -8638 2173 0
-2384 -8630 2196 0
-2384 -8630 -8638 0
-2384 2173 2196 0
2384 8638 -2196 0
2384 8630 -2173 0
-2385 -8635 2188 0
-2385 -8627 2193 0
-2385 -8627 -8635 0
-2385 2188 2193 0
2385 8635 -2193 0
2385 8627 -2188 0
2386 -8625 -2387 2388 0
2386 2179 -2387 2388 0
-2386 2387 0
-2386 -2388 0
-2386 8625 -2179 0
2387 -8624 2184 0
2387 -8629 -2187 0
2387 -8624 -8629 0
2387 2184 -2187 0
-2387 8624 2187 0
-2387 8629 -2184 0
2388 8636 -2197 0
-2388 -8636 0
-2388 2197 0
-2389 -8626 2181 0
-2389 -8634 2190 0
-2389 -8626 -8634 0
-2389 2181 2190 0
2389 8626 -2190 0
2389 8634 -2181 0
-2390 -8637 2169 0
-2390 -8628 2194 0
-2390 -8628 -8637 0
-2390 2169 2194 0
2390 8637 -2194 0
2390 8628 -2169 0
-2391 2392 2393 0
2391 -2392 0
2391 -2393 0
-2392 -7324 -2380 0
-2392 7324 2380 0
2392 7324 -2380 0
2392 -7324 2380 0
2393 2394 -2406 0
-2393 -2394 0
-2393 2406 0
2394 -7325 2395 0
-2394 7325 0
-2394 -2395 0
2395 -2396 2401 2404 2405 0
-2395 -2405 0
-2395 2396 0
-2395 -2404 0
-2395 -2401 0
2396 -2397 2398 2399 2400 0
-2396 -2400 0
-2396 2397 0
-2396 -2399 0
-2396 -2398 0
2397 -8608 2166 0
2397 -8607 -2187 0
2397 -8607 -8608 0
2397 2166 -2187 0
-2397 8608 2187 0
-2397 8607 -2166 0
-2398 -8613 2179 0
-2398 -8609 2184 0
-2398 -8609 -8613 0
-2398 2179 2184 0
2398 8613 -2184 0
2398 8609 -2179 0
-2399 -8622 2191 0
-2399 -8616 2196 0
-2399 -8616 -8622 0
-2399 2191 2196 0
2399 8622 -2196 0
2399 8616 -2191 0
-2400 -8621 2183 0
-2400 -8615 2194 0
-2400 -8615 -8621 0
-2400 2183 2194 0
2400 8621 -2194 0
2400 8615 -2183 0
-2401 -8618 2402 2403 0
-2401 2181 2402 2403 0
2401 -2402 0
2401 -2403 0
2401 8618 -2181 0
-2402 -8619 2175 0
-2402 -8617 2193 0
-2402 -8617 -8619 0
-2402 2175 2193 0
2402 8619 -2193 0
2402 8617 -2175 0
2403 8610 -2190 0
-2403 -8610 0
-2403 2190 0
-2404 -8611 2169 0
-2404 -8612 2188 0
-2404 -8611 -8612 0
-2404 2169 2188 0
2404 8611 -2188 0
2404 8612 -2169 0
-2405 -8620 2173 0
-2405 -8614 2197 0
-2405 -8614 -8620 0
-2405 2173 2197 0
2405 8620 -2197 0
2405 8614 -2173 0
-2406 2407 2408 0
2406 -2407 0
2406 -2408 0
-2407 -7325 -2395 0
-2407 7325 2395 0
2407 7325 -2395 0
2407 -7325 2395 0
2408 2409 -2421 0
-2408 -2409 0
-2408 2421 0
2409 -7326 2410 0
-2409 7326 0
-2409 -2410 0
2410 2411 -2416 2419 2420 0
-2410 -2420 0
-2410 -2411 0
-2410 -2419 0
-2410 2416 0
-2411 2412 2413 2414 2415 0
2411 -2415 0
2411 -2412 0
2411 -2414 0
2411 -2413 0
-2412 -8596 2166 0
-2412 -8591 2169 0
-2412 -8591 -8596 0
-2412 2166 2169 0
2412 8596 -2169 0
2412 8591 -2166 0
-2413 -8595 2175 0
-2413 -8601 2188 0
-2413 -8595 -8601 0
-2413 2175 2188 0
2413 8595 -2188 0
2413 8601 -2175 0
-2414 -8599 2173 0
-2414 -8598 2183 0
-2414 -8598 -8599 0
-2414 2173 2183 0
2414 8599 -2183 0
2414 8598 -2173 0
-2415 -8606 2181 0
-2415 -8602 2196 0
-2415 -8602 -8606 0
-2415 2181 2196 0
2415 8606 -2196 0
2415 8602 -2181 0
2416 -8592 2417 2418 0
2416 -2187 2417 2418 0
-2416 -2417 0
-2416 -2418 0
-2416 8592 2187 0
-2417 -8605 2184 0
-2417 -8597 2194 0
-2417 -8597 -8605 0
-2417 2184 2194 0
2417 8605 -2194 0
2417 8597 -2184 0
2418 8594 -2190 0
-2418 -8594 0
-2418 2190 0
-2419 -8604 2179 0
-2419 -8593 2197 0
-2419 -8593 -8604 0
-2419 2179 2197 0
2419 8604 -2197 0
2419 8593 -2179 0
-2420 -8603 2191 0
-2420 -8600 2193 0
-2420 -8600 -8603 0
-2420 2191 2193 0
2420 8603 -2193 0
2420 8600 -2191 0
-2421 2422 2423 0
2421 -2422 0
2421 -2423 0
-2422 -7326 -2410 0
-2422 7326 2410 0
2422 7326 -2410 0
2422 -7326 2410 0
2423 2424 -2436 0
-2423 -2424 0
-2423 2436 0
2424 -7327 2425 0
-2424 7327 0
-2424 -2425 0
2425 2426 -2431 2434 2435 0
-2425 -2435 0
-2425 -2426 0
-2425 -2434 0
-2425 2431 0
-2426 2427 2428 2429 2430 0
2426 -2430 0
2426 -2427 0
2426 -2429 0
2426 -2428 0
-2427 -8589 2166 0
-2427 -8575 2194 0
-2427 -8575 -8589 0
-2427 2166 2194 0
2427 8589 -2194 0
2427 8575 -2166 0
-2428 -8584 2190 0
-2428 -8578 2191 0
-2428 -8578 -8584 0
-2428 2190 2191 0
2428 8584 -2191 0
2428 8578 -2190 0
-2429 -8588 2183 0
-2429 -8583 2197 0
-2429 -8583 -8588 0
-2429 2183 2197 0
2429 8588 -2197 0
2429 8583 -2183 0
-2430 -8590 2188 0
-2430 -8579 2196 0
-2430 -8579 -8590 0
-2430 2188 2196 0
2430 8590 -2196 0
2430 8579 -2188 0
2431 -8581 -2432 2433 0
2431 2184 -2432 2433 0
-2431 2432 0
-2431 -2433 0
-2431 8581 -2184 0
2432 -8576 2169 0
2432 -8580 -2187 0
2432 -8576 -8580 0
2432 2169 -2187 0
-2432 8576 2187 0
-2432 8580 -2169 0
2433 8582 -2173 0
-2433 -8582 0
-2433 2173 0
-2434 -8587 2175 0
-2434 -8585 2193 0
-2434 -8585 -8587 0
-2434 2175 2193 0
2434 8587 -2193 0
2434 8585 -2175 0
-2435 -8586 2179 0
-2435 -8577 2181 0
-2435 -8577 -8586 0
-2435 2179 2181 0
2435 8586 -2181 0
2435 8577 -2179 0
-2436 2437 2438 0
2436 -2437 0
2436 -2438 0
-2437 -7327 -2425 0
-2437 7327 2425 0
2437 7327 -2425 0
2437 -7327 2425 0
2438 2439 -2451 0
-2438 -2439 0
-2438 2451 0
2439 -7328 2440 0
-2439 7328 0
-2439 -2440 0
2440 2441 -2446 2449 2450 0
-2440 -2450 0
-2440 -2441 0
-2440 -2449 0
-2440 2446 0
-2441 2442 2443 2444 2445 0
2441 -2445 0
2441 -2442 0
2441 -2444 0
2441 -2443 0
-2442 -8573 2166 0
-2442 -8559 2194 0
-2442 -8559 -8573 0
-2442 2166 2194 0
2442 8573 -2194 0
2442 8559 -2166 0
-2443 -8562 2175 0
-2443 -8569 2190 0
-2443 -8562 -8569 0
-2443 2175 2190 0
2443 8562 -2190 0
2443 8569 -2175 0
-2444 -8571 2188 0
-2444 -8563 2193 0
-2444 -8563 -8571 0
-2444 2188 2193 0
2444 8571 -2193 0
2444 8563 -2188 0
-2445 -8574 2181 0
-2445 -8570 2196 0
-2445 -8570 -8574 0
-2445 2181 2196 0
2445 8574 -2196 0
2445 8570 -2181 0
2446 -8568 -2447 2448 0
2446 2191 -2447 2448 0
-2446 2447 0
-2446 -2448 0
-2446 8568 -2191 0
2447 -8560 2184 0
2447 -8565 -2187 0
2447 -8560 -8565 0
2447 2184 -2187 0
-2447 8560 2187 0
-2447 8565 -2184 0
2448 8564 -2169 0
-2448 -8564 0
-2448 2169 0
-2449 -8561 2173 0
-2449 -8566 2179 0
-2449 -8561 -8566 0
-2449 2173 2179 0
2449 8561 -2179 0
2449 8566 -2173 0
-2450 -8572 2183 0
-2450 -8567 2197 0
-2450 -8567 -8572 0
-2450 2183 2197 0
2450 8572 -2197 0
2450 8567 -2183 0
-2451 2452 2453 0
2451 -2452 0
2451 -2453 0
-2452 -7328 -2440 0
-2452 7328 2440 0
2452 7328 -2440 0
2452 -7328 2440 0
2453 2454 -2466 0
-2453 -2454 0
-2453 2466 0
2454 -7329 2455 0
-2454 7329 0
-2454 -2455 0
2455 2456 2461 -2464 2465 0
-2455 -2465 0
-2455 -2456 0
-2455 2464 0
-2455 -2461 0
-2456 2457 2458 2459 2460 0
2456 -2460 0
2456 -2457 0
2456 -2459 0
2456 -2458 0
-2457 -8546 2166 0
-2457 -8543 2190 0
-2457 -8543 -8546 0
-2457 2166 2190 0
2457 8546 -2190 0
2457 8543 -2166 0
-2458 -8549 2175 0
-2458 -8553 2184 0
-2458 -8549 -8553 0
-2458 2175 2184 0
2458 8549 -2184 0
2458 8553 -2175 0
-2459 -8552 2169 0
-2459 -8548 2191 0
-2459 -8548 -8552 0
-2459 2169 2191 0
2459 8552 -2191 0
2459 8548 -2169 0
-2460 -8555 2183 0
-2460 -8551 2193 0
-2460 -8551 -8555 0
-2460 2183 2193 0
2460 8555 -2193 0
2460 8551 -2183 0
-2461 -8545 2462 2463 0
-2461 2179 2462 2463 0
2461 -2462 0
2461 -2463 0
2461 8545 -2179 0
-2462 -8556 2181 0
-2462 -8554 2197 0
-2462 -8554 -8556 0
-2462 2181 2197 0
2462 8556 -2197 0
2462 8554 -2181 0
2463 8547 -2188 0
-2463 -8547 0
-2463 2188 0
2464 -8558 -2187 0
2464 -8544 2196 0
2464 -8544 -8558 0
2464 -2187 2196 0
-2464 8558 -2196 0
-2464 8544 2187 0
-2465 -8557 2173 0
-2465 -8550 2194 0
-2465 -8550 -8557 0
-2465 2173 2194 0
2465 8557 -2194 0
2465 8550 -2173 0
-2466 2467 2468 0
2466 -2467 0
2466 -2468 0
-2467 -7329 -2455 0
-2467 7329 2455 0
2467 7329 -2455 0
2467 -7329 2455 0
2468 2469 -2481 0
-2468 -2469 0
-2468 2481 0
2469 -7330 2470 0
-2469 7330 0
-2469 -2470 0
2470 -2471 2476 2479 2480 0
-2470 -2480 0
-2470 2471 0
-2470 -2479 0
-2470 -2476 0
2471 2472 2473 -2474 2475 0
-2471 -2475 0
-2471 -2472 0
-2471 2474 0
-2471 -2473 0
-2472 -8540 2166 0
-2472 -8527 2197 0
-2472 -8527 -8540 0
-2472 2166 2197 0
2472 8540 -2197 0
2472 8527 -2166 0
-2473 -8541 2193 0
-2473 -8539 2194 0
-2473 -8539 -8541 0
-2473 2193 2194 0
2473 8541 -2194 0
2473 8539 -2193 0
2474 -8528 2183 0
2474 -8535 -2187 0
2474 -8528 -8535 0
2474 2183 -2187 0
-2474 8528 2187 0
-2474 8535 -2183 0
-2475 -8542 2190 0
-2475 -8530 2196 0
-2475 -8530 -8542 0
-2475 2190 2196 0
2475 8542 -2196 0
2475 8530 -2190 0
-2476 -8533 2477 2478 0
-2476 2184 2477 2478 0
2476 -2477 0
2476 -2478 0
2476 8533 -2184 0
-2477 -8529 2169 0
-2477 -8532 2179 0
-2477 -8529 -8532 0
-2477 2169 2179 0
2477 8529 -2179 0
2477 8532 -2169 0
2478 8538 -2181 0
-2478 -8538 0
-2478 2181 0
-2479 -8536 2173 0
-2479 -8534 2191 0
-2479 -8534 -8536 0
-2479 2173 2191 0
2479 8536 -2191 0
2479 8534 -2173 0
-2480 -8531 2175 0
-2480 -8537 2188 0
-2480 -8531 -8537 0
-2480 2175 2188 0
2480 8531 -2188 0
2480 8537 -2175 0
-2481 2482 2483 0
2481 -2482 0
2481 -2483 0
-2482 -7330 -2470 0
-2482 7330 2470 0
2482 7330 -2470 0
2482 -7330 2470 0
2483 2484 -2496 0
-2483 -2484 0
-2483 2496 0
2484 -7331 2485 0
-2484 7331 0
-2484 -2485 0
2485 -2486 2491 2494 2495 0
-2485 -2495 0
-2485 2486 0
-2485 -2494 0
-2485 -2491 0
2486 2487 -2488 2489 2490 0
-2486 -2490 0
-2486 -2487 0
-2486 -2489 0
-2486 2488 0
-2487 -8521 2166 0
-2487 -8511 2175 0
-2487 -8511 -8521 0
-2487 2166 2175 0
2487 8521 -2175 0
2487 8511 -2166 0
2488 -8520 -2187 0
2488 -8512 2191 0
2488 -8512 -8520 0
2488 -2187 2191 0
-2488 8520 -2191 0
-2488 8512 2187 0
-2489 -8523 2183 0
-2489 -8519 2193 0
-2489 -8519 -8523 0
-2489 2183 2193 0
2489 8523 -2193 0
2489 8519 -2183 0
-2490 -8526 2190 0
-2490 -8514 2196 0
-2490 -8514 -8526 0
-2490 2190 2196 0
2490 8526 -2196 0
2490 8514 -2190 0
-2491 -8517 2492 2493 0
-2491 2184 2492 2493 0
2491 -2492 0
2491 -2493 0
2491 8517 -2184 0
-2492 -8525 2179 0
-2492 -8513 2194 0
-2492 -8513 -8525 0
-2492 2179 2194 0
2492 8525 -2194 0
2492 8513 -2179 0
2493 8518 -2173 0
-2493 -8518 0
-2493 2173 0
-2494 -8515 2181 0
-2494 -8522 2188 0
-2494 -8515 -8522 0
-2494 2181 2188 0
2494 8515 -2188 0
2494 8522 -2181 0
-2495 -8524 2169 0
-2495 -8516 2197 0
-2495 -8516 -8524 0
-2495 2169 2197 0
2495 8524 -2197 0
2495 8516 -2169 0
-2496 2497 2498 0
2496 -2497 0
2496 -2498 0
-2497 -7331 -2485 0
-2497 7331 2485 0
2497 7331 -2485 0
2497 -7331 2485 0
2498 2499 -2511 0
-2498 -2499 0
-2498 2511 0
2499 -7332 2500 0
-2499 7332 0
-2499 -2500 0
2500 2501 -2506 2509 2510 0
-2500 -2510 0
-2500 -2501 0
-2500 -2509 0
-2500 2506 0
-2501 2502 2503 2504 2505 0
2501 -2505 0
2501 -2502 0
2501 -2504 0
2501 -2503 0
-2502 -8501 2166 0
-2502 -8495 2184 0
-2502 -8495 -8501 0
-2502 2166 2184 0
2502 8501 -2184 0
2502 8495 -2166 0
-2503 -8509 2181 0
-2503 -8506 2194 0
-2503 -8506 -8509 0
-2503 2181 2194 0
2503 8509 -2194 0
2503 8506 -2181 0
-2504 -8499 2175 0
-2504 -8505 2188 0
-2504 -8499 -8505 0
-2504 2175 2188 0
2504 8499 -2188 0
2504 8505 -2175 0
-2505 -8503 2173 0
-2505 -8502 2183 0
-2505 -8502 -8503 0
-2505 2173 2183 0
2505 8503 -2183 0
2505 8502 -2173 0
2506 -8508 -2507 2508 0
2506 2197 -2507 2508 0
-2506 2507 0
-2506 -2508 0
-2506 8508 -2197 0
2507 -8496 2179 0
2507 -8497 -2187 0
2507 -8496 -8497 0
2507 2179 -2187 0
-2507 8496 2187 0
-2507 8497 -2179 0
2508 8500 -2169 0
-2508 -8500 0
-2508 2169 0
-2509 -8504 2190 0
-2509 -8498 2191 0
-2509 -8498 -8504 0
-2509 2190 2191 0
2509 8504 -2191 0
2509 8498 -2190 0
-2510 -8510 2193 0
-2510 -8507 2196 0
-2510 -8507 -8510 0
-2510 2193 2196 0
2510 8510 -2196 0
2510 8507 -2193 0
-2511 2512 2513 0
2511 -2512 0
2511 -2513 0
-2512 -7332 -2500 0
-2512 7332 2500 0
2512 7332 -2500 0
2512 -7332 2500 0
2513 2514 -2526 0
-2513 -2514 0
-2513 2526 0
2514 -7333 2515 0
-2514 7333 0
-2514 -2515 0
2515 2516 2521 -2524 2525 0
-2515 -2525 0
-2515 -2516 0
-2515 2524 0
-2515 -2521 0
-2516 2517 2518 2519 2520 0
2516 -2520 0
2516 -2517 0
2516 -2519 0
2516 -2518 0
-2517 -8483 2166 0
-2517 -8479 2188 0
-2517 -8479 -8483 0
-2517 2166 2188 0
2517 8483 -2188 0
2517 8479 -2166 0
-2518 -8488 2173 0
-2518 -8486 2191 0
-2518 -8486 -8488 0
-2518 2173 2191 0
2518 8488 -2191 0
2518 8486 -2173 0
-2519 -8485 2183 0
-2519 -8487 2184 0
-2519 -8485 -8487 0
-2519 2183 2184 0
2519 8485 -2184 0
2519 8487 -2183 0
-2520 -8494 2193 0
-2520 -8491 2196 0
-2520 -8491 -8494 0
-2520 2193 2196 0
2520 8494 -2196 0
2520 8491 -2193 0
-2521 -8489 2522 2523 0
-2521 2175 2522 2523 0
2521 -2522 0
2521 -2523 0
2521 8489 -2175 0
-2522 -8493 2169 0
-2522 -8484 2194 0
-2522 -8484 -8493 0
-2522 2169 2194 0
2522 8493 -2194 0
2522 8484 -2169 0
2523 8482 -2190 0
-2523 -8482 0
-2523 2190 0
2524 -8480 2179 0
2524 -8481 -2187 0
2524 -8480 -8481 0
2524 2179 -2187 0
-2524 8480 2187 0
-2524 8481 -2179 0
-2525 -8492 2181 0
-2525 -8490 2197 0
-2525 -8490 -8492 0
-2525 2181 2197 0
2525 8492 -2197 0
2525 8490 -2181 0
-2526 2527 2528 0
2526 -2527 0
2526 -2528 0
-2527 -7333 -2515 0
-2527 7333 2515 0
2527 7333 -2515 0
2527 -7333 2515 0
2528 2529 -2541 0
-2528 -2529 0
-2528 2541 0
2529 -7334 2530 0
-2529 7334 0
-2529 -2530 0
2530 2531 -2536 2539 2540 0
-2530 -2540 0
-2530 -2531 0
-2530 -2539 0
-2530 2536 0
-2531 2532 2533 2534 2535 0
2531 -2535 0
2531 -2532 0
2531 -2534 0
2531 -2533 0
-2532 -8478 2166 0
-2532 -8463 2196 0
-2532 -8463 -8478 0
-2532 2166 2196 0
2532 8478 -2196 0
2532 8463 -2166 0
-2533 -8466 2188 0
-2533 -8467 2190 0
-2533 -8466 -8467 0
-2533 2188 2190 0
2533 8466 -2190 0
2533 8467 -2188 0
-2534 -8469 2175 0
-2534 -8473 2184 0
-2534 -8469 -8473 0
-2534 2175 2184 0
2534 8469 -2184 0
2534 8473 -2175 0
-2535 -8475 2181 0
-2535 -8474 2193 0
-2535 -8474 -8475 0
-2535 2181 2193 0
2535 8475 -2193 0
2535 8474 -2181 0
2536 -8471 2537 -2538 0
2536 2183 2537 -2538 0
-2536 -2537 0
-2536 2538 0
-2536 8471 -2183 0
-2537 -8477 2191 0
-2537 -8472 2194 0
-2537 -8472 -8477 0
-2537 2191 2194 0
2537 8477 -2194 0
2537 8472 -2191 0
-2538 8464 2187 0
2538 -8464 0
2538 -2187 0
-2539 -8476 2179 0
-2539 -8465 2197 0
-2539 -8465 -8476 0
-2539 2179 2197 0
2539 8476 -2197 0
2539 8465 -2179 0
-2540 -8470 2169 0
-2540 -8468 2173 0
-2540 -8468 -8470 0
-2540 2169 2173 0
2540 8470 -2173 0
2540 8468 -2169 0
-2541 2542 2543 0
2541 -2542 0
2541 -2543 0
-2542 -7334 -2530 0
-2542 7334 2530 0
2542 7334 -2530 0
2542 -7334 2530 0
2543 2544 -2556 0
-2543 -2544 0
-2543 2556 0
2544 -7335 2545 0
-2544 7335 0
-2544 -2545 0
2545 2546 -2551 2554 2555 0
-2545 -2555 0
-2545 -2546 0
-2545 -2554 0
-2545 2551 0
-2546 2547 2548 2549 2550 0
2546 -2550 0
2546 -2547 0
2546 -2549 0
2546 -2548 0
-2547 -8452 2166 0
-2547 -8447 2169 0
-2547 -8447 -8452 0
-2547 2166 2169 0
2547 8452 -2169 0
2547 8447 -2166 0
-2548 -8451 2184 0
-2548 -8453 2188 0
-2548 -8451 -8453 0
-2548 2184 2188 0
2548 8451 -2188 0
2548 8453 -2184 0
-2549 -8455 2173 0
-2549 -8454 2183 0
-2549 -8454 -8455 0
-2549 2173 2183 0
2549 8455 -2183 0
2549 8454 -2173 0
-2550 -8462 2191 0
-2550 -8456 2196 0
-2550 -8456 -8462 0
-2550 2191 2196 0
2550 8462 -2196 0
2550 8456 -2191 0
2551 -8448 2552 2553 0
2551 -2187 2552 2553 0
-2551 -2552 0
-2551 -2553 0
-2551 8448 2187 0
-2552 -8460 2179 0
-2552 -8449 2197 0
-2552 -8449 -8460 0
-2552 2179 2197 0
2552 8460 -2197 0
2552 8449 -2179 0
2553 8461 -2194 0
-2553 -8461 0
-2553 2194 0
-2554 -8459 2181 0
-2554 -8458 2193 0
-2554 -8458 -8459 0
-2554 2181 2193 0
2554 8459 -2193 0
2554 8458 -2181 0
-2555 -8450 2175 0
-2555 -8457 2190 0
-2555 -8450 -8457 0
-2555 2175 2190 0
2555 8450 -2190 0
2555 8457 -2175 0
-2556 2557 2558 0
2556 -2557 0
2556 -2558 0
-2557 -7335 -2545 0
-2557 7335 2545 0
2557 7335 -2545 0
2557 -7335 2545 0
2558 2559 -2571 0
-2558 -2559 0
-2558 2571 0
2559 -7336 2560 0
-2559 7336 0
-2559 -2560 0
2560 -2561 2566 2569 2570 0
-2560 -2570 0
-2560 2561 0
-2560 -2569 0
-2560 -2566 0
2561 2562 2563 -2564 2565 0
-2561 -2565 0
-2561 -2562 0
-2561 2564 0
-2561 -2563 0
-2562 -8441 2166 0
-2562 -8431 2175 0
-2562 -8431 -8441 0
-2562 2166 2175 0
2562 8441 -2175 0
2562 8431 -2166 0
-2563 -8437 2179 0
-2563 -8433 2184 0
-2563 -8433 -8437 0
-2563 2179 2184 0
2563 8437 -2184 0
2563 8433 -2179 0
2564 -8446 -2187 0
2564 -8432 2196 0
2564 -8432 -8446 0
2564 -2187 2196 0
-2564 8446 -2196 0
-2564 8432 2187 0
-2565 -8439 2181 0
-2565 -8442 2183 0
-2565 -8439 -8442 0
-2565 2181 2183 0
2565 8439 -2183 0
2565 8442 -2181 0
-2566 -8445 2567 2568 0
-2566 2194 2567 2568 0
2566 -2567 0
2566 -2568 0
2566 8445 -2194 0
-2567 -8443 2169 0
-2567 -8436 2193 0
-2567 -8436 -8443 0
-2567 2169 2193 0
2567 8443 -2193 0
2567 8436 -2169 0
2568 8434 -2190 0
-2568 -8434 0
-2568 2190 0
-2569 -8440 2188 0
-2569 -8435 2191 0
-2569 -8435 -8440 0
-2569 2188 2191 0
2569 8440 -2191 0
2569 8435 -2188 0
-2570 -8444 2173 0
-2570 -8438 2197 0
-2570 -8438 -8444 0
-2570 2173 2197 0
2570 8444 -2197 0
2570 8438 -2173 0
-2571 2572 2573 0
2571 -2572 0
2571 -2573 0
-2572 -7336 -2560 0
-2572 7336 2560 0
2572 7336 -2560 0
2572 -7336 2560 0
2573 2574 -2586 0
-2573 -2574 0
-2573 2586 0
2574 -7337 2575 0
-2574 7337 0
-2574 -2575 0
2575 -2576 2581 2584 2585 0
-2575 -2585 0
-2575 2576 0
-2575 -2584 0
-2575 -2581 0
2576 2577 2578 -2579 2580 0
-2576 -2580 0
-2576 -2577 0
-2576 2579 0
-2576 -2578 0
-2577 -8419 2166 0
-2577 -8415 2188 0
-2577 -8415 -8419 0
-2577 2166 2188 0
2577 8419 -2188 0
2577 8415 -2166 0
-2578 -8430 2193 0
-2578 -8427 2196 0
-2578 -8427 -8430 0
-2578 2193 2196 0
2578 8430 -2196 0
2578 8427 -2193 0
2579 -8416 2175 0
2579 -8425 -2187 0
2579 -8416 -8425 0
2579 2175 -2187 0
-2579 8416 2187 0
-2579 8425 -2175 0
-2580 -8423 2181 0
-2580 -8426 2183 0
-2580 -8423 -8426 0
-2580 2181 2183 0
2580 8423 -2183 0
2580 8426 -2181 0
-2581 -8429 2582 2583 0
-2581 2194 2582 2583 0
2581 -2582 0
2581 -2583 0
2581 8429 -2194 0
-2582 -8424 2179 0
-2582 -8417 2191 0
-2582 -8417 -8424 0
-2582 2179 2191 0
2582 8424 -2191 0
2582 8417 -2179 0
2583 8422 -2173 0
-2583 -8422 0
-2583 2173 0
-2584 -8421 2169 0
-2584 -8420 2184 0
-2584 -8420 -8421 0
-2584 2169 2184 0
2584 8421 -2184 0
2584 8420 -2169 0
-2585 -8428 2190 0
-2585 -8418 2197 0
-2585 -8418 -8428 0
-2585 2190 2197 0
2585 8428 -2197 0
2585 8418 -2190 0
-2586 2587 2621 0
2586 -2587 0
2586 -2621 0
2587 7338 -2588 0
2587 -2588 -2599 0
2587 7338 -2599 0
-2587 2588 2599 0
-2587 -7338 2588 0
-2587 -7338 2599 0
2588 2589 2594 -2597 2598 0
-2588 -2598 0
-2588 -2589 0
-2588 2597 0
-2588 -2594 0
-2589 2590 2591 2592 2593 0
2589 -2593 0
2589 -2590 0
2589 -2592 0
2589 -2591 0
-2590 -8405 2166 0
-2590 -8399 2184 0
-2590 -8399 -8405 0
-2590 2166 2184 0
2590 8405 -2184 0
2590 8399 -2166 0
-2591 -8413 2173 0
-2591 -8406 2194 0
-2591 -8406 -8413 0
-2591 2173 2194 0
2591 8413 -2194 0
2591 8406 -2173 0
-2592 -8403 2181 0
-2592 -8410 2188 0
-2592 -8403 -8410 0
-2592 2181 2188 0
2592 8403 -2188 0
2592 8410 -2181 0
-2593 -8414 2183 0
-2593 -8407 2196 0
-2593 -8407 -8414 0
-2593 2183 2196 0
2593 8414 -2196 0
2593 8407 -2183 0
-2594 -8404 2595 2596 0
-2594 2169 2595 2596 0
2594 -2595 0
2594 -2596 0
2594 8404 -2169 0
-2595 -8412 2175 0
-2595 -8409 2197 0
-2595 -8409 -8412 0
-2595 2175 2197 0
2595 8412 -2197 0
2595 8409 -2175 0
2596 8401 -2179 0
-2596 -8401 0
-2596 2179 0
2597 -8411 -2187 0
2597 -8400 2193 0
2597 -8400 -8411 0
2597 -2187 2193 0
-2597 8411 -2193 0
-2597 8400 2187 0
-2598 -8408 2190 0
-2598 -8402 2191 0
-2598 -8402 -8408 0
-2598 2190 2191 0
2598 8408 -2191 0
2598 8402 -2190 0
2599 7339 -2610 0
2599 7339 2600 -2605 0
2599 2600 -2605 -2610 0
-2599 -2600 2610 0
-2599 -7339 2605 0
-2599 -7339 2610 0
-2599 2605 2610 0
-2599 -7339 -2600 0
-2600 2601 2602 2603 2604 0
2600 -2604 0
2600 -2601 0
2600 -2603 0
2600 -2602 0
-2601 -8387 2166 0
-2601 -8383 2188 0
-2601 -8383 -8387 0
-2601 2166 2188 0
2601 8387 -2188 0
2601 8383 -2166 0
-2602 -8396 2193 0
-2602 -8395 2197 0
-2602 -8395 -8396 0
-2602 2193 2197 0
2602 8396 -2197 0
2602 8395 -2193 0
-2603 -8390 2169 0
-2603 -8388 2173 0
-2603 -8388 -8390 0
-2603 2169 2173 0
2603 8390 -2173 0
2603 8388 -2169 0
-2604 -8398 2190 0
-2604 -8386 2196 0
-2604 -8386 -8398 0
-2604 2190 2196 0
2604 8398 -2196 0
2604 8386 -2190 0
2605 -2606 2607 2608 2609 0
-2605 -2609 0
-2605 2606 0
-2605 -2608 0
-2605 -2607 0
2606 -8392 -2187 0
2606 -8384 2191 0
2606 -8384 -8392 0
2606 -2187 2191 0
-2606 8392 -2191 0
-2606 8384 2187 0
-2607 -8389 2179 0
-2607 -8385 2184 0
-2607 -8385 -8389 0
-2607 2179 2184 0
2607 8389 -2184 0
2607 8385 -2179 0
-2608 -8397 2181 0
-2608 -8394 2194 0
-2608 -8394 -8397 0
-2608 2181 2194 0
2608 8397 -2194 0
2608 8394 -2181 0
-2609 -8391 2175 0
-2609 -8393 2183 0
-2609 -8391 -8393 0
-2609 2175 2183 0
2609 8391 -2183 0
2609 8393 -2175 0
2610 2611 -2612 2613 2614 0
-2610 -2614 0
-2610 -2611 0
-2610 -2613 0
-2610 2612 0
-2611 7340 -8374 0
-2611 7340 2173 0
2611 -7340 0
2611 8374 -2173 0
2612 -8368 2184 0
2612 -8373 -2187 0
2612 -8368 -8373 0
2612 2184 -2187 0
-2612 8368 2187 0
-2612 8373 -2184 0
-2613 -8381 2190 0
-2613 -8370 2194 0
-2613 -8370 -8381 0
-2613 2190 2194 0
2613 8381 -2194 0
2613 8370 -2190 0
-2614 -8375 2615 2616 0
-2614 2183 2615 2616 0
2614 -2616 0
2614 -2615 0
2614 8375 -2183 0
-2615 -8380 2175 0
-2615 -8377 2197 0
-2615 -8377 -8380 0
-2615 2175 2197 0
2615 8380 -2197 0
2615 8377 -2175 0
-2616 2617 2618 2619 2620 0
2616 -2620 0
2616 -2617 0
2616 -2619 0
2616 -2618 0
-2617 -8382 2169 0
-2617 -8372 2196 0
-2617 -8372 -8382 0
-2617 2169 2196 0
2617 8382 -2196 0
2617 8372 -2169 0
-2618 -8376 2181 0
-2618 -8378 2191 0
-2618 -8376 -8378 0
-2618 2181 2191 0
2618 8376 -2191 0
2618 8378 -2181 0
-2619 -8379 2188 0
-2619 -8371 2193 0
-2619 -8371 -8379 0
-2619 2188 2193 0
2619 8379 -2193 0
2619 8371 -2188 0
-2620 -8369 2166 0
-2620 -8367 2179 0
-2620 -8367 -8369 0
-2620 2166 2179 0
2620 8369 -2179 0
2620 8367 -2166 0
-2621 -7337 -2575 0
-2621 7337 2575 0
2621 7337 -2575 0
2621 -7337 2575 0
2622 7311 -2623 0
2622 -7311 2623 0
-2622 -7311 -2623 0
-2622 7311 2623 0
2623 -7312 -2624 0
-2623 7312 0
-2623 2624 0
2624 -7313 -2625 0
-2624 7313 0
-2624 2625 0
2625 -7314 -2626 0
-2625 7314 0
-2625 2626 0
2626 -7315 -2627 0
-2626 7315 0
-2626 2627 0
2627 -7316 -2628 0
-2627 7316 0
-2627 2628 0
2628 -7317 -2629 0
-2628 7317 0
-2628 2629 0
2629 -7318 -2630 0
-2629 7318 0
-2629 2630 0
2630 -7319 -2631 0
-2630 7319 0
-2630 2631 0
2631 -7320 -2632 0
-2631 7320 0
-2631 2632 0
2632 -7321 -2633 0
-2632 7321 0
-2632 2633 0
2633 -7322 -2634 0
-2633 7322 0
-2633 2634 0
2634 -7323 -2635 0
-2634 7323 0
-2634 2635 0
2635 -7324 -2636 0
-2635 7324 0
-2635 2636 0
2636 -7325 -2637 0
-2636 7325 0
-2636 2637 0
2637 -7326 -2638 0
-2637 7326 0
-2637 2638 0
2638 -7327 -2639 0
-2638 7327 0
-2638 2639 0
2639 -7328 -2640 0
-2639 7328 0
-2639 2640 0
2640 -7329 -2641 0
-2640 7329 0
-2640 2641 0
2641 -7330 -2642 0
-2641 7330 0
-2641 2642 0
2642 -7331 -2643 0
-2642 7331 0
-2642 2643 0
2643 -7332 -2644 0
-2643 7332 0
-2643 2644 0
2644 -7333 -2645 0
-2644 7333 0
-2644 2645 0
2645 -7334 -2646 0
-2645 7334 0
-2645 2646 0
2646 -7335 -2647 0
-2646 7335 0
-2646 2647 0
2647 -7336 -2648 0
-2647 7336 0
-2647 2648 0
2648 -7337 -2649 0
-2648 7337 0
-2648 2649 0
2649 -7338 -2650 0
-2649 7338 0
-2649 2650 0
2650 -7339 -7340 -2158 0
-2650 7339 0
-2650 7340 0
-2650 2158 0
2651 7312 -2624 0
2651 -7312 2624 0
-2651 -7312 -2624 0
-2651 7312 2624 0
2652 7313 -2625 0
2652 -7313 2625 0
-2652 -7313 -2625 0
-2652 7313 2625 0
2653 7314 -2626 0
2653 -7314 2626 0
-2653 -7314 -2626 0
-2653 7314 2626 0
2654 7315 -2627 0
2654 -7315 2627 0
-2654 -7315 -2627 0
-2654 7315 2627 0
2655 7316 -2628 0
2655 -7316 2628 0
-2655 -7316 -2628 0
-2655 7316 2628 0
2656 7317 -2629 0
2656 -7317 2629 0
-2656 -7317 -2629 0
-2656 7317 2629 0
2657 7318 -2630 0
2657 -7318 2630 0
-2657 -7318 -2630 0
-2657 7318 2630 0
2658 7319 -2631 0
2658 -7319 2631 0
-2658 -7319 -2631 0
-2658 7319 2631 0
2659 7320 -2632 0
2659 -7320 2632 0
-2659 -7320 -2632 0
-2659 7320 2632 0
2660 7321 -2633 0
2660 -7321 2633 0
-2660 -7321 -2633 0
-2660 7321 2633 0
2661 7322 -2634 0
2661 -7322 2634 0
-2661 -7322 -2634 0
-2661 7322 2634 0
2662 7323 -2635 0
2662 -7323 2635 0
-2662 -7323 -2635 0
-2662 7323 2635 0
2663 7324 -2636 0
2663 -7324 2636 0
-2663 -7324 -2636 0
-2663 7324 2636 0
2664 7325 -2637 0
2664 -7325 2637 0
-2664 -7325 -2637 0
-2664 7325 2637 0
2665 7326 -2638 0
2665 -7326 2638 0
-2665 -7326 -2638 0
-2665 7326 2638 0
2666 7327 -2639 0
2666 -7327 2639 0
-2666 -7327 -2639 0
-2666 7327 2639 0
2667 7328 -2640 0
2667 -7328 2640 0
-2667 -7328 -2640 0
-2667 7328 2640 0
2668 7329 -2641 0
2668 -7329 2641 0
-2668 -7329 -2641 0
-2668 7329 2641 0
2669 7330 -2642 0
2669 -7330 2642 0
-2669 -7330 -2642 0
-2669 7330 2642 0
2670 7331 -2643 0
2670 -7331 2643 0
-2670 -7331 -2643 0
-2670 7331 2643 0
2671 7332 -2644 0
2671 -7332 2644 0
-2671 -7332 -2644 0
-2671 7332 2644 0
2672 7333 -2645 0
2672 -7333 2645 0
-2672 -7333 -2645 0
-2672 7333 2645 0
2673 7334 -2646 0
2673 -7334 2646 0
-2673 -7334 -2646 0
-2673 7334 2646 0
2674 7335 -2647 0
2674 -7335 2647 0
-2674 -7335 -2647 0
-2674 7335 2647 0
2675 7336 -2648 0
2675 -7336 2648 0
-2675 -7336 -2648 0
-2675 7336 2648 0
2676 7337 -2649 0
2676 -7337 2649 0
-2676 -7337 -2649 0
-2676 7337 2649 0
2677 7338 -2650 0
2677 -7338 2650 0
-2677 -7338 -2650 0
-2677 7338 2650 0
2678 7339 -2679 0
2678 -7339 2679 0
-2678 -7339 -2679 0
-2678 7339 2679 0
2679 -7340 -2158 0
-2679 7340 0
-2679 2158 0
2680 -7340 2158 0
2680 7340 -2158 0
-2680 7340 2158 0
-2680 -7340 -2158 0
-2681 7341 2158 0
-2681 -2158 -2227 -2228 0
-2681 -2158 2227 2228 0
2681 -7341 2158 0
2681 -2158 -2227 2228 0
2681 -2158 2227 -2228 0
-2682 7342 2158 0
-2682 -2158 -2242 -2243 0
-2682 -2158 2242 2243 0
2682 -7342 2158 0
2682 -2158 -2242 2243 0
2682 -2158 2242 -2243 0
-2683 7343 2158 0
-2683 -2158 -2287 -2288 0
-2683 -2158 2287 2288 0
2683 -7343 2158 0
2683 -2158 -2287 2288 0
2683 -2158 2287 -2288 0
-2684 7344 2158 0
-2684 -2158 -2377 -2378 0
-2684 -2158 2377 2378 0
2684 -7344 2158 0
2684 -2158 -2377 2378 0
2684 -2158 2377 -2378 0
-2685 7345 2158 0
-2685 -2158 -2347 -2348 0
-2685 -2158 2347 2348 0
2685 -7345 2158 0
2685 -2158 -2347 2348 0
2685 -2158 2347 -2348 0
-2686 7346 2158 0
-2686 -2158 -2302 -2303 0
-2686 -2158 2302 2303 0
2686 -7346 2158 0
2686 -2158 -2302 2303 0
2686 -2158 2302 -2303 0
-2687 7347 2158 0
-2687 -2158 -2362 -2363 0
-2687 -2158 2362 2363 0
2687 -7347 2158 0
2687 -2158 -2362 2363 0
2687 -2158 2362 -2363 0
-2688 7348 2158 0
-2688 -2158 -2527 -2528 0
-2688 -2158 2527 2528 0
2688 -7348 2158 0
2688 -2158 -2527 2528 0
2688 -2158 2527 -2528 0
-2689 7349 2158 0
-2689 -2158 -2512 -2513 0
-2689 -2158 2512 2513 0
2689 -7349 2158 0
2689 -2158 -2512 2513 0
2689 -2158 2512 -2513 0
-2690 7350 2158 0
-2690 -2158 -2437 -2438 0
-2690 -2158 2437 2438 0
2690 -7350 2158 0
2690 -2158 -2437 2438 0
2690 -2158 2437 -2438 0
-2691 7351 2158 0
-2691 -2158 -2482 -2483 0
-2691 -2158 2482 2483 0
2691 -7351 2158 0
2691 -2158 -2482 2483 0
2691 -2158 2482 -2483 0
-2692 7352 2158 0
-2692 -2158 -2557 -2558 0
-2692 -2158 2557 2558 0
2692 -7352 2158 0
2692 -2158 -2557 2558 0
2692 -2158 2557 -2558 0
-2693 7353 2158 0
-2693 -2158 -2542 -2543 0
-2693 -2158 2542 2543 0
2693 -7353 2158 0
2693 -2158 -2542 2543 0
2693 -2158 2542 -2543 0
-2694 7354 2158 0
-2694 -2158 -2497 -2498 0
-2694 -2158 2497 2498 0
2694 -7354 2158 0
2694 -2158 -2497 2498 0
2694 -2158 2497 -2498 0
-2695 7355 2158 0
-2695 -2158 -2407 -2408 0
-2695 -2158 2407 2408 0
2695 -7355 2158 0
2695 -2158 -2407 2408 0
2695 -2158 2407 -2408 0
-2696 7356 2158 0
-2696 -2158 -2422 -2423 0
-2696 -2158 2422 2423 0
2696 -7356 2158 0
2696 -2158 -2422 2423 0
2696 -2158 2422 -2423 0
-2697 7357 2158 0
-2697 -2158 -2452 -2453 0
-2697 -2158 2452 2453 0
2697 -7357 2158 0
2697 -2158 -2452 2453 0
2697 -2158 2452 -2453 0
-2698 7358 2158 0
-2698 -2158 2599 2699 0
-2698 -2158 -2599 -2699 0
2698 -7358 2158 0
2698 -2158 2599 -2699 0
2698 -2158 -2599 2699 0
-2699 -7338 -2588 0
-2699 7338 2588 0
2699 7338 -2588 0
2699 -7338 2588 0
-2700 7359 2158 0
-2700 -2158 -2467 -2468 0
-2700 -2158 2467 2468 0
2700 -7359 2158 0
2700 -2158 -2467 2468 0
2700 -2158 2467 -2468 0
-2701 7360 2158 0
-2701 -2158 -2317 -2318 0
-2701 -2158 2317 2318 0
2701 -7360 2158 0
2701 -2158 -2317 2318 0
2701 -2158 2317 -2318 0
-2702 7361 2158 0
-2702 -2158 -2332 -2333 0
-2702 -2158 2332 2333 0
2702 -7361 2158 0
2702 -2158 -2332 2333 0
2702 -2158 2332 -2333 0
-2703 7362 2158 0
-2703 -2158 -2272 -2273 0
-2703 -2158 2272 2273 0
2703 -7362 2158 0
2703 -2158 -2272 2273 0
2703 -2158 2272 -2273 0
-2704 7363 2158 0
-2704 -2158 -2257 -2258 0
-2704 -2158 2257 2258 0
2704 -7363 2158 0
2704 -2158 -2257 2258 0
2704 -2158 2257 -2258 0
-2705 7364 2158 0
-2705 -2158 -2212 -2213 0
-2705 -2158 2212 2213 0
2705 -7364 2158 0
2705 -2158 -2212 2213 0
2705 -2158 2212 -2213 0
-2706 7365 2158 0
-2706 -2158 2587 2621 0
-2706 -2158 -2587 -2621 0
2706 -7365 2158 0
2706 -2158 2587 -2621 0
2706 -2158 -2587 2621 0
-2707 7366 2158 0
-2707 -2158 -2572 -2573 0
-2707 -2158 2572 2573 0
2707 -7366 2158 0
2707 -2158 -2572 2573 0
2707 -2158 2572 -2573 0
-2708 7367 2158 0
-2708 -2158 -2709 -2721 0
-2708 -2158 2709 2721 0
2708 -7367 2158 0
2708 -2158 -2709 2721 0
2708 -2158 2709 -2721 0
-2709 -7369 -2710 0
-2709 7369 2710 0
2709 7369 -2710 0
2709 -7369 2710 0
2710 -2711 2716 2719 2720 0
-2710 -2720 0
-2710 2711 0
-2710 -2719 0
-2710 -2716 0
2711 2712 -2713 2714 2715 0
-2711 -2715 0
-2711 -2712 0
-2711 -2714 0
-2711 2713 0
-2712 -8877 2166 0
-2712 -8863 2194 0
-2712 -8863 -8877 0
-2712 2166 2194 0
2712 8877 -2194 0
2712 8863 -2166 0
2713 -8878 -2187 0
2713 -8864 2196 0
2713 -8864 -8878 0
2713 -2187 2196 0
-2713 8878 -2196 0
-2713 8864 2187 0
-2714 -8867 2175 0
-2714 -8873 2188 0
-2714 -8867 -8873 0
-2714 2175 2188 0
2714 8867 -2188 0
2714 8873 -2175 0
-2715 -8875 2181 0
-2715 -8874 2193 0
-2715 -8874 -8875 0
-2715 2181 2193 0
2715 8875 -2193 0
2715 8874 -2181 0
-2716 -8869 2717 2718 0
-2716 2184 2717 2718 0
2716 -2717 0
2716 -2718 0
2716 8869 -2184 0
-2717 -8876 2179 0
-2717 -8865 2197 0
-2717 -8865 -8876 0
-2717 2179 2197 0
2717 8876 -2197 0
2717 8865 -2179 0
2718 8866 -2190 0
-2718 -8866 0
-2718 2190 0
-2719 -8872 2173 0
-2719 -8870 2191 0
-2719 -8870 -8872 0
-2719 2173 2191 0
2719 8872 -2191 0
2719 8870 -2173 0
-2720 -8871 2169 0
-2720 -8868 2183 0
-2720 -8868 -8871 0
-2720 2169 2183 0
2720 8871 -2183 0
2720 8868 -2169 0
2721 2722 -2734 0
-2721 -2722 0
-2721 2734 0
2722 -7368 2723 0
-2722 7368 0
-2722 -2723 0
2723 2724 2729 2732 -2733 0
-2723 2733 0
-2723 -2724 0
-2723 -2732 0
-2723 -2729 0
-2724 2725 2726 2727 2728 0
2724 -2728 0
2724 -2725 0
2724 -2727 0
2724 -2726 0
-2725 -8853 2166 0
-2725 -8847 2184 0
-2725 -8847 -8853 0
-2725 2166 2184 0
2725 8853 -2184 0
2725 8847 -2166 0
-2726 -8850 2183 0
-2726 -8855 2190 0
-2726 -8850 -8855 0
-2726 2183 2190 0
2726 8850 -2190 0
2726 8855 -2183 0
-2727 -8862 2181 0
-2727 -8858 2196 0
-2727 -8858 -8862 0
-2727 2181 2196 0
2727 8862 -2196 0
2727 8858 -2181 0
-2728 -8860 2188 0
-2728 -8851 2197 0
-2728 -8851 -8860 0
-2728 2188 2197 0
2728 8860 -2197 0
2728 8851 -2188 0
-2729 -8861 2730 2731 0
-2729 2194 2730 2731 0
2729 -2730 0
2729 -2731 0
2729 8861 -2194 0
-2730 -8856 2169 0
-2730 -8852 2191 0
-2730 -8852 -8856 0
-2730 2169 2191 0
2730 8856 -2191 0
2730 8852 -2169 0
2731 8859 -2193 0
-2731 -8859 0
-2731 2193 0
-2732 -8849 2173 0
-2732 -8854 2179 0
-2732 -8849 -8854 0
-2732 2173 2179 0
2732 8849 -2179 0
2732 8854 -2173 0
2733 -8848 2175 0
2733 -8857 -2187 0
2733 -8848 -8857 0
2733 2175 -2187 0
-2733 8848 2187 0
-2733 8857 -2175 0
-2734 2735 2736 0
2734 -2735 0
2734 -2736 0
-2735 -7368 -2723 0
-2735 7368 2723 0
2735 7368 -2723 0
2735 -7368 2723 0
2736 2737 -2738 0
-2736 -2737 0
-2736 2738 0
2737 -7311 2163 0
-2737 7311 0
-2737 -2163 0
-2738 2162 2198 0
2738 -2162 0
2738 -2198 0
2739 7368 -2740 0
2739 -7368 2740 0
-2739 -7368 -2740 0
-2739 7368 2740 0
2740 -7311 -2623 0
-2740 7311 0
-2740 2623 0
-2741 -7369 -2742 0
-2741 7369 2742 0
2741 7369 -2742 0
2741 -7369 2742 0
2742 -7368 -2740 0
-2742 7368 0
-2742 2740 0
-2743 7370 2158 0
-2743 -2158 -2392 -2393 0
-2743 -2158 2392 2393 0
2743 -7370 2158 0
2743 -2158 -2392 2393 0
2743 -2158 2392 -2393 0
-2744 7371 2158 0
-2744 -2158 -2735 -2736 0
-2744 -2158 2735 2736 0
2744 -7371 2158 0
2744 -2158 -2735 2736 0
2744 -2158 2735 -2736 0
2745 7372 -7546 0
2745 -7372 7546 0
-2745 -7372 -7546 0
-2745 7372 7546 0
2746 -7373 -580 2747 0
2746 7373 -580 -2747 0
-2746 580 0
-2746 -7373 -2747 0
-2746 7373 2747 0
2747 -7402 -2748 0
-2747 7402 0
-2747 2748 0
2748 -584 -2749 0
-2748 584 0
-2748 2749 0
2749 -7404 -2750 0
-2749 7404 0
-2749 2750 0
2750 -7406 -2126 -2751 0
-2750 7406 0
-2750 2126 0
-2750 2751 0
-2751 7293 2752 0
2751 -7293 0
2751 -2752 0
-2752 7294 7295 0
2752 -7294 0
2752 -7295 0
2753 -7374 -580 2754 0
2753 7374 -580 -2754 0
-2753 580 0
-2753 -7374 -2754 0
-2753 7374 2754 0
2754 -7375 -2755 0
-2754 7375 0
-2754 2755 0
2755 -7376 -2756 0
-2755 7376 0
-2755 2756 0
2756 -7377 -2757 0
-2756 7377 0
-2756 2757 0
2757 -7378 -2758 0
-2757 7378 0
-2757 2758 0
2758 -7379 -2759 0
-2758 7379 0
-2758 2759 0
2759 -7380 -2760 0
-2759 7380 0
-2759 2760 0
2760 -7381 -2761 0
-2760 7381 0
-2760 2761 0
2761 -7382 -2762 0
-2761 7382 0
-2761 2762 0
2762 -7383 -2763 0
-2762 7383 0
-2762 2763 0
2763 -7384 -2764 0
-2763 7384 0
-2763 2764 0
2764 -7385 -2765 0
-2764 7385 0
-2764 2765 0
2765 -7386 -2766 0
-2765 7386 0
-2765 2766 0
2766 -7387 -2767 0
-2766 7387 0
-2766 2767 0
2767 -7388 -2768 0
-2767 7388 0
-2767 2768 0
2768 -7389 -2769 0
-2768 7389 0
-2768 2769 0
2769 -7390 -2770 0
-2769 7390 0
-2769 2770 0
2770 -7391 -2771 0
-2770 7391 0
-2770 2771 0
2771 -7392 -2772 0
-2771 7392 0
-2771 2772 0
2772 -7393 -2773 0
-2772 7393 0
-2772 2773 0
2773 -7394 -2774 0
-2773 7394 0
-2773 2774 0
2774 -7395 -2775 0
-2774 7395 0
-2774 2775 0
2775 -7396 -2776 0
-2775 7396 0
-2775 2776 0
2776 -7397 -2777 0
-2776 7397 0
-2776 2777 0
2777 -7398 -2778 0
-2777 7398 0
-2777 2778 0
2778 -7399 -2779 0
-2778 7399 0
-2778 2779 0
2779 -7400 -2780 0
-2779 7400 0
-2779 2780 0
2780 -7401 -2781 0
-2780 7401 0
-2780 2781 0
2781 -7373 -2747 0
-2781 7373 0
-2781 2747 0
2782 -7375 -580 2755 0
2782 7375 -580 -2755 0
-2782 580 0
-2782 -7375 -2755 0
-2782 7375 2755 0
2783 -7376 -580 2756 0
2783 7376 -580 -2756 0
-2783 580 0
-2783 -7376 -2756 0
-2783 7376 2756 0
2784 -7377 -580 2757 0
2784 7377 -580 -2757 0
-2784 580 0
-2784 -7377 -2757 0
-2784 7377 2757 0
2785 -7378 -580 2758 0
2785 7378 -580 -2758 0
-2785 580 0
-2785 -7378 -2758 0
-2785 7378 2758 0
2786 -7379 -580 2759 0
2786 7379 -580 -2759 0
-2786 580 0
-2786 -7379 -2759 0
-2786 7379 2759 0
2787 -7380 -580 2760 0
2787 7380 -580 -2760 0
-2787 580 0
-2787 -7380 -2760 0
-2787 7380 2760 0
2788 -7381 -580 2761 0
2788 7381 -580 -2761 0
-2788 580 0
-2788 -7381 -2761 0
-2788 7381 2761 0
2789 -7382 -580 2762 0
2789 7382 -580 -2762 0
-2789 580 0
-2789 -7382 -2762 0
-2789 7382 2762 0
2790 -7383 -580 2763 0
2790 7383 -580 -2763 0
-2790 580 0
-2790 -7383 -2763 0
-2790 7383 2763 0
2791 -7384 -580 2764 0
2791 7384 -580 -2764 0
-2791 580 0
-2791 -7384 -2764 0
-2791 7384 2764 0
2792 -7385 -580 2765 0
2792 7385 -580 -2765 0
-2792 580 0
-2792 -7385 -2765 0
-2792 7385 2765 0
2793 -7386 -580 2766 0
2793 7386 -580 -2766 0
-2793 580 0
-2793 -7386 -2766 0
-2793 7386 2766 0
2794 -7387 -580 2767 0
2794 7387 -580 -2767 0
-2794 580 0
-2794 -7387 -2767 0
-2794 7387 2767 0
2795 -7388 -580 2768 0
2795 7388 -580 -2768 0
-2795 580 0
-2795 -7388 -2768 0
-2795 7388 2768 0
2796 -7389 -580 2769 0
2796 7389 -580 -2769 0
-2796 580 0
-2796 -7389 -2769 0
-2796 7389 2769 0
2797 -7390 -580 2770 0
2797 7390 -580 -2770 0
-2797 580 0
-2797 -7390 -2770 0
-2797 7390 2770 0
2798 -7391 -580 2771 0
2798 7391 -580 -2771 0
-2798 580 0
-2798 -7391 -2771 0
-2798 7391 2771 0
2799 -7392 -580 2772 0
2799 7392 -580 -2772 0
-2799 580 0
-2799 -7392 -2772 0
-2799 7392 2772 0
2800 -7393 -580 2773 0
2800 7393 -580 -2773 0
-2800 580 0
-2800 -7393 -2773 0
-2800 7393 2773 0
2801 -7394 -580 2774 0
2801 7394 -580 -2774 0
-2801 580 0
-2801 -7394 -2774 0
-2801 7394 2774 0
2802 -7395 -580 2775 0
2802 7395 -580 -2775 0
-2802 580 0
-2802 -7395 -2775 0
-2802 7395 2775 0
2803 -7396 -580 2776 0
2803 7396 -580 -2776 0
-2803 580 0
-2803 -7396 -2776 0
-2803 7396 2776 0
2804 -7397 -580 2777 0
2804 7397 -580 -2777 0
-2804 580 0
-2804 -7397 -2777 0
-2804 7397 2777 0
2805 -7398 -580 2778 0
2805 7398 -580 -2778 0
-2805 580 0
-2805 -7398 -2778 0
-2805 7398 2778 0
2806 -7399 -580 2779 0
2806 7399 -580 -2779 0
-2806 580 0
-2806 -7399 -2779 0
-2806 7399 2779 0
2807 -7400 -580 2780 0
2807 7400 -580 -2780 0
-2807 580 0
-2807 -7400 -2780 0
-2807 7400 2780 0
2808 -7401 -580 2781 0
2808 7401 -580 -2781 0
-2808 580 0
-2808 -7401 -2781 0
-2808 7401 2781 0
2809 -2810 2748 0
2809 7402 -2748 0
-2809 -7402 -2748 0
-2809 2810 2748 0
2810 -6262 -7402 0
-2810 6262 0
-2810 7402 0
2811 584 -2749 0
2811 -584 2749 0
-2811 -584 -2749 0
-2811 584 2749 0
2812 -7404 -580 2750 0
2812 7404 -580 -2750 0
-2812 580 0
-2812 -7404 -2750 0
-2812 7404 2750 0
2813 -2812 -2814 0
-2813 2812 0
-2813 2814 0
2814 -2751 -2816 0
2814 2815 -2816 0
2814 -7557 -2816 0
-2814 2816 0
-2814 7557 2751 -2815 0
2815 -2123 -2140 0
-2815 2123 0
-2815 2140 0
2816 -7406 -7555 0
2816 7557 -2140 0
2816 -7406 7557 0
-2816 7555 -7557 0
-2816 7406 2140 0
-2816 7406 -7557 0
-2817 6121 2814 0
-2817 -580 2814 0
2817 -2814 0
2817 -6121 580 0
2818 -6039 -13 -60 0
2818 -7407 13 -60 0
-2818 60 0
-2818 7407 13 0
-2818 6039 -13 0
-2819 7409 -2820 0
-2819 7408 2822 0
-2819 7408 7409 0
2819 -7408 2820 0
2819 -7409 -2822 0
2819 -7408 -7409 0
2820 7410 7411 -2821 0
-2820 2821 0
-2820 -7411 0
-2820 -7410 0
2821 7542 -2817 0
-2821 -7542 0
-2821 2817 0
2822 -7410 -7411 -2823 0
-2822 7410 0
-2822 7411 0
-2822 2823 0
2823 -7542 2817 0
-2823 7542 0
-2823 -2817 0
-2824 -7409 -2825 0
-2824 7409 2825 0
2824 7409 -2825 0
2824 -7409 2825 0
2825 -2820 -2826 0
2825 -2822 -2826 0
-2825 2826 0
-2825 2820 2822 0
-2826 -7408 -7542 0
-2826 7542 2827 0
-2826 -7542 -2817 0
-2826 7542 2817 0
2826 7408 -7542 2817 0
2826 7542 -2817 -2827 0
-2827 7408 7409 7410 7411 0
2827 -7411 0
2827 -7410 0
2827 -7408 0
2827 -7409 0
2828 -7410 2826 0
2828 7410 -2826 0
-2828 7410 2826 0
-2828 -7410 -2826 0
2829 2830 -2831 0
2829 -2830 2831 0
-2829 -2830 -2831 0
-2829 2830 2831 0
2830 7410 -7411 0
2830 -7410 7411 0
-2830 -7410 -7411 0
-2830 7410 7411 0
2831 -7410 2826 0
2831 2823 -2826 0
-2831 -2823 -2826 0
-2831 7410 2826 0
-2832 -7562 -2110 0
-2832 7412 2110 0
2832 -7412 2110 0
2832 7562 -2110 0
-2833 -7562 -2117 0
-2833 7413 2117 0
2833 -7413 2117 0
2833 7562 -2117 0
-2834 -7562 -2106 0
-2834 7414 2106 0
2834 -7414 2106 0
2834 7562 -2106 0
-2835 -7562 -2115 0
-2835 7415 2115 0
2835 -7415 2115 0
2835 7562 -2115 0
-2836 -7562 -2112 0
-2836 7416 2112 0
2836 -7416 2112 0
2836 7562 -2112 0
-2837 -7562 -2100 0
-2837 7417 2100 0
2837 -7417 2100 0
2837 7562 -2100 0
-2838 -7562 -2108 0
-2838 7418 2108 0
2838 -7418 2108 0
2838 7562 -2108 0
-2839 -7562 -2102 0
-2839 7419 2102 0
2839 -7419 2102 0
2839 7562 -2102 0
-2840 -7573 -2108 0
-2840 7420 2108 0
2840 -7420 2108 0
2840 7573 -2108 0
-2841 -7573 -2117 0
-2841 7421 2117 0
2841 -7421 2117 0
2841 7573 -2117 0
-2842 -7573 -2106 0
-2842 7422 2106 0
2842 -7422 2106 0
2842 7573 -2106 0
-2843 -7573 -2112 0
-2843 7423 2112 0
2843 -7423 2112 0
2843 7573 -2112 0
-2844 -7573 -2100 0
-2844 7424 2100 0
2844 -7424 2100 0
2844 7573 -2100 0
-2845 -7573 -2115 0
-2845 7425 2115 0
2845 -7425 2115 0
2845 7573 -2115 0
-2846 -7573 -2110 0
-2846 7426 2110 0
2846 -7426 2110 0
2846 7573 -2110 0
-2847 -7573 -2102 0
-2847 7427 2102 0
2847 -7427 2102 0
2847 7573 -2102 0
2848 7372 -7546 0
-2848 -7372 0
-2848 7546 0
-2849 7429 2848 0
-2849 7623 -2848 0
2849 -7623 -2848 0
2849 -7429 2848 0
-2850 7430 2848 0
-2850 7624 -2848 0
2850 -7624 -2848 0
2850 -7430 2848 0
-2851 7431 2848 0
-2851 7625 -2848 0
2851 -7625 -2848 0
2851 -7431 2848 0
-2852 7432 2848 0
-2852 7626 -2848 0
2852 -7626 -2848 0
2852 -7432 2848 0
-2853 7433 2848 0
-2853 7627 -2848 0
2853 -7627 -2848 0
2853 -7433 2848 0
-2854 7434 2848 0
-2854 7628 -2848 0
2854 -7628 -2848 0
2854 -7434 2848 0
-2855 7435 2848 0
-2855 7629 -2848 0
2855 -7629 -2848 0
2855 -7435 2848 0
-2856 7436 2848 0
-2856 7630 -2848 0
2856 -7630 -2848 0
2856 -7436 2848 0
-2857 7437 2848 0
-2857 7631 -2848 0
2857 -7631 -2848 0
2857 -7437 2848 0
-2858 7438 2848 0
-2858 7632 -2848 0
2858 -7632 -2848 0
2858 -7438 2848 0
-2859 7439 2848 0
-2859 7633 -2848 0
2859 -7633 -2848 0
2859 -7439 2848 0
-2860 7440 2848 0
-2860 7634 -2848 0
2860 -7634 -2848 0
2860 -7440 2848 0
-2861 7441 2848 0
-2861 7635 -2848 0
2861 -7635 -2848 0
2861 -7441 2848 0
-2862 7442 2848 0
-2862 7636 -2848 0
2862 -7636 -2848 0
2862 -7442 2848 0
-2863 7443 2848 0
-2863 7637 -2848 0
2863 -7637 -2848 0
2863 -7443 2848 0
-2864 7444 2848 0
-2864 7638 -2848 0
2864 -7638 -2848 0
2864 -7444 2848 0
-2865 7445 2848 0
-2865 7639 -2848 0
2865 -7639 -2848 0
2865 -7445 2848 0
-2866 7446 2848 0
-2866 7640 -2848 0
2866 -7640 -2848 0
2866 -7446 2848 0
-2867 7447 2848 0
-2867 7641 -2848 0
2867 -7641 -2848 0
2867 -7447 2848 0
-2868 7448 2848 0
-2868 7642 -2848 0
2868 -7642 -2848 0
2868 -7448 2848 0
-2869 7449 2848 0
-2869 7643 -2848 0
2869 -7643 -2848 0
2869 -7449 2848 0
-2870 7450 2848 0
-2870 7644 -2848 0
2870 -7644 -2848 0
2870 -7450 2848 0
-2871 7451 2848 0
-2871 7645 -2848 0
2871 -7645 -2848 0
2871 -7451 2848 0
-2872 7452 2848 0
-2872 7646 -2848 0
2872 -7646 -2848 0
2872 -7452 2848 0
-2873 7453 2848 0
-2873 7647 -2848 0
2873 -7647 -2848 0
2873 -7453 2848 0
-2874 7454 2848 0
-2874 7648 -2848 0
2874 -7648 -2848 0
2874 -7454 2848 0
-2875 7455 2848 0
-2875 7649 -2848 0
2875 -7649 -2848 0
2875 -7455 2848 0
-2876 7456 2848 0
-2876 7650 -2848 0
2876 -7650 -2848 0
2876 -7456 2848 0
-2877 7457 2848 0
-2877 7651 -2848 0
2877 -7651 -2848 0
2877 -7457 2848 0
-2878 7458 2848 0
-2878 7652 -2848 0
2878 -7652 -2848 0
2878 -7458 2848 0
-2879 7459 2848 0
-2879 7653 -2848 0
2879 -7653 -2848 0
2879 -7459 2848 0
-2880 7460 2848 0
-2880 7654 -2848 0
2880 -7654 -2848 0
2880 -7460 2848 0
-2881 7461 2848 0
-2881 7655 -2848 0
2881 -7655 -2848 0
2881 -7461 2848 0
-2882 -7672 -2106 0
-2882 7463 2106 0
2882 -7463 2106 0
2882 7672 -2106 0
-2883 -7672 -2117 0
-2883 7464 2117 0
2883 -7464 2117 0
2883 7672 -2117 0
-2884 -7672 -2115 0
-2884 7465 2115 0
2884 -7465 2115 0
2884 7672 -2115 0
-2885 -7672 -2100 0
-2885 7466 2100 0
2885 -7466 2100 0
2885 7672 -2100 0
-2886 -7672 -2102 0
-2886 7467 2102 0
2886 -7467 2102 0
2886 7672 -2102 0
-2887 -7672 -2110 0
-2887 7468 2110 0
2887 -7468 2110 0
2887 7672 -2110 0
-2888 -7672 -2112 0
-2888 7469 2112 0
2888 -7469 2112 0
2888 7672 -2112 0
-2889 -7672 -2108 0
-2889 7470 2108 0
2889 -7470 2108 0
2889 7672 -2108 0
-2890 7471 2106 0
-2890 7673 -2106 0
2890 -7673 -2106 0
2890 -7471 2106 0
-2891 7472 2117 0
-2891 7673 -2117 0
2891 -7673 -2117 0
2891 -7472 2117 0
-2892 7473 2115 0
-2892 7673 -2115 0
2892 -7673 -2115 0
2892 -7473 2115 0
-2893 7474 2100 0
-2893 7673 -2100 0
2893 -7673 -2100 0
2893 -7474 2100 0
-2894 7475 2102 0
-2894 7673 -2102 0
2894 -7673 -2102 0
2894 -7475 2102 0
-2895 7476 2110 0
-2895 7673 -2110 0
2895 -7673 -2110 0
2895 -7476 2110 0
-2896 7477 2112 0
-2896 7673 -2112 0
2896 -7673 -2112 0
2896 -7477 2112 0
-2897 7478 2108 0
-2897 7673 -2108 0
2897 -7673 -2108 0
2897 -7478 2108 0
-2898 -7682 -2106 0
-2898 7479 2106 0
2898 -7479 2106 0
2898 7682 -2106 0
-2899 -7682 -2117 0
-2899 7480 2117 0
2899 -7480 2117 0
2899 7682 -2117 0
-2900 -7682 -2115 0
-2900 7481 2115 0
2900 -7481 2115 0
2900 7682 -2115 0
-2901 -7682 -2100 0
-2901 7482 2100 0
2901 -7482 2100 0
2901 7682 -2100 0
-2902 -7682 -2102 0
-2902 7483 2102 0
2902 -7483 2102 0
2902 7682 -2102 0
-2903 -7682 -2110 0
-2903 7484 2110 0
2903 -7484 2110 0
2903 7682 -2110 0
-2904 -7682 -2112 0
-2904 7485 2112 0
2904 -7485 2112 0
2904 7682 -2112 0
-2905 -7682 -2108 0
-2905 7486 2108 0
2905 -7486 2108 0
2905 7682 -2108 0
-2906 7487 2106 0
-2906 7691 -2106 0
2906 -7691 -2106 0
2906 -7487 2106 0
-2907 7488 2117 0
-2907 7691 -2117 0
2907 -7691 -2117 0
2907 -7488 2117 0
-2908 7489 2115 0
-2908 7691 -2115 0
2908 -7691 -2115 0
2908 -7489 2115 0
-2909 7490 2100 0
-2909 7691 -2100 0
2909 -7691 -2100 0
2909 -7490 2100 0
-2910 7491 2102 0
-2910 7691 -2102 0
2910 -7691 -2102 0
2910 -7491 2102 0
-2911 7492 2110 0
-2911 7691 -2110 0
2911 -7691 -2110 0
2911 -7492 2110 0
-2912 7493 2112 0
-2912 7691 -2112 0
2912 -7691 -2112 0
2912 -7493 2112 0
-2913 7494 2108 0
-2913 7691 -2108 0
2913 -7691 -2108 0
2913 -7494 2108 0
-2914 -7700 -2106 0
-2914 7495 2106 0
2914 -7495 2106 0
2914 7700 -2106 0
-2915 -7700 -2117 0
-2915 7496 2117 0
2915 -7496 2117 0
2915 7700 -2117 0
-2916 -7700 -2115 0
-2916 7497 2115 0
2916 -7497 2115 0
2916 7700 -2115 0
-2917 -7700 -2100 0
-2917 7498 2100 0
2917 -7498 2100 0
2917 7700 -2100 0
-2918 -7700 -2102 0
-2918 7499 2102 0
2918 -7499 2102 0
2918 7700 -2102 0
-2919 -7700 -2110 0
-2919 7500 2110 0
2919 -7500 2110 0
2919 7700 -2110 0
-2920 -7700 -2112 0
-2920 7501 2112 0
2920 -7501 2112 0
2920 7700 -2112 0
-2921 -7700 -2108 0
-2921 7502 2108 0
2921 -7502 2108 0
2921 7700 -2108 0
-2922 7503 2106 0
-2922 7709 -2106 0
2922 -7709 -2106 0
2922 -7503 2106 0
-2923 7504 2117 0
-2923 7709 -2117 0
2923 -7709 -2117 0
2923 -7504 2117 0
-2924 7505 2115 0
-2924 7709 -2115 0
2924 -7709 -2115 0
2924 -7505 2115 0
-2925 7506 2100 0
-2925 7709 -2100 0
2925 -7709 -2100 0
2925 -7506 2100 0
-2926 7507 2102 0
-2926 7709 -2102 0
2926 -7709 -2102 0
2926 -7507 2102 0
-2927 7508 2110 0
-2927 7709 -2110 0
2927 -7709 -2110 0
2927 -7508 2110 0
-2928 7509 2112 0
-2928 7709 -2112 0
2928 -7709 -2112 0
2928 -7509 2112 0
-2929 7510 2108 0
-2929 7709 -2108 0
2929 -7709 -2108 0
2929 -7510 2108 0
-2930 -7718 -2106 0
-2930 7511 2106 0
2930 -7511 2106 0
2930 7718 -2106 0
-2931 -7718 -2117 0
-2931 7512 2117 0
2931 -7512 2117 0
2931 7718 -2117 0
-2932 -7718 -2115 0
-2932 7513 2115 0
2932 -7513 2115 0
2932 7718 -2115 0
-2933 -7718 -2100 0
-2933 7514 2100 0
2933 -7514 2100 0
2933 7718 -2100 0
-2934 -7718 -2102 0
-2934 7515 2102 0
2934 -7515 2102 0
2934 7718 -2102 0
-2935 -7718 -2110 0
-2935 7516 2110 0
2935 -7516 2110 0
2935 7718 -2110 0
-2936 -7718 -2112 0
-2936 7517 2112 0
2936 -7517 2112 0
2936 7718 -2112 0
-2937 -7718 -2108 0
-2937 7518 2108 0
2937 -7518 2108 0
2937 7718 -2108 0
-2938 7519 2106 0
-2938 7727 -2106 0
2938 -7727 -2106 0
2938 -7519 2106 0
-2939 7520 2117 0
-2939 7727 -2117 0
2939 -7727 -2117 0
2939 -7520 2117 0
-2940 7521 2115 0
-2940 7727 -2115 0
2940 -7727 -2115 0
2940 -7521 2115 0
-2941 7522 2100 0
-2941 7727 -2100 0
2941 -7727 -2100 0
2941 -7522 2100 0
-2942 7523 2102 0
-2942 7727 -2102 0
2942 -7727 -2102 0
2942 -7523 2102 0
-2943 7524 2110 0
-2943 7727 -2110 0
2943 -7727 -2110 0
2943 -7524 2110 0
-2944 7525 2112 0
-2944 7727 -2112 0
2944 -7727 -2112 0
2944 -7525 2112 0
-2945 7526 2108 0
-2945 7727 -2108 0
2945 -7727 -2108 0
2945 -7526 2108 0
2946 -7535 -7536 0
2946 -7536 -7539 0
2946 -7535 -7539 0
-2946 7535 7539 0
-2946 7536 7539 0
-2946 7535 7536 0
2947 7566 -7571 2134 0
-2947 -2134 0
-2947 7571 0
-2947 -7566 0
2948 7559 -2123 0
-2948 -7559 0
-2948 2123 0
2949 7530 -2149 0
2949 -7530 -2147 2149 0
-2949 -7530 -2149 0
-2949 7530 2149 0
-2949 -7530 2147 0
-2950 7531 2951 0
-2950 -2951 2991 2998 0
2950 -2951 -2998 0
2950 -7531 2951 0
2950 -2951 -2991 0
-2951 2952 2966 2977 0
-2951 2962 2966 2977 0
2951 -2977 0
2951 -2966 0
2951 -2952 -2962 0
-2952 -7534 2956 0
-2952 2953 2955 2956 0
2952 -2956 0
2952 7534 -2953 0
2952 7534 -2955 0
2953 7533 8 -2954 0
-2953 2954 0
-2953 -8 0
-2953 -7533 0
2954 -7531 7532 0
-2954 7531 0
-2954 -7532 0
2955 -7531 -7532 0
-2955 7531 0
-2955 7532 0
-2956 2957 2959 2961 0
2956 -2957 0
2956 -2961 0
2956 -2959 0
-2957 7531 2958 0
-2957 7532 2958 0
-2957 6118 2958 0
2957 -2958 0
2957 -6118 -7531 -7532 0
2958 -7533 -7534 9 -2954 0
-2958 2954 0
-2958 7533 0
-2958 -9 0
-2958 7534 0
2959 -2954 -2960 0
-2959 2954 0
-2959 2960 0
2960 -5819 -6105 8 0
-2960 5819 0
-2960 6105 0
-2960 -8 0
2961 -5821 5822 -6105 0
-2961 5821 0
-2961 -5822 0
-2961 6105 0
2962 -7536 2965 0
2962 -7536 9 2963 0
-2962 7536 0
-2962 -9 -2965 0
-2962 -2963 -2965 0
2963 -6118 -2964 0
-2963 6118 0
-2963 2964 0
-2964 7531 7532 0
2964 -7531 0
2964 -7532 0
2965 -6118 -2961 0
2965 2960 -2961 0
2965 -2961 -2964 0
-2965 2961 0
-2965 6118 -2960 2964 0
-2966 2967 2974 0
-2966 2968 -2976 0
-2966 2968 2974 0
-2966 2967 -2976 0
2966 -2967 -2968 0
2966 -2974 2976 0
2967 6118 -7535 0
-2967 -6118 0
-2967 7535 0
-2968 2953 2959 -2972 0
-2968 2953 2959 2969 0
2968 -2953 0
2968 -2959 0
2968 -2969 2972 0
2969 2970 -2971 0
-2969 -2970 0
-2969 2971 0
2970 -5822 -6105 0
-2970 5822 0
-2970 6105 0
2971 7531 -7532 0
-2971 -7531 0
-2971 7532 0
2972 -7534 2973 0
-2972 7534 0
-2972 -2973 0
2973 -5821 -6105 0
-2973 5821 0
-2973 6105 0
2974 -7538 -2975 0
-2974 7538 0
-2974 2975 0
2975 7537 -2960 0
-2975 -7537 0
-2975 2960 0
-2976 6118 2970 2964 0
-2976 2970 2973 2964 0
-2976 6118 2970 2973 0
2976 -6118 -2973 0
2976 -6118 -2964 0
2976 -2970 0
2976 -2973 -2964 0
-2977 2978 -2986 0
-2977 6118 2978 0
-2977 7535 2978 0
2977 -2978 0
2977 -6118 -7535 2986 0
2978 -2979 -2980 0
-2978 2979 0
-2978 2980 0
2979 -7539 2960 0
-2979 7539 0
-2979 -2960 0
-2980 2981 2983 2984 0
2980 -2981 0
2980 -2983 0
2980 -2984 0
-2981 2982 2972 0
-2981 2982 2969 0
-2981 7533 2982 0
2981 -2982 0
2981 -7533 -2969 -2972 0
2982 -6118 -7531 -7532 0
-2982 6118 0
-2982 7531 0
-2982 7532 0
2983 -2961 -2971 0
-2983 2961 0
-2983 2971 0
-2984 -7533 0
-2984 -7534 2985 0
-2984 2969 2985 0
2984 7533 -2985 0
2984 7533 7534 -2969 0
2985 6118 -7531 -7532 0
-2985 7532 0
-2985 7531 0
-2985 -6118 0
2986 -2987 2989 0
2986 -2964 -2987 0
-2986 2987 0
-2986 2964 -2989 0
-2987 9 2988 0
2987 -9 0
2987 -2988 0
-2988 6105 0
-2988 5821 5822 0
2988 -5822 -6105 0
2988 -5821 -6105 0
-2989 -8 0
-2989 -2990 -2988 0
-2989 2990 2961 0
2989 8 -2990 2988 0
2989 8 2990 -2961 0
2990 -5819 -6105 0
-2990 5819 0
-2990 6105 0
2991 -7536 2992 0
2991 2992 -2995 2996 0
-2991 -2992 0
-2991 7536 -2996 0
-2991 7536 2995 0
2992 2993 -2994 0
2992 7533 -2994 0
-2992 2994 0
-2992 -7533 -2993 0
2993 -2954 -2960 0
2993 -6118 2954 0
-2993 -2954 2960 0
-2993 6118 2954 0
2994 -7536 2961 0
2994 6118 -7536 9 0
-2994 7536 0
-2994 -6118 -2961 0
-2994 -9 -2961 0
-2995 6118 7533 0
-2995 6118 2954 2961 0
2995 -6118 0
2995 -7533 -2954 0
2995 -7533 -2961 0
-2996 7539 -2960 0
-2996 7539 2997 0
2996 -7539 0
2996 2960 -2997 0
-2997 6118 2954 0
2997 -6118 0
2997 -2954 0
-2998 -2961 3000 0
-2998 2999 3000 0
2998 -3000 0
2998 2961 -2999 0
2999 -6118 -2974 0
2999 -2974 -2988 0
-2999 2974 0
-2999 6118 2988 0
3000 -7533 -2979 -3001 0
-3000 7533 0
-3000 2979 0
-3000 3001 0
-3001 6118 2971 0
-3001 2961 -2971 0
3001 -2961 -2971 0
3001 -6118 2971 0
-3002 7532 2951 0
-3002 -2951 3003 3009 0
3002 -2951 -3009 0
3002 -7532 2951 0
3002 -2951 -3003 0
3003 7539 -3006 0
3003 7539 2960 -3004 0
-3003 -7539 0
-3003 -2960 3006 0
-3003 3004 3006 0
3004 -7536 2994 0
3004 2994 -3005 0
-3004 -2994 0
-3004 7536 3005 0
3005 -6118 -2987 0
-3005 6118 0
-3005 2987 0
3006 -7534 3007 -3008 0
-3006 7534 0
-3006 3008 0
-3006 -3007 0
3007 -2954 2960 0
-3007 2954 0
-3007 -2960 0
-3008 -6118 7536 0
-3008 -7536 -2961 0
-3008 6118 2954 2961 0
3008 6118 7536 -2961 0
3008 -6118 -7536 2961 0
3008 6118 -2954 2961 0
-3009 2999 3001 0
-3009 7534 2999 0
-3009 7539 2999 0
3009 -2999 0
3009 -7534 -7539 -3001 0
-3010 7533 3011 0
-3010 -3011 3027 3028 0
3010 -7533 3011 0
3010 -3011 -3028 0
3010 -3011 -3027 0
-3011 2978 3014 3021 0
-3011 3012 3014 3021 0
3011 -3021 0
3011 -3014 0
3011 -2978 -3012 0
-3012 3013 3001 0
3012 -3013 0
3012 -3001 0
-3013 7533 7534 0
3013 -7533 0
3013 -7534 0
3014 -7535 -3015 -3020 0
3014 -7535 3005 -3015 0
-3014 7535 0
-3014 3015 0
-3014 -3005 3020 0
-3015 3016 3018 0
3015 -3016 0
3015 -3018 0
-3016 2983 3017 0
-3016 2953 2983 0
3016 -2983 0
3016 -2953 -3017 0
3017 -3013 -3007 0
-3017 3013 0
-3017 3007 0
-3018 7533 3019 0
-3018 -7534 3019 0
-3018 2969 3019 0
3018 -3019 0
3018 -7533 7534 -2969 0
-3019 6118 2959 0
3019 -6118 0
3019 -2959 0
3020 7531 -7532 -2960 -2961 0
3020 -7531 7532 -2960 -2961 0
-3020 2961 0
-3020 7531 7532 0
-3020 2960 0
-3020 -7531 -7532 0
-3021 2974 3024 0
-3021 -3022 3023 3024 0
3021 -3024 0
3021 -2974 -3023 0
3021 -2974 3022 0
-3022 6118 2988 0
3022 -6118 0
3022 -2988 0
3023 -6118 -7532 -2961 0
-3023 6118 0
-3023 7532 0
-3023 2961 0
3024 -2994 -3026 0
3024 -2956 -3025 0
3024 -2956 -2994 0
3024 -3025 -3026 0
-3024 2956 3026 0
-3024 2994 3025 0
3025 -6118 -7531 -7536 -2960 0
-3025 2960 0
-3025 6118 0
-3025 7536 0
-3025 7531 0
3026 6118 -7533 7534 -2955 0
-3026 7533 0
-3026 -7534 0
-3026 -6118 0
-3026 2955 0
3027 -2974 -2983 0
-3027 2974 0
-3027 2983 0
3028 7539 -3004 3029 0
3028 7539 2960 -3004 0
-3028 -7539 0
-3028 3004 0
-3028 -2960 -3029 0
3029 7536 -2954 0
-3029 -7536 0
-3029 2954 0
3030 -2999 -3011 0
3030 -7534 3011 0
3030 -3011 -3031 0
-3030 7534 3011 0
-3030 2999 -3011 3031 0
3031 -2959 -3004 0
-3031 2959 0
-3031 3004 0
-3032 7535 3034 3036 0
-3032 -3033 3034 3036 0
3032 -3036 0
3032 -3034 0
3032 -7535 3033 0
3033 2964 -2967 0
3033 -2967 -2968 0
-3033 2967 0
-3033 -2964 2968 0
3034 -2957 -3035 0
-3034 2957 0
-3034 3035 0
3035 -7536 2961 0
-3035 7536 0
-3035 -2961 0
3036 2960 -3037 0
3036 -7539 2960 -2981 0
-3036 -2960 0
-3036 2981 3037 0
-3036 7539 3037 0
3037 -6118 7537 7538 2961 0
-3037 -2961 0
-3037 -7538 0
-3037 6118 0
-3037 -7537 0
-3038 7536 3040 0
-3038 2961 3039 3040 0
3038 -3040 0
3038 -7536 -3039 0
3038 -7536 -2961 0
3039 2952 -2964 0
-3039 -2952 0
-3039 2964 0
-3040 3016 3041 0
-3040 2967 3041 0
3040 -3041 0
3040 -2967 -3016 0
3041 2960 -3043 0
3041 2960 -2961 3042 0
-3041 -2960 0
-3041 2961 3043 0
-3041 -3042 3043 0
-3042 7537 7538 0
3042 -7537 0
3042 -7538 0
3043 -7539 -2983 0
3043 -7534 -7539 -3044 0
-3043 7539 0
-3043 2983 3044 0
-3043 7534 2983 0
3044 6118 -7531 -7532 7533 0
-3044 -6118 0
-3044 -7533 0
-3044 7532 0
-3044 7531 0
3045 -7537 -3046 0
3045 -7537 3055 0
3045 3046 -3053 3055 0
-3045 7537 -3046 0
-3045 3046 -3055 0
-3045 7537 3053 0
3046 3047 -3048 0
3046 -2986 3020 -3048 0
-3046 3048 0
-3046 -3047 2986 0
-3046 -3047 -3020 0
3047 -6118 -7535 0
-3047 6118 0
-3047 7535 0
3048 -3050 -3051 0
3048 2960 -3049 -3051 0
-3048 3051 0
-3048 -2960 3050 0
-3048 3049 3050 0
3049 -2964 2980 0
-3049 2964 0
-3049 -2980 0
-3050 7537 -3023 0
-3050 7537 2960 0
-3050 7537 2976 0
3050 -7537 0
3050 -2960 -2976 3023 0
3051 -7537 3033 3052 0
3051 -7538 3033 3052 0
-3051 -3052 0
-3051 -3033 0
-3051 7537 7538 0
3052 -2962 3039 0
3052 -3025 3039 0
-3052 -3039 0
-3052 2962 3025 0
3053 7538 -3054 0
3053 -2964 -3012 -3054 0
-3053 3054 0
-3053 -7538 3012 0
-3053 -7538 2964 0
3054 -7538 2960 0
3054 2960 -2961 0
3054 -6118 2960 0
-3054 -2960 0
-3054 6118 7538 2961 0
3055 2961 3017 -3057 0
3055 3017 3056 -3057 0
-3055 3057 0
-3055 -3017 0
-3055 -2961 -3056 0
-3056 7532 7536 0
3056 -7532 0
3056 -7536 0
3057 6118 -7537 0
3057 7532 -7537 7538 0
-3057 7537 0
-3057 -6118 -7538 0
-3057 -6118 -7532 0
-3058 3037 3059 3063 0
-3058 7539 3037 3059 0
3058 -3059 0
3058 -3037 0
3058 -7539 -3063 0
3059 -7538 -3060 0
3059 3048 -3046 0
3059 3048 -3060 0
3059 -7538 -3046 0
-3059 7538 -3048 0
-3059 3046 3060 0
-3060 7535 2975 3061 0
-3060 2975 3019 3061 0
3060 -3061 0
3060 -2975 0
3060 -7535 -3019 0
3061 -7537 2961 -2964 -3062 0
-3061 3062 0
-3061 2964 0
-3061 7537 0
-3061 -2961 0
-3062 3013 2993 0
-3062 7536 -2954 2993 0
3062 -2993 0
3062 -7536 -3013 0
3062 2954 -3013 0
-3063 7531 3064 0
-3063 6118 -7531 0
-3063 7531 3013 0
3063 -6118 -7531 0
3063 7531 -3013 -3064 0
3064 2961 -2964 0
-3064 -2961 0
-3064 2964 0
-3065 -2979 3049 0
-3065 3066 3068 0
-3065 3049 3066 0
3065 2979 -3066 0
3065 -3049 -3068 0
3065 -3049 -3066 0
-3066 7539 2975 3067 0
-3066 7539 2975 3035 0
3066 -7539 0
3066 -2975 0
3066 -3035 -3067 0
-3067 2959 3026 0
3067 -2959 0
3067 -3026 0
3068 -2967 -3018 0
-3068 2967 0
-3068 3018 0
3069 5811 -2098 -3070 -3076 0
-3069 -5811 0
-3069 3076 0
-3069 3070 0
-3069 2098 0
3070 3071 -3073 3074 3075 0
-3070 3073 0
-3070 -3075 0
-3070 -3071 0
-3070 -3074 0
3071 -6105 -3072 0
-3071 6105 0
-3071 3072 0
-3072 5812 5814 5816 5818 0
3072 -5818 0
3072 -5816 0
3072 -5812 0
3072 -5814 0
3073 -5889 5890 7542 0
3073 -5889 6105 7542 0
-3073 5889 0
-3073 -7542 0
-3073 -5890 -6105 0
3074 -5817 -6105 0
-3074 5817 0
-3074 6105 0
3075 -5815 -6105 0
-3075 5815 0
-3075 6105 0
3076 -5813 -6105 0
-3076 5813 0
-3076 6105 0
3077 5817 3072 3076 -3078 0
-3077 -3072 0
-3077 -3076 0
-3077 -5817 0
-3077 3078 0
3078 -5811 -6105 0
-3078 5811 0
-3078 6105 0
-3079 3080 3081 0
3079 -3080 0
3079 -3081 0
-3080 7543 3070 0
-3080 -5813 7543 0
-3080 7543 2098 0
3080 -7543 0
3080 5813 -2098 -3070 0
-3081 3082 3091 0
3081 -3082 0
3081 -3091 0
3082 -7542 3083 0
3082 3083 -3084 -3090 0
-3082 -3083 0
-3082 7542 3084 0
-3082 7542 3090 0
-3083 7545 3069 0
3083 -7545 0
3083 -3069 0
3084 3071 -3085 0
-3084 -3071 0
-3084 3085 0
3085 -5811 -6105 -3086 0
3085 -5812 -6105 -3086 0
-3085 3086 0
-3085 6105 0
-3085 5811 5812 0
3086 3087 -3088 0
-3086 -3087 0
-3086 3088 0
3087 -5813 5814 -6105 0
-3087 5813 0
-3087 -5814 0
-3087 6105 0
3088 -5815 -6105 3089 0
3088 -5816 -6105 3089 0
-3088 6105 0
-3088 -3089 0
-3088 5815 5816 0
3089 -5817 5818 -6105 0
-3089 5817 0
-3089 -5818 0
-3089 6105 0
3090 -5889 6105 -2098 0
3090 -5889 5890 -2098 0
-3090 2098 0
-3090 5889 0
-3090 -5890 -6105 0
3091 3083 -3092 0
-3091 -3083 0
-3091 3092 0
-3092 7542 3090 0
-3092 7542 3093 3096 0
3092 -7542 0
3092 -3090 -3093 0
3092 -3090 -3096 0
3093 -3077 -3094 0
-3093 3077 0
-3093 3094 0
3094 -5811 -6105 3095 0
3094 -5812 -6105 3095 0
-3094 -3095 0
-3094 6105 0
-3094 5811 5812 0
-3095 6105 3089 0
-3095 -5816 3089 0
-3095 5815 3089 0
3095 -3089 0
3095 -5815 5816 -6105 0
3096 3071 3078 -3086 0
-3096 3086 0
-3096 -3078 0
-3096 -3071 0
3097 578 -3082 3098 0
-3097 -578 0
-3097 3082 0
-3097 -3098 0
3098 3080 -3091 0
-3098 -3080 0
-3098 3091 0
3099 -3100 3102 0
-3099 3100 0
-3099 -3102 0
-3100 3080 3081 0
-3100 3080 -3101 0
3100 -3080 0
3100 -3081 3101 0
3101 -3082 -3092 0
-3101 3082 0
-3101 3092 0
3102 -3081 3098 0
-3102 3081 0
-3102 -3098 0
-3103 579 3098 3099 0
3103 -579 0
3103 -3099 0
3103 -3098 0
3104 7546 -3105 0
-3104 -7546 0
-3104 3105 0
3105 -3080 -3101 0
-3105 3080 0
-3105 3101 0
-3106 -5811 -2098 0
-3106 7547 2098 0
3106 -7547 2098 0
3106 5811 -2098 0
-3107 -5813 -2098 0
-3107 7548 2098 0
3107 -7548 2098 0
3107 5813 -2098 0
-3108 -5815 -2098 0
-3108 7549 2098 0
3108 -7549 2098 0
3108 5815 -2098 0
-3109 7550 2098 0
-3109 5816 -2098 0
3109 -7550 2098 0
3109 -5816 -2098 0
-3110 -5817 -2098 0
-3110 7551 2098 0
3110 -7551 2098 0
3110 5817 -2098 0
-3111 7552 2098 0
-3111 5818 -2098 0
3111 -7552 2098 0
3111 -5818 -2098 0
-3112 7553 2098 0
-3112 5814 -2098 0
3112 -7553 2098 0
3112 -5814 -2098 0
-3113 7554 2098 0
-3113 5812 -2098 0
3113 -7554 2098 0
3113 -5812 -2098 0
3114 -7555 3115 0
3114 -3115 -3131 0
-3114 7555 3115 0
-3114 -3115 3131 0
-3115 7561 3116 0
-3115 7559 3116 0
3115 -3116 0
3115 -7559 -7561 0
-3116 -3117 3125 3126 0
-3116 3122 3125 3126 0
3116 -3126 0
3116 -3125 0
3116 3117 -3122 0
3117 -7572 3118 3121 0
-3117 7572 0
-3117 -3121 0
-3117 -3118 0
3118 -2123 -2751 -3119 -3120 0
-3118 2123 0
-3118 3120 0
-3118 3119 0
-3118 2751 0
3119 -7573 -2126 0
-3119 7573 0
-3119 2126 0
3120 -7571 -7572 0
-3120 7571 0
-3120 7572 0
3121 -7561 -7562 -7573 0
-3121 7561 0
-3121 7562 0
-3121 7573 0
3122 -7572 -3123 0
3122 -3123 -3124 0
-3122 3123 0
-3122 7572 3124 0
3123 -7557 -2140 0
-3123 7557 0
-3123 2140 0
3124 2751 -3119 0
-3124 -2751 0
-3124 3119 0
-3125 7556 0
-3125 -7555 7557 0
-3125 7557 2126 0
3125 -7556 -7557 0
3125 7555 -7556 -2126 0
-3126 3128 3129 -3130 0
-3126 3127 3128 3129 0
3126 -3129 0
3126 -3128 0
3126 -3127 3130 0
3127 -7555 -7556 0
-3127 7555 0
-3127 7556 0
3128 -6121 580 0
-3128 6121 0
-3128 -580 0
3129 7557 -2140 0
-3129 -7557 0
-3129 2140 0
3130 -6028 -6105 0
3130 -6027 -6105 0
-3130 6105 0
-3130 6027 6028 0
-3131 -7555 -7557 0
-3131 7556 7557 0
-3131 7555 7557 -3124 0
3131 7555 -7557 0
3131 -7555 -7556 7557 0
3131 7555 -7556 3124 0
3132 -7556 3115 0
3132 -3115 -3133 0
-3132 7556 3115 0
-3132 -3115 3133 0
-3133 2124 -2751 3136 0
-3133 2124 3134 3136 0
3133 -2124 0
3133 -3136 0
3133 2751 -3134 0
3134 7557 -7563 -3135 0
-3134 3135 0
-3134 7563 0
-3134 -7557 0
3135 -2125 -2126 0
-3135 2125 0
-3135 2126 0
-3136 7555 0
-3136 -7556 -7557 0
3136 -7555 7557 0
3136 -7555 7556 0
3137 -7557 3138 0
3137 -3116 3138 0
-3137 -3138 0
-3137 7557 3116 0
3138 3123 -3139 -3140 0
3138 -3118 -3139 -3140 0
-3138 3140 0
-3138 3139 0
-3138 3118 -3123 0
-3139 7557 2125 2815 0
-3139 7557 2125 2752 0
3139 -7557 0
3139 -2125 0
3139 -2752 -2815 0
3140 -7558 3134 0
3140 -7561 7573 3134 0
-3140 -3134 0
-3140 7558 7561 0
-3140 7558 -7573 0
-3141 3114 3132 0
3141 -3114 0
3141 -3132 0
3142 -3137 3141 0
-3142 3137 0
-3142 -3141 0
-3143 3141 3144 0
3143 -3141 0
3143 -3144 0
3144 6251 -3137 0
-3144 -6251 0
-3144 3137 0
-3145 3141 -3147 0
-3145 3141 3144 0
-3145 3141 -3146 0
3145 -3141 0
3145 -3144 3146 3147 0
-3146 6247 6250 0
3146 -6247 0
3146 -6250 0
-3147 6245 6246 6249 0
3147 -6245 0
3147 -6249 0
3147 -6246 0
-3148 7562 3142 0
-3148 -6248 -3142 0
-3148 -50 3142 0
3148 6248 -3142 0
3148 -7562 50 3142 0
3149 -7573 3150 0
-3149 7573 0
-3149 -3150 0
-3150 50 3142 0
3150 -50 0
3150 -3142 0
3151 -6029 6030 -6105 0
-3151 6029 0
-3151 -6030 0
-3151 6105 0
-3152 7565 3153 0
-3152 -3153 3171 0
3152 -7565 3153 0
3152 -3153 -3171 0
-3153 3154 3163 3168 0
-3153 -7566 3154 3163 0
3153 -3154 0
3153 -3163 0
3153 7566 -3168 0
-3154 7577 3160 0
-3154 3155 3157 3160 0
3154 -3160 0
3154 -7577 -3157 0
3154 -7577 -3155 0
3155 7575 7576 -3156 0
-3155 3156 0
-3155 -7576 0
-3155 -7575 0
3156 -6120 -2136 0
-3156 6120 0
-3156 2136 0
3157 -7572 -7575 -3158 0
3157 -7572 2133 -3158 0
-3157 3158 0
-3157 7572 0
-3157 7575 -2133 0
3158 -3151 -3159 0
-3158 3151 0
-3158 3159 0
3159 -6027 6028 -6105 0
-3159 6027 0
-3159 -6028 0
-3159 6105 0
-3160 -3155 3162 0
-3160 3161 3162 0
3160 -3162 0
3160 3155 -3161 0
3161 -7566 -7569 -2136 0
-3161 7566 0
-3161 7569 0
-3161 2136 0
3162 -7566 2134 0
-3162 7566 0
-3162 -2134 0
3163 -7570 -3164 0
3163 -7570 -3159 -3166 0
-3163 7570 0
-3163 3164 3166 0
-3163 3159 3164 0
3164 7575 7576 -3165 0
-3164 3165 0
-3164 -7576 0
-3164 -7575 0
3165 6120 -2136 0
-3165 -6120 0
-3165 2136 0
3166 7576 -3167 0
3166 -7575 -3167 0
3166 -7299 -3167 0
-3166 3167 0
-3166 7299 7575 -7576 0
3167 -6119 6120 0
-3167 6119 0
-3167 -6120 0
-3168 7567 3170 0
-3168 -7565 7567 0
-3168 7565 -7567 3169 0
3168 -7565 -7567 0
3168 -7567 -3169 0
3168 7565 7567 -3170 0
3169 -5961 5962 -6105 0
-3169 5961 0
-3169 -5962 0
-3169 6105 0
3170 7300 -2140 0
-3170 -7300 0
-3170 2140 0
-3171 7570 7577 3172 0
-3171 -6120 7570 7577 0
3171 -7577 0
3171 -7570 0
3171 6120 -3172 0
-3172 6119 0
-3172 -7299 7568 0
-3172 7568 3173 0
3172 -6119 -7568 0
3172 -6119 7299 -3173 0
3173 -7566 -7569 0
-3173 7566 0
-3173 7569 0
-3174 7566 3175 0
-3174 -3154 3175 0
3174 -3175 0
3174 -7566 3154 0
3175 -3153 3178 0
3175 -7577 -3153 -3176 0
-3175 3153 0
-3175 7577 -3178 0
-3175 3176 -3178 0
3176 3155 -3177 0
-3176 -3155 0
-3176 3177 0
3177 -7572 -2133 0
-3177 7572 0
-3177 2133 0
3178 3179 -3180 3181 0
3178 7570 -3180 3181 0
-3178 -3181 0
-3178 3180 0
-3178 -7570 -3179 0
3179 -7575 -3159 -3165 0
-3179 7575 0
-3179 3159 0
-3179 3165 0
-3180 7566 2134 0
-3180 2134 3169 0
3180 -2134 0
3180 -7566 -3169 0
-3181 6120 3182 0
-3181 7568 3182 0
3181 -3182 0
3181 -6120 -7568 0
3182 -7566 -7569 3165 0
-3182 7566 0
-3182 7569 0
-3182 -3165 0
3183 -3153 -3185 0
3183 -7567 3153 0
3183 -3153 -3184 0
-3183 7567 3153 0
-3183 -3153 3184 3185 0
3184 -7577 3176 0
-3184 7577 0
-3184 -3176 0
-3185 7570 3182 3186 0
-3185 -3179 3182 3186 0
3185 -3186 0
3185 -3182 0
3185 -7570 3179 0
-3186 7568 3187 0
-3186 -6119 6120 3187 0
3186 -3187 0
3186 -6120 -7568 0
3186 6119 -7568 0
3187 -7566 2134 -3169 0
-3187 7566 0
-3187 -2134 0
-3187 3169 0
3188 3152 -3189 0
-3188 -3152 0
-3188 3189 0
3189 3174 -3183 0
-3189 -3174 0
-3189 3183 0
3190 -3152 3183 0
-3190 3152 0
-3190 -3183 0
3191 3174 -3190 0
-3191 -3174 0
-3191 3190 0
-3192 3193 3198 0
-3192 -7299 3193 -3194 0
3192 -3193 0
3192 7299 -3198 0
3192 3194 -3198 0
3193 -3169 -3188 0
-3193 3169 0
-3193 3188 0
-3194 3195 3196 0
-3194 7578 3195 0
-3194 -2133 3195 0
3194 -3195 0
3194 -7578 2133 -3196 0
3195 6120 -3191 0
-3195 -6120 0
-3195 3191 0
3196 -6120 -3197 0
-3196 6120 0
-3196 3197 0
3197 -3174 -3183 0
-3197 3174 0
-3197 3183 0
3198 3199 -3201 0
3198 7570 -3201 0
3198 3200 -3201 0
-3198 3201 0
-3198 -7570 -3199 -3200 0
3199 7575 -7576 0
-3199 -7575 0
-3199 7576 0
3200 -2133 -3165 0
-3200 2133 0
-3200 3165 0
3201 -7571 7577 3203 0
3201 -7571 3202 3203 0
-3201 7571 0
-3201 -3203 0
-3201 -7577 -3202 0
3202 -7575 7576 -3156 0
-3202 7575 0
-3202 -7576 0
-3202 3156 0
3203 -3159 -3173 -3202 0
3203 -3159 -3173 -3164 0
-3203 3159 0
-3203 3173 0
-3203 3164 3202 0
-3204 3205 -3208 0
-3204 7572 3205 0
3204 -3205 0
3204 -7572 3208 0
3205 3130 -3197 -3206 -3207 0
-3205 -3130 0
-3205 3207 0
-3205 3206 0
-3205 3197 0
3206 -6120 -7578 0
-3206 6120 0
-3206 7578 0
-3207 7299 7575 0
3207 -7299 0
3207 -7575 0
-3208 3199 3209 0
-3208 -7299 3209 0
-3208 3196 3209 0
3208 -3209 0
3208 7299 -3199 -3196 0
3209 -3152 -3189 0
-3209 3152 0
-3209 3189 0
-3210 -6252 3149 0
-3210 3142 3149 0
3210 -3149 0
3210 6252 -3142 0
-3211 3100 3212 0
-3211 3212 3213 0
-3211 579 -3100 3213 0
3211 3100 -3212 0
3211 -3100 -3213 0
3211 -579 -3212 0
-3212 7544 2827 3079 0
3212 -3079 0
3212 -2827 0
3212 -7544 0
3213 -7574 3214 0
-3213 7574 0
-3213 -3214 0
3214 -7546 -3105 0
3214 -7372 -3105 0
-3214 3105 0
-3214 7372 7546 0
-3215 7575 3218 3220 0
-3215 -3216 3218 3220 0
3215 -3220 0
3215 -3218 0
3215 -7575 3216 0
-3216 3170 3209 3217 0
3216 -3217 0
3216 -3209 0
3216 -3170 0
-3217 3177 3200 0
-3217 7580 3156 0
-3217 3156 3200 0
-3217 7580 3177 0
3217 -3156 -3177 0
3217 -7580 -3200 0
3218 -7575 -7576 -3219 0
3218 7575 7576 -3219 0
-3218 3219 0
-3218 -7575 7576 0
-3218 7575 -7576 0
3219 3170 -3217 0
-3219 -3170 0
-3219 3217 0
3220 -7301 -3170 0
-3220 7301 0
-3220 3170 0
-3221 -7576 -3216 3220 0
-3221 7576 3219 3220 0
3221 -3220 0
3221 7576 -3219 0
3221 -7576 3216 0
3222 3152 -3197 0
-3222 -3152 0
-3222 3197 0
3223 -3191 3224 0
3223 3224 -3226 0
3223 -7578 3224 0
-3223 -3224 0
-3223 7578 3191 3226 0
3224 -3209 0
3224 -3225 -3177 -3196 0
-3224 3177 3209 0
-3224 3196 3209 0
-3224 3225 3209 0
3225 7299 7575 -7576 0
-3225 7576 0
-3225 -7575 0
-3225 -7299 0
3226 -7575 -3196 0
3226 -7299 -3196 0
-3226 3196 0
-3226 7299 7575 0
3227 -3149 3204 -3210 0
3227 6245 3204 -3210 0
-3227 -3204 0
-3227 3210 0
-3227 -6245 3149 0
3228 -7580 3230 0
3228 -3229 -3230 0
3228 -3191 3230 0
-3228 3229 -3230 0
-3228 7580 3191 3230 0
3229 -7575 -3165 0
-3229 7575 0
-3229 3165 0
3230 -7569 -3166 0
-3230 7569 0
-3230 3166 0
-3231 -3232 3233 0
-3231 3232 3234 0
-3231 7578 3232 0
3231 -3232 -3233 0
3231 -7578 3232 -3234 0
3232 -7555 -7556 7557 0
-3232 7555 0
-3232 7556 0
-3232 -7557 0
-3233 -7573 7581 0
-3233 7581 -3130 0
-3233 7561 7581 0
3233 -7581 0
3233 -7561 7573 3130 0
-3234 3121 3235 0
-3234 3123 3235 0
-3234 7571 3235 0
3234 -3235 0
3234 -7571 -3121 -3123 0
3235 -2752 -3119 0
-3235 2752 0
-3235 3119 0
-3236 7582 2098 0
-3236 5953 -2098 0
3236 -7582 2098 0
3236 -5953 -2098 0
-3237 7583 2098 0
-3237 5954 -2098 0
3237 -7583 2098 0
3237 -5954 -2098 0
-3238 7584 2098 0
-3238 5955 -2098 0
3238 -7584 2098 0
3238 -5955 -2098 0
-3239 7585 2098 0
-3239 5956 -2098 0
3239 -7585 2098 0
3239 -5956 -2098 0
-3240 7586 2098 0
-3240 5957 -2098 0
3240 -7586 2098 0
3240 -5957 -2098 0
-3241 7587 2098 0
-3241 5958 -2098 0
3241 -7587 2098 0
3241 -5958 -2098 0
-3242 7588 2098 0
-3242 5959 -2098 0
3242 -7588 2098 0
3242 -5959 -2098 0
-3243 7589 2098 0
-3243 5960 -2098 0
3243 -7589 2098 0
3243 -5960 -2098 0
-3244 7590 2098 0
-3244 5825 -2098 0
3244 -7590 2098 0
3244 -5825 -2098 0
-3245 7591 2098 0
-3245 5826 -2098 0
3245 -7591 2098 0
3245 -5826 -2098 0
-3246 7592 2098 0
-3246 5828 -2098 0
3246 -7592 2098 0
3246 -5828 -2098 0
-3247 7593 2098 0
-3247 5830 -2098 0
3247 -7593 2098 0
3247 -5830 -2098 0
-3248 7594 2098 0
-3248 5832 -2098 0
3248 -7594 2098 0
3248 -5832 -2098 0
-3249 7595 2098 0
-3249 5834 -2098 0
3249 -7595 2098 0
3249 -5834 -2098 0
-3250 7596 2098 0
-3250 5836 -2098 0
3250 -7596 2098 0
3250 -5836 -2098 0
-3251 7597 2098 0
-3251 5838 -2098 0
3251 -7597 2098 0
3251 -5838 -2098 0
-3252 7598 2098 0
-3252 5840 -2098 0
3252 -7598 2098 0
3252 -5840 -2098 0
-3253 7599 2098 0
-3253 5842 -2098 0
3253 -7599 2098 0
3253 -5842 -2098 0
-3254 7600 2098 0
-3254 5844 -2098 0
3254 -7600 2098 0
3254 -5844 -2098 0
-3255 7601 2098 0
-3255 5846 -2098 0
3255 -7601 2098 0
3255 -5846 -2098 0
-3256 7602 2098 0
-3256 5848 -2098 0
3256 -7602 2098 0
3256 -5848 -2098 0
-3257 7603 2098 0
-3257 5850 -2098 0
3257 -7603 2098 0
3257 -5850 -2098 0
-3258 7604 2098 0
-3258 5852 -2098 0
3258 -7604 2098 0
3258 -5852 -2098 0
-3259 7605 2098 0
-3259 5854 -2098 0
3259 -7605 2098 0
3259 -5854 -2098 0
-3260 7606 2098 0
-3260 5856 -2098 0
3260 -7606 2098 0
3260 -5856 -2098 0
-3261 7607 2098 0
-3261 5858 -2098 0
3261 -7607 2098 0
3261 -5858 -2098 0
-3262 7608 2098 0
-3262 5860 -2098 0
3262 -7608 2098 0
3262 -5860 -2098 0
-3263 7609 2098 0
-3263 5862 -2098 0
3263 -7609 2098 0
3263 -5862 -2098 0
-3264 7610 2098 0
-3264 5864 -2098 0
3264 -7610 2098 0
3264 -5864 -2098 0
-3265 7611 2098 0
-3265 5866 -2098 0
3265 -7611 2098 0
3265 -5866 -2098 0
-3266 7612 2098 0
-3266 5868 -2098 0
3266 -7612 2098 0
3266 -5868 -2098 0
-3267 7613 2098 0
-3267 5870 -2098 0
3267 -7613 2098 0
3267 -5870 -2098 0
-3268 7614 2098 0
-3268 5872 -2098 0
3268 -7614 2098 0
3268 -5872 -2098 0
-3269 7615 2098 0
-3269 5874 -2098 0
3269 -7615 2098 0
3269 -5874 -2098 0
-3270 7616 2098 0
-3270 5876 -2098 0
3270 -7616 2098 0
3270 -5876 -2098 0
-3271 7617 2098 0
-3271 5878 -2098 0
3271 -7617 2098 0
3271 -5878 -2098 0
-3272 7618 2098 0
-3272 5880 -2098 0
3272 -7618 2098 0
3272 -5880 -2098 0
-3273 7619 2098 0
-3273 5882 -2098 0
3273 -7619 2098 0
3273 -5882 -2098 0
-3274 7620 2098 0
-3274 5884 -2098 0
3274 -7620 2098 0
3274 -5884 -2098 0
-3275 7621 2098 0
-3275 5886 -2098 0
3275 -7621 2098 0
3275 -5886 -2098 0
-3276 7622 2098 0
-3276 5888 -2098 0
3276 -7622 2098 0
3276 -5888 -2098 0
-3277 7623 2098 0
-3277 5889 -2098 0
3277 -7623 2098 0
3277 -5889 -2098 0
-3278 7624 2098 0
-3278 5890 -2098 0
3278 -7624 2098 0
3278 -5890 -2098 0
-3279 7625 2098 0
-3279 5892 -2098 0
3279 -7625 2098 0
3279 -5892 -2098 0
-3280 7626 2098 0
-3280 5894 -2098 0
3280 -7626 2098 0
3280 -5894 -2098 0
-3281 7627 2098 0
-3281 5896 -2098 0
3281 -7627 2098 0
3281 -5896 -2098 0
-3282 7628 2098 0
-3282 5898 -2098 0
3282 -7628 2098 0
3282 -5898 -2098 0
-3283 7629 2098 0
-3283 5900 -2098 0
3283 -7629 2098 0
3283 -5900 -2098 0
-3284 7630 2098 0
-3284 5902 -2098 0
3284 -7630 2098 0
3284 -5902 -2098 0
-3285 7631 2098 0
-3285 5904 -2098 0
3285 -7631 2098 0
3285 -5904 -2098 0
-3286 7632 2098 0
-3286 5906 -2098 0
3286 -7632 2098 0
3286 -5906 -2098 0
-3287 7633 2098 0
-3287 5908 -2098 0
3287 -7633 2098 0
3287 -5908 -2098 0
-3288 7634 2098 0
-3288 5910 -2098 0
3288 -7634 2098 0
3288 -5910 -2098 0
-3289 7635 2098 0
-3289 5912 -2098 0
3289 -7635 2098 0
3289 -5912 -2098 0
-3290 7636 2098 0
-3290 5914 -2098 0
3290 -7636 2098 0
3290 -5914 -2098 0
-3291 7637 2098 0
-3291 5916 -2098 0
3291 -7637 2098 0
3291 -5916 -2098 0
-3292 7638 2098 0
-3292 5918 -2098 0
3292 -7638 2098 0
3292 -5918 -2098 0
-3293 7639 2098 0
-3293 5920 -2098 0
3293 -7639 2098 0
3293 -5920 -2098 0
-3294 7640 2098 0
-3294 5922 -2098 0
3294 -7640 2098 0
3294 -5922 -2098 0
-3295 7641 2098 0
-3295 5924 -2098 0
3295 -7641 2098 0
3295 -5924 -2098 0
-3296 7642 2098 0
-3296 5926 -2098 0
3296 -7642 2098 0
3296 -5926 -2098 0
-3297 7643 2098 0
-3297 5928 -2098 0
3297 -7643 2098 0
3297 -5928 -2098 0
-3298 7644 2098 0
-3298 5930 -2098 0
3298 -7644 2098 0
3298 -5930 -2098 0
-3299 7645 2098 0
-3299 5932 -2098 0
3299 -7645 2098 0
3299 -5932 -2098 0
-3300 7646 2098 0
-3300 5934 -2098 0
3300 -7646 2098 0
3300 -5934 -2098 0
-3301 7647 2098 0
-3301 5936 -2098 0
3301 -7647 2098 0
3301 -5936 -2098 0
-3302 7648 2098 0
-3302 5938 -2098 0
3302 -7648 2098 0
3302 -5938 -2098 0
-3303 7649 2098 0
-3303 5940 -2098 0
3303 -7649 2098 0
3303 -5940 -2098 0
-3304 7650 2098 0
-3304 5942 -2098 0
3304 -7650 2098 0
3304 -5942 -2098 0
-3305 7651 2098 0
-3305 5944 -2098 0
3305 -7651 2098 0
3305 -5944 -2098 0
-3306 7652 2098 0
-3306 5946 -2098 0
3306 -7652 2098 0
3306 -5946 -2098 0
-3307 7653 2098 0
-3307 5948 -2098 0
3307 -7653 2098 0
3307 -5948 -2098 0
-3308 7654 2098 0
-3308 5950 -2098 0
3308 -7654 2098 0
3308 -5950 -2098 0
-3309 7655 2098 0
-3309 5952 -2098 0
3309 -7655 2098 0
3309 -5952 -2098 0
-3310 -2106 3311 0
-3310 7656 2106 0
3310 -2106 -3311 0
3310 -7656 2106 0
3311 -5963 -3206 0
-3311 5963 0
-3311 3206 0
3312 -2117 -3311 0
3312 -7657 2117 0
-3312 -2117 3311 0
-3312 7657 2117 0
3313 -2115 -3311 0
3313 -7658 2115 0
-3313 -2115 3311 0
-3313 7658 2115 0
3314 -2100 -3311 0
3314 -7659 2100 0
-3314 -2100 3311 0
-3314 7659 2100 0
3315 -2102 -3311 0
3315 -7660 2102 0
-3315 -2102 3311 0
-3315 7660 2102 0
3316 -2110 -3311 0
3316 -7661 2110 0
-3316 -2110 3311 0
-3316 7661 2110 0
3317 -2112 -3311 0
3317 -7662 2112 0
-3317 -2112 3311 0
-3317 7662 2112 0
3318 -2108 -3311 0
3318 -7663 2108 0
-3318 -2108 3311 0
-3318 7663 2108 0
-3319 -2106 3320 0
-3319 7664 2106 0
3319 -2106 -3320 0
3319 -7664 2106 0
3320 -5964 -3206 0
-3320 5964 0
-3320 3206 0
3321 -2117 -3320 0
3321 -7665 2117 0
-3321 -2117 3320 0
-3321 7665 2117 0
3322 -2115 -3320 0
3322 -7666 2115 0
-3322 -2115 3320 0
-3322 7666 2115 0
3323 -2100 -3320 0
3323 -7667 2100 0
-3323 -2100 3320 0
-3323 7667 2100 0
3324 -2102 -3320 0
3324 -7668 2102 0
-3324 -2102 3320 0
-3324 7668 2102 0
3325 -2110 -3320 0
3325 -7669 2110 0
-3325 -2110 3320 0
-3325 7669 2110 0
3326 -2112 -3320 0
3326 -7670 2112 0
-3326 -2112 3320 0
-3326 7670 2112 0
3327 -2108 -3320 0
3327 -7671 2108 0
-3327 -2108 3320 0
-3327 7671 2108 0
-3328 7672 3142 0
-3328 -6253 -3142 0
-3328 -50 3142 0
3328 6253 -3142 0
3328 -7672 50 3142 0
-3329 7673 3142 0
-3329 6257 -3142 0
-3329 -50 3142 0
3329 -6257 -3142 0
3329 -7673 50 3142 0
-3330 -2106 3331 0
-3330 7674 2106 0
3330 -2106 -3331 0
3330 -7674 2106 0
3331 -5965 -3206 0
-3331 5965 0
-3331 3206 0
3332 -2117 -3331 0
3332 -7675 2117 0
-3332 -2117 3331 0
-3332 7675 2117 0
3333 -2115 -3331 0
3333 -7676 2115 0
-3333 -2115 3331 0
-3333 7676 2115 0
3334 -2100 -3331 0
3334 -7677 2100 0
-3334 -2100 3331 0
-3334 7677 2100 0
3335 -2102 -3331 0
3335 -7678 2102 0
-3335 -2102 3331 0
-3335 7678 2102 0
3336 -2110 -3331 0
3336 -7679 2110 0
-3336 -2110 3331 0
-3336 7679 2110 0
3337 -2112 -3331 0
3337 -7680 2112 0
-3337 -2112 3331 0
-3337 7680 2112 0
3338 -2108 -3331 0
3338 -7681 2108 0
-3338 -2108 3331 0
-3338 7681 2108 0
-3339 7682 3142 0
-3339 -6254 -3142 0
-3339 -50 3142 0
3339 6254 -3142 0
3339 -7682 50 3142 0
-3340 -2106 3341 0
-3340 7683 2106 0
3340 -2106 -3341 0
3340 -7683 2106 0
3341 -5966 -3206 0
-3341 5966 0
-3341 3206 0
3342 -2117 -3341 0
3342 -7684 2117 0
-3342 -2117 3341 0
-3342 7684 2117 0
3343 -2115 -3341 0
3343 -7685 2115 0
-3343 -2115 3341 0
-3343 7685 2115 0
3344 -2100 -3341 0
3344 -7686 2100 0
-3344 -2100 3341 0
-3344 7686 2100 0
3345 -2102 -3341 0
3345 -7687 2102 0
-3345 -2102 3341 0
-3345 7687 2102 0
3346 -2110 -3341 0
3346 -7688 2110 0
-3346 -2110 3341 0
-3346 7688 2110 0
3347 -2112 -3341 0
3347 -7689 2112 0
-3347 -2112 3341 0
-3347 7689 2112 0
3348 -2108 -3341 0
3348 -7690 2108 0
-3348 -2108 3341 0
-3348 7690 2108 0
-3349 7691 3142 0
-3349 6258 -3142 0
-3349 -50 3142 0
3349 -6258 -3142 0
3349 -7691 50 3142 0
-3350 -2106 3351 0
-3350 7692 2106 0
3350 -2106 -3351 0
3350 -7692 2106 0
3351 -5967 -3206 0
-3351 5967 0
-3351 3206 0
3352 -2117 -3351 0
3352 -7693 2117 0
-3352 -2117 3351 0
-3352 7693 2117 0
3353 -2115 -3351 0
3353 -7694 2115 0
-3353 -2115 3351 0
-3353 7694 2115 0
3354 -2100 -3351 0
3354 -7695 2100 0
-3354 -2100 3351 0
-3354 7695 2100 0
3355 -2102 -3351 0
3355 -7696 2102 0
-3355 -2102 3351 0
-3355 7696 2102 0
3356 -2110 -3351 0
3356 -7697 2110 0
-3356 -2110 3351 0
-3356 7697 2110 0
3357 -2112 -3351 0
3357 -7698 2112 0
-3357 -2112 3351 0
-3357 7698 2112 0
3358 -2108 -3351 0
3358 -7699 2108 0
-3358 -2108 3351 0
-3358 7699 2108 0
-3359 7700 3142 0
-3359 -6255 -3142 0
-3359 -50 3142 0
3359 6255 -3142 0
3359 -7700 50 3142 0
-3360 -2106 3361 0
-3360 7701 2106 0
3360 -2106 -3361 0
3360 -7701 2106 0
3361 -5968 -3206 0
-3361 5968 0
-3361 3206 0
3362 -2117 -3361 0
3362 -7702 2117 0
-3362 -2117 3361 0
-3362 7702 2117 0
3363 -2115 -3361 0
3363 -7703 2115 0
-3363 -2115 3361 0
-3363 7703 2115 0
3364 -2100 -3361 0
3364 -7704 2100 0
-3364 -2100 3361 0
-3364 7704 2100 0
3365 -2102 -3361 0
3365 -7705 2102 0
-3365 -2102 3361 0
-3365 7705 2102 0
3366 -2110 -3361 0
3366 -7706 2110 0
-3366 -2110 3361 0
-3366 7706 2110 0
3367 -2112 -3361 0
3367 -7707 2112 0
-3367 -2112 3361 0
-3367 7707 2112 0
3368 -2108 -3361 0
3368 -7708 2108 0
-3368 -2108 3361 0
-3368 7708 2108 0
-3369 7709 3142 0
-3369 6259 -3142 0
-3369 -50 3142 0
3369 -6259 -3142 0
3369 -7709 50 3142 0
-3370 -2106 3371 0
-3370 7710 2106 0
3370 -2106 -3371 0
3370 -7710 2106 0
3371 -5969 -3206 0
-3371 5969 0
-3371 3206 0
3372 -2117 -3371 0
3372 -7711 2117 0
-3372 -2117 3371 0
-3372 7711 2117 0
3373 -2115 -3371 0
3373 -7712 2115 0
-3373 -2115 3371 0
-3373 7712 2115 0
3374 -2100 -3371 0
3374 -7713 2100 0
-3374 -2100 3371 0
-3374 7713 2100 0
3375 -2102 -3371 0
3375 -7714 2102 0
-3375 -2102 3371 0
-3375 7714 2102 0
3376 -2110 -3371 0
3376 -7715 2110 0
-3376 -2110 3371 0
-3376 7715 2110 0
3377 -2112 -3371 0
3377 -7716 2112 0
-3377 -2112 3371 0
-3377 7716 2112 0
3378 -2108 -3371 0
3378 -7717 2108 0
-3378 -2108 3371 0
-3378 7717 2108 0
-3379 7718 3142 0
-3379 -6256 -3142 0
-3379 -50 3142 0
3379 6256 -3142 0
3379 -7718 50 3142 0
-3380 -2106 3381 0
-3380 7719 2106 0
3380 -2106 -3381 0
3380 -7719 2106 0
3381 -5970 -3206 0
-3381 5970 0
-3381 3206 0
3382 -2117 -3381 0
3382 -7720 2117 0
-3382 -2117 3381 0
-3382 7720 2117 0
3383 -2115 -3381 0
3383 -7721 2115 0
-3383 -2115 3381 0
-3383 7721 2115 0
3384 -2100 -3381 0
3384 -7722 2100 0
-3384 -2100 3381 0
-3384 7722 2100 0
3385 -2102 -3381 0
3385 -7723 2102 0
-3385 -2102 3381 0
-3385 7723 2102 0
3386 -2110 -3381 0
3386 -7724 2110 0
-3386 -2110 3381 0
-3386 7724 2110 0
3387 -2112 -3381 0
3387 -7725 2112 0
-3387 -2112 3381 0
-3387 7725 2112 0
3388 -2108 -3381 0
3388 -7726 2108 0
-3388 -2108 3381 0
-3388 7726 2108 0
-3389 7727 3142 0
-3389 6260 -3142 0
-3389 -50 3142 0
3389 -6260 -3142 0
3389 -7727 50 3142 0
-3390 -2106 3391 0
-3390 7728 2106 0
3390 -2106 -3391 0
3390 -7728 2106 0
3391 -5971 -3206 0
-3391 5971 0
-3391 3206 0
3392 -2117 -3391 0
3392 -7729 2117 0
-3392 -2117 3391 0
-3392 7729 2117 0
3393 -2115 -3391 0
3393 -7730 2115 0
-3393 -2115 3391 0
-3393 7730 2115 0
3394 -2100 -3391 0
3394 -7731 2100 0
-3394 -2100 3391 0
-3394 7731 2100 0
3395 -2102 -3391 0
3395 -7732 2102 0
-3395 -2102 3391 0
-3395 7732 2102 0
3396 -2110 -3391 0
3396 -7733 2110 0
-3396 -2110 3391 0
-3396 7733 2110 0
3397 -2112 -3391 0
3397 -7734 2112 0
-3397 -2112 3391 0
-3397 7734 2112 0
3398 -2108 -3391 0
3398 -7735 2108 0
-3398 -2108 3391 0
-3398 7735 2108 0
-3399 -2106 3400 0
-3399 7736 2106 0
3399 -2106 -3400 0
3399 -7736 2106 0
3400 -5972 -3206 0
-3400 5972 0
-3400 3206 0
3401 -2117 -3400 0
3401 -7737 2117 0
-3401 -2117 3400 0
-3401 7737 2117 0
3402 -2115 -3400 0
3402 -7738 2115 0
-3402 -2115 3400 0
-3402 7738 2115 0
3403 -2100 -3400 0
3403 -7739 2100 0
-3403 -2100 3400 0
-3403 7739 2100 0
3404 -2102 -3400 0
3404 -7740 2102 0
-3404 -2102 3400 0
-3404 7740 2102 0
3405 -2110 -3400 0
3405 -7741 2110 0
-3405 -2110 3400 0
-3405 7741 2110 0
3406 -2112 -3400 0
3406 -7742 2112 0
-3406 -2112 3400 0
-3406 7742 2112 0
3407 -2108 -3400 0
3407 -7743 2108 0
-3407 -2108 3400 0
-3407 7743 2108 0
-3408 -2106 3409 0
-3408 7744 2106 0
3408 -2106 -3409 0
3408 -7744 2106 0
3409 -5973 -3206 0
-3409 5973 0
-3409 3206 0
3410 -2117 -3409 0
3410 -7745 2117 0
-3410 -2117 3409 0
-3410 7745 2117 0
3411 -2115 -3409 0
3411 -7746 2115 0
-3411 -2115 3409 0
-3411 7746 2115 0
3412 -2100 -3409 0
3412 -7747 2100 0
-3412 -2100 3409 0
-3412 7747 2100 0
3413 -2102 -3409 0
3413 -7748 2102 0
-3413 -2102 3409 0
-3413 7748 2102 0
3414 -2110 -3409 0
3414 -7749 2110 0
-3414 -2110 3409 0
-3414 7749 2110 0
3415 -2112 -3409 0
3415 -7750 2112 0
-3415 -2112 3409 0
-3415 7750 2112 0
3416 -2108 -3409 0
3416 -7751 2108 0
-3416 -2108 3409 0
-3416 7751 2108 0
-3417 -2106 3418 0
-3417 7752 2106 0
3417 -2106 -3418 0
3417 -7752 2106 0
3418 -5974 -3206 0
-3418 5974 0
-3418 3206 0
3419 -2117 -3418 0
3419 -7753 2117 0
-3419 -2117 3418 0
-3419 7753 2117 0
3420 -2115 -3418 0
3420 -7754 2115 0
-3420 -2115 3418 0
-3420 7754 2115 0
3421 -2100 -3418 0
3421 -7755 2100 0
-3421 -2100 3418 0
-3421 7755 2100 0
3422 -2102 -3418 0
3422 -7756 2102 0
-3422 -2102 3418 0
-3422 7756 2102 0
3423 -2110 -3418 0
3423 -7757 2110 0
-3423 -2110 3418 0
-3423 7757 2110 0
3424 -2112 -3418 0
3424 -7758 2112 0
-3424 -2112 3418 0
-3424 7758 2112 0
3425 -2108 -3418 0
3425 -7759 2108 0
-3425 -2108 3418 0
-3425 7759 2108 0
-3426 -2106 3427 0
-3426 7760 2106 0
3426 -2106 -3427 0
3426 -7760 2106 0
3427 -5975 -3206 0
-3427 5975 0
-3427 3206 0
3428 -2117 -3427 0
3428 -7761 2117 0
-3428 -2117 3427 0
-3428 7761 2117 0
3429 -2115 -3427 0
3429 -7762 2115 0
-3429 -2115 3427 0
-3429 7762 2115 0
3430 -2100 -3427 0
3430 -7763 2100 0
-3430 -2100 3427 0
-3430 7763 2100 0
3431 -2102 -3427 0
3431 -7764 2102 0
-3431 -2102 3427 0
-3431 7764 2102 0
3432 -2110 -3427 0
3432 -7765 2110 0
-3432 -2110 3427 0
-3432 7765 2110 0
3433 -2112 -3427 0
3433 -7766 2112 0
-3433 -2112 3427 0
-3433 7766 2112 0
3434 -2108 -3427 0
3434 -7767 2108 0
-3434 -2108 3427 0
-3434 7767 2108 0
-3435 -2106 3436 0
-3435 7768 2106 0
3435 -2106 -3436 0
3435 -7768 2106 0
3436 -5976 -3206 0
-3436 5976 0
-3436 3206 0
3437 -2117 -3436 0
3437 -7769 2117 0
-3437 -2117 3436 0
-3437 7769 2117 0
3438 -2115 -3436 0
3438 -7770 2115 0
-3438 -2115 3436 0
-3438 7770 2115 0
3439 -2100 -3436 0
3439 -7771 2100 0
-3439 -2100 3436 0
-3439 7771 2100 0
3440 -2102 -3436 0
3440 -7772 2102 0
-3440 -2102 3436 0
-3440 7772 2102 0
3441 -2110 -3436 0
3441 -7773 2110 0
-3441 -2110 3436 0
-3441 7773 2110 0
3442 -2112 -3436 0
3442 -7774 2112 0
-3442 -2112 3436 0
-3442 7774 2112 0
3443 -2108 -3436 0
3443 -7775 2108 0
-3443 -2108 3436 0
-3443 7775 2108 0
-3444 -2106 3445 0
-3444 7776 2106 0
3444 -2106 -3445 0
3444 -7776 2106 0
3445 -5977 -3206 0
-3445 5977 0
-3445 3206 0
3446 -2117 -3445 0
3446 -7777 2117 0
-3446 -2117 3445 0
-3446 7777 2117 0
3447 -2115 -3445 0
3447 -7778 2115 0
-3447 -2115 3445 0
-3447 7778 2115 0
3448 -2100 -3445 0
3448 -7779 2100 0
-3448 -2100 3445 0
-3448 7779 2100 0
3449 -2102 -3445 0
3449 -7780 2102 0
-3449 -2102 3445 0
-3449 7780 2102 0
3450 -2110 -3445 0
3450 -7781 2110 0
-3450 -2110 3445 0
-3450 7781 2110 0
3451 -2112 -3445 0
3451 -7782 2112 0
-3451 -2112 3445 0
-3451 7782 2112 0
3452 -2108 -3445 0
3452 -7783 2108 0
-3452 -2108 3445 0
-3452 7783 2108 0
-3453 -2106 3454 0
-3453 7784 2106 0
3453 -2106 -3454 0
3453 -7784 2106 0
3454 -5978 -3206 0
-3454 5978 0
-3454 3206 0
3455 -2117 -3454 0
3455 -7785 2117 0
-3455 -2117 3454 0
-3455 7785 2117 0
3456 -2115 -3454 0
3456 -7786 2115 0
-3456 -2115 3454 0
-3456 7786 2115 0
3457 -2100 -3454 0
3457 -7787 2100 0
-3457 -2100 3454 0
-3457 7787 2100 0
3458 -2102 -3454 0
3458 -7788 2102 0
-3458 -2102 3454 0
-3458 7788 2102 0
3459 -2110 -3454 0
3459 -7789 2110 0
-3459 -2110 3454 0
-3459 7789 2110 0
3460 -2112 -3454 0
3460 -7790 2112 0
-3460 -2112 3454 0
-3460 7790 2112 0
3461 -2108 -3454 0
3461 -7791 2108 0
-3461 -2108 3454 0
-3461 7791 2108 0
-3462 -2106 3463 0
-3462 7792 2106 0
3462 -2106 -3463 0
3462 -7792 2106 0
3463 -5979 -3206 0
-3463 5979 0
-3463 3206 0
3464 -2117 -3463 0
3464 -7793 2117 0
-3464 -2117 3463 0
-3464 7793 2117 0
3465 -2115 -3463 0
3465 -7794 2115 0
-3465 -2115 3463 0
-3465 7794 2115 0
3466 -2100 -3463 0
3466 -7795 2100 0
-3466 -2100 3463 0
-3466 7795 2100 0
3467 -2102 -3463 0
3467 -7796 2102 0
-3467 -2102 3463 0
-3467 7796 2102 0
3468 -2110 -3463 0
3468 -7797 2110 0
-3468 -2110 3463 0
-3468 7797 2110 0
3469 -2112 -3463 0
3469 -7798 2112 0
-3469 -2112 3463 0
-3469 7798 2112 0
3470 -2108 -3463 0
3470 -7799 2108 0
-3470 -2108 3463 0
-3470 7799 2108 0
-3471 -2106 3472 0
-3471 7800 2106 0
3471 -2106 -3472 0
3471 -7800 2106 0
3472 -5980 -3206 0
-3472 5980 0
-3472 3206 0
3473 -2117 -3472 0
3473 -7801 2117 0
-3473 -2117 3472 0
-3473 7801 2117 0
3474 -2115 -3472 0
3474 -7802 2115 0
-3474 -2115 3472 0
-3474 7802 2115 0
3475 -2100 -3472 0
3475 -7803 2100 0
-3475 -2100 3472 0
-3475 7803 2100 0
3476 -2102 -3472 0
3476 -7804 2102 0
-3476 -2102 3472 0
-3476 7804 2102 0
3477 -2110 -3472 0
3477 -7805 2110 0
-3477 -2110 3472 0
-3477 7805 2110 0
3478 -2112 -3472 0
3478 -7806 2112 0
-3478 -2112 3472 0
-3478 7806 2112 0
3479 -2108 -3472 0
3479 -7807 2108 0
-3479 -2108 3472 0
-3479 7807 2108 0
-3480 -2106 3481 0
-3480 7808 2106 0
3480 -2106 -3481 0
3480 -7808 2106 0
3481 -5981 -3206 0
-3481 5981 0
-3481 3206 0
3482 -2117 -3481 0
3482 -7809 2117 0
-3482 -2117 3481 0
-3482 7809 2117 0
3483 -2115 -3481 0
3483 -7810 2115 0
-3483 -2115 3481 0
-3483 7810 2115 0
3484 -2100 -3481 0
3484 -7811 2100 0
-3484 -2100 3481 0
-3484 7811 2100 0
3485 -2102 -3481 0
3485 -7812 2102 0
-3485 -2102 3481 0
-3485 7812 2102 0
3486 -2110 -3481 0
3486 -7813 2110 0
-3486 -2110 3481 0
-3486 7813 2110 0
3487 -2112 -3481 0
3487 -7814 2112 0
-3487 -2112 3481 0
-3487 7814 2112 0
3488 -2108 -3481 0
3488 -7815 2108 0
-3488 -2108 3481 0
-3488 7815 2108 0
-3489 -2106 3490 0
-3489 7816 2106 0
3489 -2106 -3490 0
3489 -7816 2106 0
3490 -5982 -3206 0
-3490 5982 0
-3490 3206 0
3491 -2117 -3490 0
3491 -7817 2117 0
-3491 -2117 3490 0
-3491 7817 2117 0
3492 -2115 -3490 0
3492 -7818 2115 0
-3492 -2115 3490 0
-3492 7818 2115 0
3493 -2100 -3490 0
3493 -7819 2100 0
-3493 -2100 3490 0
-3493 7819 2100 0
3494 -2102 -3490 0
3494 -7820 2102 0
-3494 -2102 3490 0
-3494 7820 2102 0
3495 -2110 -3490 0
3495 -7821 2110 0
-3495 -2110 3490 0
-3495 7821 2110 0
3496 -2112 -3490 0
3496 -7822 2112 0
-3496 -2112 3490 0
-3496 7822 2112 0
3497 -2108 -3490 0
3497 -7823 2108 0
-3497 -2108 3490 0
-3497 7823 2108 0
-3498 -2106 3499 0
-3498 7824 2106 0
3498 -2106 -3499 0
3498 -7824 2106 0
3499 -5983 -3206 0
-3499 5983 0
-3499 3206 0
3500 -2117 -3499 0
3500 -7825 2117 0
-3500 -2117 3499 0
-3500 7825 2117 0
3501 -2115 -3499 0
3501 -7826 2115 0
-3501 -2115 3499 0
-3501 7826 2115 0
3502 -2100 -3499 0
3502 -7827 2100 0
-3502 -2100 3499 0
-3502 7827 2100 0
3503 -2102 -3499 0
3503 -7828 2102 0
-3503 -2102 3499 0
-3503 7828 2102 0
3504 -2110 -3499 0
3504 -7829 2110 0
-3504 -2110 3499 0
-3504 7829 2110 0
3505 -2112 -3499 0
3505 -7830 2112 0
-3505 -2112 3499 0
-3505 7830 2112 0
3506 -2108 -3499 0
3506 -7831 2108 0
-3506 -2108 3499 0
-3506 7831 2108 0
-3507 -2106 3508 0
-3507 7832 2106 0
3507 -2106 -3508 0
3507 -7832 2106 0
3508 -5984 -3206 0
-3508 5984 0
-3508 3206 0
3509 -2117 -3508 0
3509 -7833 2117 0
-3509 -2117 3508 0
-3509 7833 2117 0
3510 -2115 -3508 0
3510 -7834 2115 0
-3510 -2115 3508 0
-3510 7834 2115 0
3511 -2100 -3508 0
3511 -7835 2100 0
-3511 -2100 3508 0
-3511 7835 2100 0
3512 -2102 -3508 0
3512 -7836 2102 0
-3512 -2102 3508 0
-3512 7836 2102 0
3513 -2110 -3508 0
3513 -7837 2110 0
-3513 -2110 3508 0
-3513 7837 2110 0
3514 -2112 -3508 0
3514 -7838 2112 0
-3514 -2112 3508 0
-3514 7838 2112 0
3515 -2108 -3508 0
3515 -7839 2108 0
-3515 -2108 3508 0
-3515 7839 2108 0
-3516 -2106 3517 0
-3516 7840 2106 0
3516 -2106 -3517 0
3516 -7840 2106 0
3517 -5985 -3206 0
-3517 5985 0
-3517 3206 0
3518 -2117 -3517 0
3518 -7841 2117 0
-3518 -2117 3517 0
-3518 7841 2117 0
3519 -2115 -3517 0
3519 -7842 2115 0
-3519 -2115 3517 0
-3519 7842 2115 0
3520 -2100 -3517 0
3520 -7843 2100 0
-3520 -2100 3517 0
-3520 7843 2100 0
3521 -2102 -3517 0
3521 -7844 2102 0
-3521 -2102 3517 0
-3521 7844 2102 0
3522 -2110 -3517 0
3522 -7845 2110 0
-3522 -2110 3517 0
-3522 7845 2110 0
3523 -2112 -3517 0
3523 -7846 2112 0
-3523 -2112 3517 0
-3523 7846 2112 0
3524 -2108 -3517 0
3524 -7847 2108 0
-3524 -2108 3517 0
-3524 7847 2108 0
-3525 -2106 3526 0
-3525 7848 2106 0
3525 -2106 -3526 0
3525 -7848 2106 0
3526 -5986 -3206 0
-3526 5986 0
-3526 3206 0
3527 -2117 -3526 0
3527 -7849 2117 0
-3527 -2117 3526 0
-3527 7849 2117 0
3528 -2115 -3526 0
3528 -7850 2115 0
-3528 -2115 3526 0
-3528 7850 2115 0
3529 -2100 -3526 0
3529 -7851 2100 0
-3529 -2100 3526 0
-3529 7851 2100 0
3530 -2102 -3526 0
3530 -7852 2102 0
-3530 -2102 3526 0
-3530 7852 2102 0
3531 -2110 -3526 0
3531 -7853 2110 0
-3531 -2110 3526 0
-3531 7853 2110 0
3532 -2112 -3526 0
3532 -7854 2112 0
-3532 -2112 3526 0
-3532 7854 2112 0
3533 -2108 -3526 0
3533 -7855 2108 0
-3533 -2108 3526 0
-3533 7855 2108 0
-3534 -2106 3535 0
-3534 7856 2106 0
3534 -2106 -3535 0
3534 -7856 2106 0
3535 -5987 -3206 0
-3535 5987 0
-3535 3206 0
3536 -2117 -3535 0
3536 -7857 2117 0
-3536 -2117 3535 0
-3536 7857 2117 0
3537 -2115 -3535 0
3537 -7858 2115 0
-3537 -2115 3535 0
-3537 7858 2115 0
3538 -2100 -3535 0
3538 -7859 2100 0
-3538 -2100 3535 0
-3538 7859 2100 0
3539 -2102 -3535 0
3539 -7860 2102 0
-3539 -2102 3535 0
-3539 7860 2102 0
3540 -2110 -3535 0
3540 -7861 2110 0
-3540 -2110 3535 0
-3540 7861 2110 0
3541 -2112 -3535 0
3541 -7862 2112 0
-3541 -2112 3535 0
-3541 7862 2112 0
3542 -2108 -3535 0
3542 -7863 2108 0
-3542 -2108 3535 0
-3542 7863 2108 0
-3543 -2106 3544 0
-3543 7864 2106 0
3543 -2106 -3544 0
3543 -7864 2106 0
3544 -5988 -3206 0
-3544 5988 0
-3544 3206 0
3545 -2117 -3544 0
3545 -7865 2117 0
-3545 -2117 3544 0
-3545 7865 2117 0
3546 -2115 -3544 0
3546 -7866 2115 0
-3546 -2115 3544 0
-3546 7866 2115 0
3547 -2100 -3544 0
3547 -7867 2100 0
-3547 -2100 3544 0
-3547 7867 2100 0
3548 -2102 -3544 0
3548 -7868 2102 0
-3548 -2102 3544 0
-3548 7868 2102 0
3549 -2110 -3544 0
3549 -7869 2110 0
-3549 -2110 3544 0
-3549 7869 2110 0
3550 -2112 -3544 0
3550 -7870 2112 0
-3550 -2112 3544 0
-3550 7870 2112 0
3551 -2108 -3544 0
3551 -7871 2108 0
-3551 -2108 3544 0
-3551 7871 2108 0
-3552 -2106 3553 0
-3552 7872 2106 0
3552 -2106 -3553 0
3552 -7872 2106 0
3553 -5989 -3206 0
-3553 5989 0
-3553 3206 0
3554 -2117 -3553 0
3554 -7873 2117 0
-3554 -2117 3553 0
-3554 7873 2117 0
3555 -2115 -3553 0
3555 -7874 2115 0
-3555 -2115 3553 0
-3555 7874 2115 0
3556 -2100 -3553 0
3556 -7875 2100 0
-3556 -2100 3553 0
-3556 7875 2100 0
3557 -2102 -3553 0
3557 -7876 2102 0
-3557 -2102 3553 0
-3557 7876 2102 0
3558 -2110 -3553 0
3558 -7877 2110 0
-3558 -2110 3553 0
-3558 7877 2110 0
3559 -2112 -3553 0
3559 -7878 2112 0
-3559 -2112 3553 0
-3559 7878 2112 0
3560 -2108 -3553 0
3560 -7879 2108 0
-3560 -2108 3553 0
-3560 7879 2108 0
-3561 -2106 3562 0
-3561 7880 2106 0
3561 -2106 -3562 0
3561 -7880 2106 0
3562 -5990 -3206 0
-3562 5990 0
-3562 3206 0
3563 -2117 -3562 0
3563 -7881 2117 0
-3563 -2117 3562 0
-3563 7881 2117 0
3564 -2115 -3562 0
3564 -7882 2115 0
-3564 -2115 3562 0
-3564 7882 2115 0
3565 -2100 -3562 0
3565 -7883 2100 0
-3565 -2100 3562 0
-3565 7883 2100 0
3566 -2102 -3562 0
3566 -7884 2102 0
-3566 -2102 3562 0
-3566 7884 2102 0
3567 -2110 -3562 0
3567 -7885 2110 0
-3567 -2110 3562 0
-3567 7885 2110 0
3568 -2112 -3562 0
3568 -7886 2112 0
-3568 -2112 3562 0
-3568 7886 2112 0
3569 -2108 -3562 0
3569 -7887 2108 0
-3569 -2108 3562 0
-3569 7887 2108 0
-3570 -2106 3571 0
-3570 7888 2106 0
3570 -2106 -3571 0
3570 -7888 2106 0
3571 -5991 -3206 0
-3571 5991 0
-3571 3206 0
3572 -2117 -3571 0
3572 -7889 2117 0
-3572 -2117 3571 0
-3572 7889 2117 0
3573 -2115 -3571 0
3573 -7890 2115 0
-3573 -2115 3571 0
-3573 7890 2115 0
3574 -2100 -3571 0
3574 -7891 2100 0
-3574 -2100 3571 0
-3574 7891 2100 0
3575 -2102 -3571 0
3575 -7892 2102 0
-3575 -2102 3571 0
-3575 7892 2102 0
3576 -2110 -3571 0
3576 -7893 2110 0
-3576 -2110 3571 0
-3576 7893 2110 0
3577 -2112 -3571 0
3577 -7894 2112 0
-3577 -2112 3571 0
-3577 7894 2112 0
3578 -2108 -3571 0
3578 -7895 2108 0
-3578 -2108 3571 0
-3578 7895 2108 0
-3579 -2106 3580 0
-3579 7896 2106 0
3579 -2106 -3580 0
3579 -7896 2106 0
3580 -5992 -3206 0
-3580 5992 0
-3580 3206 0
3581 -2117 -3580 0
3581 -7897 2117 0
-3581 -2117 3580 0
-3581 7897 2117 0
3582 -2115 -3580 0
3582 -7898 2115 0
-3582 -2115 3580 0
-3582 7898 2115 0
3583 -2100 -3580 0
3583 -7899 2100 0
-3583 -2100 3580 0
-3583 7899 2100 0
3584 -2102 -3580 0
3584 -7900 2102 0
-3584 -2102 3580 0
-3584 7900 2102 0
3585 -2110 -3580 0
3585 -7901 2110 0
-3585 -2110 3580 0
-3585 7901 2110 0
3586 -2112 -3580 0
3586 -7902 2112 0
-3586 -2112 3580 0
-3586 7902 2112 0
3587 -2108 -3580 0
3587 -7903 2108 0
-3587 -2108 3580 0
-3587 7903 2108 0
-3588 -2106 3589 0
-3588 7904 2106 0
3588 -2106 -3589 0
3588 -7904 2106 0
3589 -5993 -3206 0
-3589 5993 0
-3589 3206 0
3590 -2117 -3589 0
3590 -7905 2117 0
-3590 -2117 3589 0
-3590 7905 2117 0
3591 -2115 -3589 0
3591 -7906 2115 0
-3591 -2115 3589 0
-3591 7906 2115 0
3592 -2100 -3589 0
3592 -7907 2100 0
-3592 -2100 3589 0
-3592 7907 2100 0
3593 -2102 -3589 0
3593 -7908 2102 0
-3593 -2102 3589 0
-3593 7908 2102 0
3594 -2110 -3589 0
3594 -7909 2110 0
-3594 -2110 3589 0
-3594 7909 2110 0
3595 -2112 -3589 0
3595 -7910 2112 0
-3595 -2112 3589 0
-3595 7910 2112 0
3596 -2108 -3589 0
3596 -7911 2108 0
-3596 -2108 3589 0
-3596 7911 2108 0
-3597 -2106 3598 0
-3597 7912 2106 0
3597 -2106 -3598 0
3597 -7912 2106 0
3598 -5994 -3206 0
-3598 5994 0
-3598 3206 0
3599 -2117 -3598 0
3599 -7913 2117 0
-3599 -2117 3598 0
-3599 7913 2117 0
3600 -2115 -3598 0
3600 -7914 2115 0
-3600 -2115 3598 0
-3600 7914 2115 0
3601 -2100 -3598 0
3601 -7915 2100 0
-3601 -2100 3598 0
-3601 7915 2100 0
3602 -2102 -3598 0
3602 -7916 2102 0
-3602 -2102 3598 0
-3602 7916 2102 0
3603 -2110 -3598 0
3603 -7917 2110 0
-3603 -2110 3598 0
-3603 7917 2110 0
3604 -2112 -3598 0
3604 -7918 2112 0
-3604 -2112 3598 0
-3604 7918 2112 0
3605 -2108 -3598 0
3605 -7919 2108 0
-3605 -2108 3598 0
-3605 7919 2108 0
-3606 -2106 3607 0
-3606 7920 2106 0
3606 -2106 -3607 0
3606 -7920 2106 0
3607 -5995 -3206 0
-3607 5995 0
-3607 3206 0
3608 -2117 -3607 0
3608 -7921 2117 0
-3608 -2117 3607 0
-3608 7921 2117 0
3609 -2115 -3607 0
3609 -7922 2115 0
-3609 -2115 3607 0
-3609 7922 2115 0
3610 -2100 -3607 0
3610 -7923 2100 0
-3610 -2100 3607 0
-3610 7923 2100 0
3611 -2102 -3607 0
3611 -7924 2102 0
-3611 -2102 3607 0
-3611 7924 2102 0
3612 -2110 -3607 0
3612 -7925 2110 0
-3612 -2110 3607 0
-3612 7925 2110 0
3613 -2112 -3607 0
3613 -7926 2112 0
-3613 -2112 3607 0
-3613 7926 2112 0
3614 -2108 -3607 0
3614 -7927 2108 0
-3614 -2108 3607 0
-3614 7927 2108 0
-3615 -2106 3616 0
-3615 7928 2106 0
3615 -2106 -3616 0
3615 -7928 2106 0
3616 -5996 -3206 0
-3616 5996 0
-3616 3206 0
3617 -2117 -3616 0
3617 -7929 2117 0
-3617 -2117 3616 0
-3617 7929 2117 0
3618 -2115 -3616 0
3618 -7930 2115 0
-3618 -2115 3616 0
-3618 7930 2115 0
3619 -2100 -3616 0
3619 -7931 2100 0
-3619 -2100 3616 0
-3619 7931 2100 0
3620 -2102 -3616 0
3620 -7932 2102 0
-3620 -2102 3616 0
-3620 7932 2102 0
3621 -2110 -3616 0
3621 -7933 2110 0
-3621 -2110 3616 0
-3621 7933 2110 0
3622 -2112 -3616 0
3622 -7934 2112 0
-3622 -2112 3616 0
-3622 7934 2112 0
3623 -2108 -3616 0
3623 -7935 2108 0
-3623 -2108 3616 0
-3623 7935 2108 0
-3624 -2106 3625 0
-3624 7936 2106 0
3624 -2106 -3625 0
3624 -7936 2106 0
3625 -5997 -3206 0
-3625 5997 0
-3625 3206 0
3626 -2117 -3625 0
3626 -7937 2117 0
-3626 -2117 3625 0
-3626 7937 2117 0
3627 -2115 -3625 0
3627 -7938 2115 0
-3627 -2115 3625 0
-3627 7938 2115 0
3628 -2100 -3625 0
3628 -7939 2100 0
-3628 -2100 3625 0
-3628 7939 2100 0
3629 -2102 -3625 0
3629 -7940 2102 0
-3629 -2102 3625 0
-3629 7940 2102 0
3630 -2110 -3625 0
3630 -7941 2110 0
-3630 -2110 3625 0
-3630 7941 2110 0
3631 -2112 -3625 0
3631 -7942 2112 0
-3631 -2112 3625 0
-3631 7942 2112 0
3632 -2108 -3625 0
3632 -7943 2108 0
-3632 -2108 3625 0
-3632 7943 2108 0
-3633 -2106 3634 0
-3633 7944 2106 0
3633 -2106 -3634 0
3633 -7944 2106 0
3634 -5998 -3206 0
-3634 5998 0
-3634 3206 0
3635 -2117 -3634 0
3635 -7945 2117 0
-3635 -2117 3634 0
-3635 7945 2117 0
3636 -2115 -3634 0
3636 -7946 2115 0
-3636 -2115 3634 0
-3636 7946 2115 0
3637 -2100 -3634 0
3637 -7947 2100 0
-3637 -2100 3634 0
-3637 7947 2100 0
3638 -2102 -3634 0
3638 -7948 2102 0
-3638 -2102 3634 0
-3638 7948 2102 0
3639 -2110 -3634 0
3639 -7949 2110 0
-3639 -2110 3634 0
-3639 7949 2110 0
3640 -2112 -3634 0
3640 -7950 2112 0
-3640 -2112 3634 0
-3640 7950 2112 0
3641 -2108 -3634 0
3641 -7951 2108 0
-3641 -2108 3634 0
-3641 7951 2108 0
-3642 -2106 3643 0
-3642 7952 2106 0
3642 -2106 -3643 0
3642 -7952 2106 0
3643 -5999 -3206 0
-3643 5999 0
-3643 3206 0
3644 -2117 -3643 0
3644 -7953 2117 0
-3644 -2117 3643 0
-3644 7953 2117 0
3645 -2115 -3643 0
3645 -7954 2115 0
-3645 -2115 3643 0
-3645 7954 2115 0
3646 -2100 -3643 0
3646 -7955 2100 0
-3646 -2100 3643 0
-3646 7955 2100 0
3647 -2102 -3643 0
3647 -7956 2102 0
-3647 -2102 3643 0
-3647 7956 2102 0
3648 -2110 -3643 0
3648 -7957 2110 0
-3648 -2110 3643 0
-3648 7957 2110 0
3649 -2112 -3643 0
3649 -7958 2112 0
-3649 -2112 3643 0
-3649 7958 2112 0
3650 -2108 -3643 0
3650 -7959 2108 0
-3650 -2108 3643 0
-3650 7959 2108 0
-3651 -2106 3652 0
-3651 7960 2106 0
3651 -2106 -3652 0
3651 -7960 2106 0
3652 -6000 -3206 0
-3652 6000 0
-3652 3206 0
3653 -2117 -3652 0
3653 -7961 2117 0
-3653 -2117 3652 0
-3653 7961 2117 0
3654 -2115 -3652 0
3654 -7962 2115 0
-3654 -2115 3652 0
-3654 7962 2115 0
3655 -2100 -3652 0
3655 -7963 2100 0
-3655 -2100 3652 0
-3655 7963 2100 0
3656 -2102 -3652 0
3656 -7964 2102 0
-3656 -2102 3652 0
-3656 7964 2102 0
3657 -2110 -3652 0
3657 -7965 2110 0
-3657 -2110 3652 0
-3657 7965 2110 0
3658 -2112 -3652 0
3658 -7966 2112 0
-3658 -2112 3652 0
-3658 7966 2112 0
3659 -2108 -3652 0
3659 -7967 2108 0
-3659 -2108 3652 0
-3659 7967 2108 0
-3660 -2106 3661 0
-3660 7968 2106 0
3660 -2106 -3661 0
3660 -7968 2106 0
3661 -6001 -3206 0
-3661 6001 0
-3661 3206 0
3662 -2117 -3661 0
3662 -7969 2117 0
-3662 -2117 3661 0
-3662 7969 2117 0
3663 -2115 -3661 0
3663 -7970 2115 0
-3663 -2115 3661 0
-3663 7970 2115 0
3664 -2100 -3661 0
3664 -7971 2100 0
-3664 -2100 3661 0
-3664 7971 2100 0
3665 -2102 -3661 0
3665 -7972 2102 0
-3665 -2102 3661 0
-3665 7972 2102 0
3666 -2110 -3661 0
3666 -7973 2110 0
-3666 -2110 3661 0
-3666 7973 2110 0
3667 -2112 -3661 0
3667 -7974 2112 0
-3667 -2112 3661 0
-3667 7974 2112 0
3668 -2108 -3661 0
3668 -7975 2108 0
-3668 -2108 3661 0
-3668 7975 2108 0
-3669 -2106 3670 0
-3669 7976 2106 0
3669 -2106 -3670 0
3669 -7976 2106 0
3670 -6002 -3206 0
-3670 6002 0
-3670 3206 0
3671 -2117 -3670 0
3671 -7977 2117 0
-3671 -2117 3670 0
-3671 7977 2117 0
3672 -2115 -3670 0
3672 -7978 2115 0
-3672 -2115 3670 0
-3672 7978 2115 0
3673 -2100 -3670 0
3673 -7979 2100 0
-3673 -2100 3670 0
-3673 7979 2100 0
3674 -2102 -3670 0
3674 -7980 2102 0
-3674 -2102 3670 0
-3674 7980 2102 0
3675 -2110 -3670 0
3675 -7981 2110 0
-3675 -2110 3670 0
-3675 7981 2110 0
3676 -2112 -3670 0
3676 -7982 2112 0
-3676 -2112 3670 0
-3676 7982 2112 0
3677 -2108 -3670 0
3677 -7983 2108 0
-3677 -2108 3670 0
-3677 7983 2108 0
-3678 -2106 3679 0
-3678 7984 2106 0
3678 -2106 -3679 0
3678 -7984 2106 0
3679 -6003 -3206 0
-3679 6003 0
-3679 3206 0
3680 -2117 -3679 0
3680 -7985 2117 0
-3680 -2117 3679 0
-3680 7985 2117 0
3681 -2115 -3679 0
3681 -7986 2115 0
-3681 -2115 3679 0
-3681 7986 2115 0
3682 -2100 -3679 0
3682 -7987 2100 0
-3682 -2100 3679 0
-3682 7987 2100 0
3683 -2102 -3679 0
3683 -7988 2102 0
-3683 -2102 3679 0
-3683 7988 2102 0
3684 -2110 -3679 0
3684 -7989 2110 0
-3684 -2110 3679 0
-3684 7989 2110 0
3685 -2112 -3679 0
3685 -7990 2112 0
-3685 -2112 3679 0
-3685 7990 2112 0
3686 -2108 -3679 0
3686 -7991 2108 0
-3686 -2108 3679 0
-3686 7991 2108 0
-3687 -2106 3688 0
-3687 7992 2106 0
3687 -2106 -3688 0
3687 -7992 2106 0
3688 -6004 -3206 0
-3688 6004 0
-3688 3206 0
3689 -2117 -3688 0
3689 -7993 2117 0
-3689 -2117 3688 0
-3689 7993 2117 0
3690 -2115 -3688 0
3690 -7994 2115 0
-3690 -2115 3688 0
-3690 7994 2115 0
3691 -2100 -3688 0
3691 -7995 2100 0
-3691 -2100 3688 0
-3691 7995 2100 0
3692 -2102 -3688 0
3692 -7996 2102 0
-3692 -2102 3688 0
-3692 7996 2102 0
3693 -2110 -3688 0
3693 -7997 2110 0
-3693 -2110 3688 0
-3693 7997 2110 0
3694 -2112 -3688 0
3694 -7998 2112 0
-3694 -2112 3688 0
-3694 7998 2112 0
3695 -2108 -3688 0
3695 -7999 2108 0
-3695 -2108 3688 0
-3695 7999 2108 0
-3696 -2106 3697 0
-3696 8000 2106 0
3696 -2106 -3697 0
3696 -8000 2106 0
3697 -6005 -3206 0
-3697 6005 0
-3697 3206 0
3698 -2117 -3697 0
3698 -8001 2117 0
-3698 -2117 3697 0
-3698 8001 2117 0
3699 -2115 -3697 0
3699 -8002 2115 0
-3699 -2115 3697 0
-3699 8002 2115 0
3700 -2100 -3697 0
3700 -8003 2100 0
-3700 -2100 3697 0
-3700 8003 2100 0
3701 -2102 -3697 0
3701 -8004 2102 0
-3701 -2102 3697 0
-3701 8004 2102 0
3702 -2110 -3697 0
3702 -8005 2110 0
-3702 -2110 3697 0
-3702 8005 2110 0
3703 -2112 -3697 0
3703 -8006 2112 0
-3703 -2112 3697 0
-3703 8006 2112 0
3704 -2108 -3697 0
3704 -8007 2108 0
-3704 -2108 3697 0
-3704 8007 2108 0
-3705 -2106 3706 0
-3705 8008 2106 0
3705 -2106 -3706 0
3705 -8008 2106 0
3706 -6006 -3206 0
-3706 6006 0
-3706 3206 0
3707 -2117 -3706 0
3707 -8009 2117 0
-3707 -2117 3706 0
-3707 8009 2117 0
3708 -2115 -3706 0
3708 -8010 2115 0
-3708 -2115 3706 0
-3708 8010 2115 0
3709 -2100 -3706 0
3709 -8011 2100 0
-3709 -2100 3706 0
-3709 8011 2100 0
3710 -2102 -3706 0
3710 -8012 2102 0
-3710 -2102 3706 0
-3710 8012 2102 0
3711 -2110 -3706 0
3711 -8013 2110 0
-3711 -2110 3706 0
-3711 8013 2110 0
3712 -2112 -3706 0
3712 -8014 2112 0
-3712 -2112 3706 0
-3712 8014 2112 0
3713 -2108 -3706 0
3713 -8015 2108 0
-3713 -2108 3706 0
-3713 8015 2108 0
-3714 -2106 3715 0
-3714 8016 2106 0
3714 -2106 -3715 0
3714 -8016 2106 0
3715 -6007 -3206 0
-3715 6007 0
-3715 3206 0
3716 -2117 -3715 0
3716 -8017 2117 0
-3716 -2117 3715 0
-3716 8017 2117 0
3717 -2115 -3715 0
3717 -8018 2115 0
-3717 -2115 3715 0
-3717 8018 2115 0
3718 -2100 -3715 0
3718 -8019 2100 0
-3718 -2100 3715 0
-3718 8019 2100 0
3719 -2102 -3715 0
3719 -8020 2102 0
-3719 -2102 3715 0
-3719 8020 2102 0
3720 -2110 -3715 0
3720 -8021 2110 0
-3720 -2110 3715 0
-3720 8021 2110 0
3721 -2112 -3715 0
3721 -8022 2112 0
-3721 -2112 3715 0
-3721 8022 2112 0
3722 -2108 -3715 0
3722 -8023 2108 0
-3722 -2108 3715 0
-3722 8023 2108 0
-3723 -2106 3724 0
-3723 8024 2106 0
3723 -2106 -3724 0
3723 -8024 2106 0
3724 -6008 -3206 0
-3724 6008 0
-3724 3206 0
3725 -2117 -3724 0
3725 -8025 2117 0
-3725 -2117 3724 0
-3725 8025 2117 0
3726 -2115 -3724 0
3726 -8026 2115 0
-3726 -2115 3724 0
-3726 8026 2115 0
3727 -2100 -3724 0
3727 -8027 2100 0
-3727 -2100 3724 0
-3727 8027 2100 0
3728 -2102 -3724 0
3728 -8028 2102 0
-3728 -2102 3724 0
-3728 8028 2102 0
3729 -2110 -3724 0
3729 -8029 2110 0
-3729 -2110 3724 0
-3729 8029 2110 0
3730 -2112 -3724 0
3730 -8030 2112 0
-3730 -2112 3724 0
-3730 8030 2112 0
3731 -2108 -3724 0
3731 -8031 2108 0
-3731 -2108 3724 0
-3731 8031 2108 0
-3732 -2106 3733 0
-3732 8032 2106 0
3732 -2106 -3733 0
3732 -8032 2106 0
3733 -6009 -3206 0
-3733 6009 0
-3733 3206 0
3734 -2117 -3733 0
3734 -8033 2117 0
-3734 -2117 3733 0
-3734 8033 2117 0
3735 -2115 -3733 0
3735 -8034 2115 0
-3735 -2115 3733 0
-3735 8034 2115 0
3736 -2100 -3733 0
3736 -8035 2100 0
-3736 -2100 3733 0
-3736 8035 2100 0
3737 -2102 -3733 0
3737 -8036 2102 0
-3737 -2102 3733 0
-3737 8036 2102 0
3738 -2110 -3733 0
3738 -8037 2110 0
-3738 -2110 3733 0
-3738 8037 2110 0
3739 -2112 -3733 0
3739 -8038 2112 0
-3739 -2112 3733 0
-3739 8038 2112 0
3740 -2108 -3733 0
3740 -8039 2108 0
-3740 -2108 3733 0
-3740 8039 2108 0
-3741 -2106 3742 0
-3741 8040 2106 0
3741 -2106 -3742 0
3741 -8040 2106 0
3742 -6010 -3206 0
-3742 6010 0
-3742 3206 0
3743 -2117 -3742 0
3743 -8041 2117 0
-3743 -2117 3742 0
-3743 8041 2117 0
3744 -2115 -3742 0
3744 -8042 2115 0
-3744 -2115 3742 0
-3744 8042 2115 0
3745 -2100 -3742 0
3745 -8043 2100 0
-3745 -2100 3742 0
-3745 8043 2100 0
3746 -2102 -3742 0
3746 -8044 2102 0
-3746 -2102 3742 0
-3746 8044 2102 0
3747 -2110 -3742 0
3747 -8045 2110 0
-3747 -2110 3742 0
-3747 8045 2110 0
3748 -2112 -3742 0
3748 -8046 2112 0
-3748 -2112 3742 0
-3748 8046 2112 0
3749 -2108 -3742 0
3749 -8047 2108 0
-3749 -2108 3742 0
-3749 8047 2108 0
-3750 -2106 3751 0
-3750 8048 2106 0
3750 -2106 -3751 0
3750 -8048 2106 0
3751 -6011 -3206 0
-3751 6011 0
-3751 3206 0
3752 -2117 -3751 0
3752 -8049 2117 0
-3752 -2117 3751 0
-3752 8049 2117 0
3753 -2115 -3751 0
3753 -8050 2115 0
-3753 -2115 3751 0
-3753 8050 2115 0
3754 -2100 -3751 0
3754 -8051 2100 0
-3754 -2100 3751 0
-3754 8051 2100 0
3755 -2102 -3751 0
3755 -8052 2102 0
-3755 -2102 3751 0
-3755 8052 2102 0
3756 -2110 -3751 0
3756 -8053 2110 0
-3756 -2110 3751 0
-3756 8053 2110 0
3757 -2112 -3751 0
3757 -8054 2112 0
-3757 -2112 3751 0
-3757 8054 2112 0
3758 -2108 -3751 0
3758 -8055 2108 0
-3758 -2108 3751 0
-3758 8055 2108 0
-3759 -2106 3760 0
-3759 8056 2106 0
3759 -2106 -3760 0
3759 -8056 2106 0
3760 -6012 -3206 0
-3760 6012 0
-3760 3206 0
3761 -2117 -3760 0
3761 -8057 2117 0
-3761 -2117 3760 0
-3761 8057 2117 0
3762 -2115 -3760 0
3762 -8058 2115 0
-3762 -2115 3760 0
-3762 8058 2115 0
3763 -2100 -3760 0
3763 -8059 2100 0
-3763 -2100 3760 0
-3763 8059 2100 0
3764 -2102 -3760 0
3764 -8060 2102 0
-3764 -2102 3760 0
-3764 8060 2102 0
3765 -2110 -3760 0
3765 -8061 2110 0
-3765 -2110 3760 0
-3765 8061 2110 0
3766 -2112 -3760 0
3766 -8062 2112 0
-3766 -2112 3760 0
-3766 8062 2112 0
3767 -2108 -3760 0
3767 -8063 2108 0
-3767 -2108 3760 0
-3767 8063 2108 0
-3768 -2106 3769 0
-3768 8064 2106 0
3768 -2106 -3769 0
3768 -8064 2106 0
3769 -6013 -3206 0
-3769 6013 0
-3769 3206 0
3770 -2117 -3769 0
3770 -8065 2117 0
-3770 -2117 3769 0
-3770 8065 2117 0
3771 -2115 -3769 0
3771 -8066 2115 0
-3771 -2115 3769 0
-3771 8066 2115 0
3772 -2100 -3769 0
3772 -8067 2100 0
-3772 -2100 3769 0
-3772 8067 2100 0
3773 -2102 -3769 0
3773 -8068 2102 0
-3773 -2102 3769 0
-3773 8068 2102 0
3774 -2110 -3769 0
3774 -8069 2110 0
-3774 -2110 3769 0
-3774 8069 2110 0
3775 -2112 -3769 0
3775 -8070 2112 0
-3775 -2112 3769 0
-3775 8070 2112 0
3776 -2108 -3769 0
3776 -8071 2108 0
-3776 -2108 3769 0
-3776 8071 2108 0
-3777 -2106 3778 0
-3777 8072 2106 0
3777 -2106 -3778 0
3777 -8072 2106 0
3778 -6014 -3206 0
-3778 6014 0
-3778 3206 0
3779 -2117 -3778 0
3779 -8073 2117 0
-3779 -2117 3778 0
-3779 8073 2117 0
3780 -2115 -3778 0
3780 -8074 2115 0
-3780 -2115 3778 0
-3780 8074 2115 0
3781 -2100 -3778 0
3781 -8075 2100 0
-3781 -2100 3778 0
-3781 8075 2100 0
3782 -2102 -3778 0
3782 -8076 2102 0
-3782 -2102 3778 0
-3782 8076 2102 0
3783 -2110 -3778 0
3783 -8077 2110 0
-3783 -2110 3778 0
-3783 8077 2110 0
3784 -2112 -3778 0
3784 -8078 2112 0
-3784 -2112 3778 0
-3784 8078 2112 0
3785 -2108 -3778 0
3785 -8079 2108 0
-3785 -2108 3778 0
-3785 8079 2108 0
-3786 -2106 3787 0
-3786 8080 2106 0
3786 -2106 -3787 0
3786 -8080 2106 0
3787 -6015 -3206 0
-3787 6015 0
-3787 3206 0
3788 -2117 -3787 0
3788 -8081 2117 0
-3788 -2117 3787 0
-3788 8081 2117 0
3789 -2115 -3787 0
3789 -8082 2115 0
-3789 -2115 3787 0
-3789 8082 2115 0
3790 -2100 -3787 0
3790 -8083 2100 0
-3790 -2100 3787 0
-3790 8083 2100 0
3791 -2102 -3787 0
3791 -8084 2102 0
-3791 -2102 3787 0
-3791 8084 2102 0
3792 -2110 -3787 0
3792 -8085 2110 0
-3792 -2110 3787 0
-3792 8085 2110 0
3793 -2112 -3787 0
3793 -8086 2112 0
-3793 -2112 3787 0
-3793 8086 2112 0
3794 -2108 -3787 0
3794 -8087 2108 0
-3794 -2108 3787 0
-3794 8087 2108 0
-3795 -2106 3796 0
-3795 8088 2106 0
3795 -2106 -3796 0
3795 -8088 2106 0
3796 -6016 -3206 0
-3796 6016 0
-3796 3206 0
3797 -2117 -3796 0
3797 -8089 2117 0
-3797 -2117 3796 0
-3797 8089 2117 0
3798 -2115 -3796 0
3798 -8090 2115 0
-3798 -2115 3796 0
-3798 8090 2115 0
3799 -2100 -3796 0
3799 -8091 2100 0
-3799 -2100 3796 0
-3799 8091 2100 0
3800 -2102 -3796 0
3800 -8092 2102 0
-3800 -2102 3796 0
-3800 8092 2102 0
3801 -2110 -3796 0
3801 -8093 2110 0
-3801 -2110 3796 0
-3801 8093 2110 0
3802 -2112 -3796 0
3802 -8094 2112 0
-3802 -2112 3796 0
-3802 8094 2112 0
3803 -2108 -3796 0
3803 -8095 2108 0
-3803 -2108 3796 0
-3803 8095 2108 0
-3804 -2106 3805 0
-3804 8096 2106 0
3804 -2106 -3805 0
3804 -8096 2106 0
3805 -6017 -3206 0
-3805 6017 0
-3805 3206 0
3806 -2117 -3805 0
3806 -8097 2117 0
-3806 -2117 3805 0
-3806 8097 2117 0
3807 -2115 -3805 0
3807 -8098 2115 0
-3807 -2115 3805 0
-3807 8098 2115 0
3808 -2100 -3805 0
3808 -8099 2100 0
-3808 -2100 3805 0
-3808 8099 2100 0
3809 -2102 -3805 0
3809 -8100 2102 0
-3809 -2102 3805 0
-3809 8100 2102 0
3810 -2110 -3805 0
3810 -8101 2110 0
-3810 -2110 3805 0
-3810 8101 2110 0
3811 -2112 -3805 0
3811 -8102 2112 0
-3811 -2112 3805 0
-3811 8102 2112 0
3812 -2108 -3805 0
3812 -8103 2108 0
-3812 -2108 3805 0
-3812 8103 2108 0
-3813 -2106 3814 0
-3813 8104 2106 0
3813 -2106 -3814 0
3813 -8104 2106 0
3814 -6018 -3206 0
-3814 6018 0
-3814 3206 0
3815 -2117 -3814 0
3815 -8105 2117 0
-3815 -2117 3814 0
-3815 8105 2117 0
3816 -2115 -3814 0
3816 -8106 2115 0
-3816 -2115 3814 0
-3816 8106 2115 0
3817 -2100 -3814 0
3817 -8107 2100 0
-3817 -2100 3814 0
-3817 8107 2100 0
3818 -2102 -3814 0
3818 -8108 2102 0
-3818 -2102 3814 0
-3818 8108 2102 0
3819 -2110 -3814 0
3819 -8109 2110 0
-3819 -2110 3814 0
-3819 8109 2110 0
3820 -2112 -3814 0
3820 -8110 2112 0
-3820 -2112 3814 0
-3820 8110 2112 0
3821 -2108 -3814 0
3821 -8111 2108 0
-3821 -2108 3814 0
-3821 8111 2108 0
-3822 -2106 3823 0
-3822 8112 2106 0
3822 -2106 -3823 0
3822 -8112 2106 0
3823 -6019 -3206 0
-3823 6019 0
-3823 3206 0
3824 -2117 -3823 0
3824 -8113 2117 0
-3824 -2117 3823 0
-3824 8113 2117 0
3825 -2115 -3823 0
3825 -8114 2115 0
-3825 -2115 3823 0
-3825 8114 2115 0
3826 -2100 -3823 0
3826 -8115 2100 0
-3826 -2100 3823 0
-3826 8115 2100 0
3827 -2102 -3823 0
3827 -8116 2102 0
-3827 -2102 3823 0
-3827 8116 2102 0
3828 -2110 -3823 0
3828 -8117 2110 0
-3828 -2110 3823 0
-3828 8117 2110 0
3829 -2112 -3823 0
3829 -8118 2112 0
-3829 -2112 3823 0
-3829 8118 2112 0
3830 -2108 -3823 0
3830 -8119 2108 0
-3830 -2108 3823 0
-3830 8119 2108 0
-3831 -2106 3832 0
-3831 8120 2106 0
3831 -2106 -3832 0
3831 -8120 2106 0
3832 -6020 -3206 0
-3832 6020 0
-3832 3206 0
3833 -2117 -3832 0
3833 -8121 2117 0
-3833 -2117 3832 0
-3833 8121 2117 0
3834 -2115 -3832 0
3834 -8122 2115 0
-3834 -2115 3832 0
-3834 8122 2115 0
3835 -2100 -3832 0
3835 -8123 2100 0
-3835 -2100 3832 0
-3835 8123 2100 0
3836 -2102 -3832 0
3836 -8124 2102 0
-3836 -2102 3832 0
-3836 8124 2102 0
3837 -2110 -3832 0
3837 -8125 2110 0
-3837 -2110 3832 0
-3837 8125 2110 0
3838 -2112 -3832 0
3838 -8126 2112 0
-3838 -2112 3832 0
-3838 8126 2112 0
3839 -2108 -3832 0
3839 -8127 2108 0
-3839 -2108 3832 0
-3839 8127 2108 0
-3840 -2106 3841 0
-3840 8128 2106 0
3840 -2106 -3841 0
3840 -8128 2106 0
3841 -6021 -3206 0
-3841 6021 0
-3841 3206 0
3842 -2117 -3841 0
3842 -8129 2117 0
-3842 -2117 3841 0
-3842 8129 2117 0
3843 -2115 -3841 0
3843 -8130 2115 0
-3843 -2115 3841 0
-3843 8130 2115 0
3844 -2100 -3841 0
3844 -8131 2100 0
-3844 -2100 3841 0
-3844 8131 2100 0
3845 -2102 -3841 0
3845 -8132 2102 0
-3845 -2102 3841 0
-3845 8132 2102 0
3846 -2110 -3841 0
3846 -8133 2110 0
-3846 -2110 3841 0
-3846 8133 2110 0
3847 -2112 -3841 0
3847 -8134 2112 0
-3847 -2112 3841 0
-3847 8134 2112 0
3848 -2108 -3841 0
3848 -8135 2108 0
-3848 -2108 3841 0
-3848 8135 2108 0
-3849 -2106 3850 0
-3849 8136 2106 0
3849 -2106 -3850 0
3849 -8136 2106 0
3850 -6022 -3206 0
-3850 6022 0
-3850 3206 0
3851 -2117 -3850 0
3851 -8137 2117 0
-3851 -2117 3850 0
-3851 8137 2117 0
3852 -2115 -3850 0
3852 -8138 2115 0
-3852 -2115 3850 0
-3852 8138 2115 0
3853 -2100 -3850 0
3853 -8139 2100 0
-3853 -2100 3850 0
-3853 8139 2100 0
3854 -2102 -3850 0
3854 -8140 2102 0
-3854 -2102 3850 0
-3854 8140 2102 0
3855 -2110 -3850 0
3855 -8141 2110 0
-3855 -2110 3850 0
-3855 8141 2110 0
3856 -2112 -3850 0
3856 -8142 2112 0
-3856 -2112 3850 0
-3856 8142 2112 0
3857 -2108 -3850 0
3857 -8143 2108 0
-3857 -2108 3850 0
-3857 8143 2108 0
-3858 -2106 3859 0
-3858 8144 2106 0
3858 -2106 -3859 0
3858 -8144 2106 0
3859 -6023 -3206 0
-3859 6023 0
-3859 3206 0
3860 -2117 -3859 0
3860 -8145 2117 0
-3860 -2117 3859 0
-3860 8145 2117 0
3861 -2115 -3859 0
3861 -8146 2115 0
-3861 -2115 3859 0
-3861 8146 2115 0
3862 -2100 -3859 0
3862 -8147 2100 0
-3862 -2100 3859 0
-3862 8147 2100 0
3863 -2102 -3859 0
3863 -8148 2102 0
-3863 -2102 3859 0
-3863 8148 2102 0
3864 -2110 -3859 0
3864 -8149 2110 0
-3864 -2110 3859 0
-3864 8149 2110 0
3865 -2112 -3859 0
3865 -8150 2112 0
-3865 -2112 3859 0
-3865 8150 2112 0
3866 -2108 -3859 0
3866 -8151 2108 0
-3866 -2108 3859 0
-3866 8151 2108 0
-3867 -2106 3868 0
-3867 8152 2106 0
3867 -2106 -3868 0
3867 -8152 2106 0
3868 -6024 -3206 0
-3868 6024 0
-3868 3206 0
3869 -2117 -3868 0
3869 -8153 2117 0
-3869 -2117 3868 0
-3869 8153 2117 0
3870 -2115 -3868 0
3870 -8154 2115 0
-3870 -2115 3868 0
-3870 8154 2115 0
3871 -2100 -3868 0
3871 -8155 2100 0
-3871 -2100 3868 0
-3871 8155 2100 0
3872 -2102 -3868 0
3872 -8156 2102 0
-3872 -2102 3868 0
-3872 8156 2102 0
3873 -2110 -3868 0
3873 -8157 2110 0
-3873 -2110 3868 0
-3873 8157 2110 0
3874 -2112 -3868 0
3874 -8158 2112 0
-3874 -2112 3868 0
-3874 8158 2112 0
3875 -2108 -3868 0
3875 -8159 2108 0
-3875 -2108 3868 0
-3875 8159 2108 0
-3876 -2106 3877 0
-3876 8160 2106 0
3876 -2106 -3877 0
3876 -8160 2106 0
3877 -6025 -3206 0
-3877 6025 0
-3877 3206 0
3878 -2117 -3877 0
3878 -8161 2117 0
-3878 -2117 3877 0
-3878 8161 2117 0
3879 -2115 -3877 0
3879 -8162 2115 0
-3879 -2115 3877 0
-3879 8162 2115 0
3880 -2100 -3877 0
3880 -8163 2100 0
-3880 -2100 3877 0
-3880 8163 2100 0
3881 -2102 -3877 0
3881 -8164 2102 0
-3881 -2102 3877 0
-3881 8164 2102 0
3882 -2110 -3877 0
3882 -8165 2110 0
-3882 -2110 3877 0
-3882 8165 2110 0
3883 -2112 -3877 0
3883 -8166 2112 0
-3883 -2112 3877 0
-3883 8166 2112 0
3884 -2108 -3877 0
3884 -8167 2108 0
-3884 -2108 3877 0
-3884 8167 2108 0
-3885 -2106 3886 0
-3885 8168 2106 0
3885 -2106 -3886 0
3885 -8168 2106 0
3886 -6026 -3206 0
-3886 6026 0
-3886 3206 0
3887 -2117 -3886 0
3887 -8169 2117 0
-3887 -2117 3886 0
-3887 8169 2117 0
3888 -2115 -3886 0
3888 -8170 2115 0
-3888 -2115 3886 0
-3888 8170 2115 0
3889 -2100 -3886 0
3889 -8171 2100 0
-3889 -2100 3886 0
-3889 8171 2100 0
3890 -2102 -3886 0
3890 -8172 2102 0
-3890 -2102 3886 0
-3890 8172 2102 0
3891 -2110 -3886 0
3891 -8173 2110 0
-3891 -2110 3886 0
-3891 8173 2110 0
3892 -2112 -3886 0
3892 -8174 2112 0
-3892 -2112 3886 0
-3892 8174 2112 0
3893 -2108 -3886 0
3893 -8175 2108 0
-3893 -2108 3886 0
-3893 8175 2108 0
-3894 8176 3142 0
-3894 -6212 -3142 0
-3894 -50 3142 0
3894 6212 -3142 0
3894 -8176 50 3142 0
-3895 8177 3142 0
-3895 6213 -3142 0
-3895 -50 3142 0
3895 -6213 -3142 0
3895 -8177 50 3142 0
-3896 8178 3142 0
-3896 6214 -3142 0
-3896 -50 3142 0
3896 -6214 -3142 0
3896 -8178 50 3142 0
-3897 8179 3142 0
-3897 6215 -3142 0
-3897 -50 3142 0
3897 -6215 -3142 0
3897 -8179 50 3142 0
-3898 8180 3142 0
-3898 6216 -3142 0
-3898 -50 3142 0
3898 -6216 -3142 0
3898 -8180 50 3142 0
-3899 8181 3142 0
-3899 6217 -3142 0
-3899 -50 3142 0
3899 -6217 -3142 0
3899 -8181 50 3142 0
-3900 8182 3142 0
-3900 6218 -3142 0
-3900 -50 3142 0
3900 -6218 -3142 0
3900 -8182 50 3142 0
-3901 8183 3142 0
-3901 6219 -3142 0
-3901 -50 3142 0
3901 -6219 -3142 0
3901 -8183 50 3142 0
-3902 8184 3142 0
-3902 6220 -3142 0
-3902 -50 3142 0
3902 -6220 -3142 0
3902 -8184 50 3142 0
-3903 8185 3142 0
-3903 6221 -3142 0
-3903 -50 3142 0
3903 -6221 -3142 0
3903 -8185 50 3142 0
-3904 8186 3142 0
-3904 6222 -3142 0
-3904 -50 3142 0
3904 -6222 -3142 0
3904 -8186 50 3142 0
-3905 8187 3142 0
-3905 6223 -3142 0
-3905 -50 3142 0
3905 -6223 -3142 0
3905 -8187 50 3142 0
-3906 8188 3142 0
-3906 6224 -3142 0
-3906 -50 3142 0
3906 -6224 -3142 0
3906 -8188 50 3142 0
-3907 8189 3142 0
-3907 6225 -3142 0
-3907 -50 3142 0
3907 -6225 -3142 0
3907 -8189 50 3142 0
-3908 8190 3142 0
-3908 6226 -3142 0
-3908 -50 3142 0
3908 -6226 -3142 0
3908 -8190 50 3142 0
-3909 8191 3142 0
-3909 6227 -3142 0
-3909 -50 3142 0
3909 -6227 -3142 0
3909 -8191 50 3142 0
-3910 8192 3142 0
-3910 6228 -3142 0
-3910 -50 3142 0
3910 -6228 -3142 0
3910 -8192 50 3142 0
-3911 8193 3142 0
-3911 6229 -3142 0
-3911 -50 3142 0
3911 -6229 -3142 0
3911 -8193 50 3142 0
-3912 8194 3142 0
-3912 6230 -3142 0
-3912 -50 3142 0
3912 -6230 -3142 0
3912 -8194 50 3142 0
-3913 8195 3142 0
-3913 6231 -3142 0
-3913 -50 3142 0
3913 -6231 -3142 0
3913 -8195 50 3142 0
-3914 8196 3142 0
-3914 6232 -3142 0
-3914 -50 3142 0
3914 -6232 -3142 0
3914 -8196 50 3142 0
-3915 8197 3142 0
-3915 6233 -3142 0
-3915 -50 3142 0
3915 -6233 -3142 0
3915 -8197 50 3142 0
-3916 8198 3142 0
-3916 6234 -3142 0
-3916 -50 3142 0
3916 -6234 -3142 0
3916 -8198 50 3142 0
-3917 8199 3142 0
-3917 6235 -3142 0
-3917 -50 3142 0
3917 -6235 -3142 0
3917 -8199 50 3142 0
-3918 8200 3142 0
-3918 6236 -3142 0
-3918 -50 3142 0
3918 -6236 -3142 0
3918 -8200 50 3142 0
-3919 8201 3142 0
-3919 6237 -3142 0
-3919 -50 3142 0
3919 -6237 -3142 0
3919 -8201 50 3142 0
-3920 8202 3142 0
-3920 6238 -3142 0
-3920 -50 3142 0
3920 -6238 -3142 0
3920 -8202 50 3142 0
-3921 8203 3142 0
-3921 6239 -3142 0
-3921 -50 3142 0
3921 -6239 -3142 0
3921 -8203 50 3142 0
-3922 8204 3142 0
-3922 6240 -3142 0
-3922 -50 3142 0
3922 -6240 -3142 0
3922 -8204 50 3142 0
-3923 8205 3142 0
-3923 6241 -3142 0
-3923 -50 3142 0
3923 -6241 -3142 0
3923 -8205 50 3142 0
-3924 8206 3142 0
-3924 6242 -3142 0
-3924 -50 3142 0
3924 -6242 -3142 0
3924 -8206 50 3142 0
-3925 8207 3142 0
-3925 6243 -3142 0
-3925 -50 3142 0
3925 -6243 -3142 0
3925 -8207 50 3142 0
-3926 8208 3142 0
-3926 6244 -3142 0
-3926 -50 3142 0
3926 -6244 -3142 0
3926 -8208 50 3142 0
-3927 8209 3188 0
-3927 8209 3165 0
-3927 -3165 3188 -3928 0
3927 -3165 -3188 0
3927 -8209 3165 0
3927 -8209 3928 0
3928 -7569 -7575 7576 0
-3928 7569 0
-3928 7575 0
-3928 -7576 0
-3929 8210 3971 0
-3929 -3930 -3971 0
-3929 -3970 -3971 0
3929 -8210 3971 0
3929 3930 3970 -3971 0
3930 3931 -3932 3947 3953 0
-3930 -3953 0
-3930 -3931 0
-3930 -3947 0
-3930 3932 0
-3931 3188 -3191 0
-3931 3164 3188 0
-3931 -3159 3188 0
3931 -3188 0
3931 3159 -3164 3191 0
3932 -6298 3933 0
3932 -6263 -3946 0
3932 -6263 -6298 0
3932 3933 -3946 0
-3932 6298 3946 0
-3932 6263 -3933 0
3933 -597 3934 0
-3933 597 0
-3933 -3934 0
-3934 600 3935 0
3934 -600 0
3934 -3935 0
-3935 603 3936 0
3935 -603 0
3935 -3936 0
-3936 6267 3937 0
3936 -6267 0
3936 -3937 0
-3937 3938 3939 3940 3941 0
3937 -3941 0
3937 -3938 0
3937 -3940 0
3937 -3939 0
-3938 6274 6289 6291 6295 0
3938 -6295 0
3938 -6291 0
3938 -6274 0
3938 -6289 0
-3939 6270 6280 6286 6293 0
3939 -6293 0
3939 -6286 0
3939 -6270 0
3939 -6280 0
-3940 6272 6273 6276 6292 0
3940 -6292 0
3940 -6276 0
3940 -6272 0
3940 -6273 0
-3941 3942 3943 3944 3945 0
3941 -3945 0
3941 -3942 0
3941 -3944 0
3941 -3943 0
-3942 6281 6284 6285 6290 0
3942 -6290 0
3942 -6285 0
3942 -6281 0
3942 -6284 0
-3943 6269 6275 6287 6294 0
3943 -6294 0
3943 -6287 0
3943 -6269 0
3943 -6275 0
-3944 6268 6279 6282 6288 0
3944 -6288 0
3944 -6282 0
3944 -6268 0
3944 -6279 0
-3945 6271 6277 6278 6283 0
3945 -6283 0
3945 -6278 0
3945 -6271 0
3945 -6277 0
-3946 597 3934 0
3946 -597 0
3946 -3934 0
-3947 -6299 3948 0
-3947 -6305 3951 0
-3947 -6299 -6305 0
-3947 3948 3951 0
3947 6299 -3951 0
3947 6305 -3948 0
3948 -597 -3949 0
-3948 597 0
-3948 3949 0
3949 -6265 -3950 0
-3949 6265 0
-3949 3950 0
3950 -603 3936 0
-3950 603 0
-3950 -3936 0
3951 -597 -3952 0
-3951 597 0
-3951 3952 0
3952 6265 -3950 0
-3952 -6265 0
-3952 3950 0
-3953 3954 3960 3963 3967 0
3953 -3967 0
3953 -3954 0
3953 -3963 0
3953 -3960 0
-3954 -6302 3955 0
-3954 -6296 3958 0
-3954 -6296 -6302 0
-3954 3955 3958 0
3954 6302 -3958 0
3954 6296 -3955 0
3955 -6264 -3956 0
-3955 6264 0
-3955 3956 0
3956 -600 -3957 0
-3956 600 0
-3956 3957 0
3957 6266 -6267 3937 0
-3957 -3937 0
-3957 6267 0
-3957 -6266 0
3958 597 -3959 0
-3958 -597 0
-3958 3959 0
3959 6265 -3957 0
-3959 -6265 0
-3959 3957 0
-3960 -6297 3961 0
-3960 -6306 3962 0
-3960 -6297 -6306 0
-3960 3961 3962 0
3960 6297 -3962 0
3960 6306 -3961 0
3961 -597 -3959 0
-3961 597 0
-3961 3959 0
3962 6264 -3956 0
-3962 -6264 0
-3962 3956 0
-3963 -6303 3964 0
-3963 -6304 3966 0
-3963 -6303 -6304 0
-3963 3964 3966 0
3963 6303 -3966 0
3963 6304 -3964 0
3964 -6264 -3965 0
-3964 6264 0
-3964 3965 0
3965 -600 3935 0
-3965 600 0
-3965 -3935 0
3966 597 -3949 0
-3966 -597 0
-3966 3949 0
-3967 -6300 3968 0
-3967 -6301 3969 0
-3967 -6300 -6301 0
-3967 3968 3969 0
3967 6300 -3969 0
3967 6301 -3968 0
3968 597 -3952 0
-3968 -597 0
-3968 3952 0
3969 6264 -3965 0
-3969 -6264 0
-3969 3965 0
3970 8176 -3188 0
-3970 -8176 0
-3970 3188 0
-3971 7569 3191 3193 0
3971 -7569 0
3971 -3193 0
3971 -3191 0
3972 -8211 3971 0
3972 -3971 -3981 0
3972 -3971 -3973 0
-3972 8211 3971 0
-3972 -3971 3973 3981 0
3973 3931 3974 3975 -3976 0
-3973 3976 0
-3973 -3931 0
-3973 -3975 0
-3973 -3974 0
-3974 -6308 3933 0
-3974 -6317 3969 0
-3974 -6308 -6317 0
-3974 3933 3969 0
3974 6308 -3969 0
3974 6317 -3933 0
-3975 -6309 3966 0
-3975 -6311 3968 0
-3975 -6309 -6311 0
-3975 3966 3968 0
3975 6309 -3968 0
3975 6311 -3966 0
3976 3977 3978 -3979 3980 0
-3976 -3980 0
-3976 -3977 0
-3976 3979 0
-3976 -3978 0
-3977 -6307 3958 0
-3977 -6312 3961 0
-3977 -6307 -6312 0
-3977 3958 3961 0
3977 6307 -3961 0
3977 6312 -3958 0
-3978 -6318 3955 0
-3978 -6315 3962 0
-3978 -6315 -6318 0
-3978 3955 3962 0
3978 6318 -3962 0
3978 6315 -3955 0
3979 -6313 -3946 0
3979 -6316 3964 0
3979 -6313 -6316 0
3979 -3946 3964 0
-3979 6313 -3964 0
-3979 6316 3946 0
-3980 -6314 3948 0
-3980 -6310 3951 0
-3980 -6310 -6314 0
-3980 3948 3951 0
3980 6314 -3951 0
3980 6310 -3948 0
3981 -8177 -3188 0
-3981 8177 0
-3981 3188 0
3982 -8212 3971 0
3982 -3971 -3991 0
3982 -3971 -3983 0
-3982 8212 3971 0
-3982 -3971 3983 3991 0
3983 3931 3984 -3985 3986 0
-3983 -3986 0
-3983 -3931 0
-3983 3985 0
-3983 -3984 0
-3984 -6327 3966 0
-3984 -6324 3968 0
-3984 -6324 -6327 0
-3984 3966 3968 0
3984 6327 -3968 0
3984 6324 -3966 0
3985 -6323 3933 0
3985 -6328 -3946 0
3985 -6323 -6328 0
3985 3933 -3946 0
-3985 6323 3946 0
-3985 6328 -3933 0
-3986 3987 3988 3989 3990 0
3986 -3990 0
3986 -3987 0
3986 -3989 0
3986 -3988 0
-3987 -6330 3958 0
-3987 -6321 3962 0
-3987 -6321 -6330 0
-3987 3958 3962 0
3987 6330 -3962 0
3987 6321 -3958 0
-3988 -6320 3955 0
-3988 -6326 3961 0
-3988 -6320 -6326 0
-3988 3955 3961 0
3988 6320 -3961 0
3988 6326 -3955 0
-3989 -6319 3964 0
-3989 -6329 3969 0
-3989 -6319 -6329 0
-3989 3964 3969 0
3989 6319 -3969 0
3989 6329 -3964 0
-3990 -6322 3948 0
-3990 -6325 3951 0
-3990 -6322 -6325 0
-3990 3948 3951 0
3990 6322 -3951 0
3990 6325 -3948 0
3991 -8178 -3188 0
-3991 8178 0
-3991 3188 0
3992 -8213 3971 0
3992 -3971 -4001 0
3992 -3971 -3993 0
-3992 8213 3971 0
-3992 -3971 3993 4001 0
3993 3931 3994 -3995 3996 0
-3993 -3996 0
-3993 -3931 0
-3993 3995 0
-3993 -3994 0
-3994 -6337 3951 0
-3994 -6334 3968 0
-3994 -6334 -6337 0
-3994 3951 3968 0
3994 6337 -3968 0
3994 6334 -3951 0
3995 -6335 -3946 0
3995 -6333 3969 0
3995 -6333 -6335 0
3995 -3946 3969 0
-3995 6335 -3969 0
-3995 6333 3946 0
-3996 3997 3998 3999 4000 0
3996 -4000 0
3996 -3997 0
3996 -3999 0
3996 -3998 0
-3997 -6331 3958 0
-3997 -6341 3962 0
-3997 -6331 -6341 0
-3997 3958 3962 0
3997 6331 -3962 0
3997 6341 -3958 0
-3998 -6332 3955 0
-3998 -6342 3961 0
-3998 -6332 -6342 0
-3998 3955 3961 0
3998 6332 -3961 0
3998 6342 -3955 0
-3999 -6339 3948 0
-3999 -6340 3964 0
-3999 -6339 -6340 0
-3999 3948 3964 0
3999 6339 -3964 0
3999 6340 -3948 0
-4000 -6338 3933 0
-4000 -6336 3966 0
-4000 -6336 -6338 0
-4000 3933 3966 0
4000 6338 -3966 0
4000 6336 -3933 0
4001 -8179 -3188 0
-4001 8179 0
-4001 3188 0
4002 -8214 3971 0
4002 -3971 -4011 0
4002 -3971 -4003 0
-4002 8214 3971 0
-4002 -3971 4003 4011 0
4003 3931 -4004 4005 4006 0
-4003 -4006 0
-4003 -3931 0
-4003 -4005 0
-4003 4004 0
4004 -6351 -3946 0
4004 -6353 3951 0
4004 -6351 -6353 0
4004 -3946 3951 0
-4004 6351 -3951 0
-4004 6353 3946 0
-4005 -6346 3968 0
-4005 -6354 3969 0
-4005 -6346 -6354 0
-4005 3968 3969 0
4005 6346 -3969 0
4005 6354 -3968 0
-4006 4007 4008 4009 4010 0
4006 -4010 0
4006 -4007 0
4006 -4009 0
4006 -4008 0
-4007 -6347 3958 0
-4007 -6343 3961 0
-4007 -6343 -6347 0
-4007 3958 3961 0
4007 6347 -3961 0
4007 6343 -3958 0
-4008 -6350 3955 0
-4008 -6348 3962 0
-4008 -6348 -6350 0
-4008 3955 3962 0
4008 6350 -3962 0
4008 6348 -3955 0
-4009 -6349 3933 0
-4009 -6352 3966 0
-4009 -6349 -6352 0
-4009 3933 3966 0
4009 6349 -3966 0
4009 6352 -3933 0
-4010 -6344 3948 0
-4010 -6345 3964 0
-4010 -6344 -6345 0
-4010 3948 3964 0
4010 6344 -3964 0
4010 6345 -3948 0
4011 -8180 -3188 0
-4011 8180 0
-4011 3188 0
4012 -8215 3971 0
4012 -3971 -4021 0
4012 -3971 -4013 0
-4012 8215 3971 0
-4012 -3971 4013 4021 0
4013 3931 -4014 4015 4016 0
-4013 -4016 0
-4013 -3931 0
-4013 -4015 0
-4013 4014 0
4014 -6362 -3946 0
4014 -6357 3968 0
4014 -6357 -6362 0
4014 -3946 3968 0
-4014 6362 -3968 0
-4014 6357 3946 0
-4015 -6356 3964 0
-4015 -6365 3969 0
-4015 -6356 -6365 0
-4015 3964 3969 0
4015 6356 -3969 0
4015 6365 -3964 0
-4016 4017 4018 4019 4020 0
4016 -4020 0
4016 -4017 0
4016 -4019 0
4016 -4018 0
-4017 -6360 3958 0
-4017 -6355 3961 0
-4017 -6355 -6360 0
-4017 3958 3961 0
4017 6360 -3961 0
4017 6355 -3958 0
-4018 -6361 3955 0
-4018 -6359 3962 0
-4018 -6359 -6361 0
-4018 3955 3962 0
4018 6361 -3962 0
4018 6359 -3955 0
-4019 -6364 3933 0
-4019 -6358 3948 0
-4019 -6358 -6364 0
-4019 3933 3948 0
4019 6364 -3948 0
4019 6358 -3933 0
-4020 -6366 3951 0
-4020 -6363 3966 0
-4020 -6363 -6366 0
-4020 3951 3966 0
4020 6366 -3966 0
4020 6363 -3951 0
4021 -8181 -3188 0
-4021 8181 0
-4021 3188 0
4022 -8216 3971 0
4022 -3971 -4031 0
4022 -3971 -4023 0
-4022 8216 3971 0
-4022 -3971 4023 4031 0
4023 3931 4024 4025 -4026 0
-4023 4026 0
-4023 -3931 0
-4023 -4025 0
-4023 -4024 0
-4024 -6375 3948 0
-4024 -6377 3968 0
-4024 -6375 -6377 0
-4024 3948 3968 0
4024 6375 -3968 0
4024 6377 -3948 0
-4025 -6378 3933 0
-4025 -6370 3964 0
-4025 -6370 -6378 0
-4025 3933 3964 0
4025 6378 -3964 0
4025 6370 -3933 0
4026 4027 4028 4029 -4030 0
-4026 4030 0
-4026 -4027 0
-4026 -4029 0
-4026 -4028 0
-4027 -6371 3955 0
-4027 -6367 3958 0
-4027 -6367 -6371 0
-4027 3955 3958 0
4027 6371 -3958 0
4027 6367 -3955 0
-4028 -6374 3961 0
-4028 -6372 3962 0
-4028 -6372 -6374 0
-4028 3961 3962 0
4028 6374 -3962 0
4028 6372 -3961 0
-4029 -6373 3951 0
-4029 -6376 3966 0
-4029 -6373 -6376 0
-4029 3951 3966 0
4029 6373 -3966 0
4029 6376 -3951 0
4030 -6368 -3946 0
4030 -6369 3969 0
4030 -6368 -6369 0
4030 -3946 3969 0
-4030 6368 -3969 0
-4030 6369 3946 0
4031 -8182 -3188 0
-4031 8182 0
-4031 3188 0
4032 -8217 3971 0
4032 -3971 -4041 0
4032 -3971 -4033 0
-4032 8217 3971 0
-4032 -3971 4033 4041 0
4033 3931 -4034 4035 4036 0
-4033 -4036 0
-4033 -3931 0
-4033 -4035 0
-4033 4034 0
4034 -6382 -3946 0
4034 -6390 3948 0
4034 -6382 -6390 0
4034 -3946 3948 0
-4034 6382 -3948 0
-4034 6390 3946 0
-4035 -6379 3933 0
-4035 -6386 3969 0
-4035 -6379 -6386 0
-4035 3933 3969 0
4035 6379 -3969 0
4035 6386 -3933 0
-4036 4037 4038 4039 4040 0
4036 -4040 0
4036 -4037 0
4036 -4039 0
4036 -4038 0
-4037 -6380 3958 0
-4037 -6384 3962 0
-4037 -6380 -6384 0
-4037 3958 3962 0
4037 6380 -3962 0
4037 6384 -3958 0
-4038 -6381 3955 0
-4038 -6388 3961 0
-4038 -6381 -6388 0
-4038 3955 3961 0
4038 6381 -3961 0
4038 6388 -3955 0
-4039 -6383 3964 0
-4039 -6387 3966 0
-4039 -6383 -6387 0
-4039 3964 3966 0
4039 6383 -3966 0
4039 6387 -3964 0
-4040 -6385 3951 0
-4040 -6389 3968 0
-4040 -6385 -6389 0
-4040 3951 3968 0
4040 6385 -3968 0
4040 6389 -3951 0
4041 -8183 -3188 0
-4041 8183 0
-4041 3188 0
4042 -8218 3971 0
4042 -3971 -4051 0
4042 -3971 -4043 0
-4042 8218 3971 0
-4042 -3971 4043 4051 0
4043 3931 4044 4045 -4046 0
-4043 4046 0
-4043 -3931 0
-4043 -4045 0
-4043 -4044 0
-4044 -6399 3966 0
-4044 -6396 3969 0
-4044 -6396 -6399 0
-4044 3966 3969 0
4044 6399 -3969 0
4044 6396 -3966 0
-4045 -6395 3951 0
-4045 -6400 3968 0
-4045 -6395 -6400 0
-4045 3951 3968 0
4045 6395 -3968 0
4045 6400 -3951 0
4046 4047 4048 4049 -4050 0
-4046 4050 0
-4046 -4047 0
-4046 -4049 0
-4046 -4048 0
-4047 -6401 3955 0
-4047 -6393 3958 0
-4047 -6393 -6401 0
-4047 3955 3958 0
4047 6401 -3958 0
4047 6393 -3955 0
-4048 -6397 3961 0
-4048 -6392 3962 0
-4048 -6392 -6397 0
-4048 3961 3962 0
4048 6397 -3962 0
4048 6392 -3961 0
-4049 -6398 3948 0
-4049 -6391 3964 0
-4049 -6391 -6398 0
-4049 3948 3964 0
4049 6398 -3964 0
4049 6391 -3948 0
4050 -6394 3933 0
4050 -6402 -3946 0
4050 -6394 -6402 0
4050 3933 -3946 0
-4050 6394 3946 0
-4050 6402 -3933 0
4051 -8184 -3188 0
-4051 8184 0
-4051 3188 0
4052 -8219 3971 0
4052 -3971 -4061 0
4052 -3971 -4053 0
-4052 8219 3971 0
-4052 -3971 4053 4061 0
4053 3931 -4054 4055 4056 0
-4053 -4056 0
-4053 -3931 0
-4053 -4055 0
-4053 4054 0
4054 -6413 -3946 0
4054 -6410 3966 0
4054 -6410 -6413 0
4054 -3946 3966 0
-4054 6413 -3966 0
-4054 6410 3946 0
-4055 -6414 3933 0
-4055 -6408 3969 0
-4055 -6408 -6414 0
-4055 3933 3969 0
4055 6414 -3969 0
4055 6408 -3933 0
-4056 4057 4058 4059 4060 0
4056 -4060 0
4056 -4057 0
4056 -4059 0
4056 -4058 0
-4057 -6404 3961 0
-4057 -6403 3962 0
-4057 -6403 -6404 0
-4057 3961 3962 0
4057 6404 -3962 0
4057 6403 -3961 0
-4058 -6405 3955 0
-4058 -6411 3958 0
-4058 -6405 -6411 0
-4058 3955 3958 0
4058 6405 -3958 0
4058 6411 -3955 0
-4059 -6407 3951 0
-4059 -6412 3964 0
-4059 -6407 -6412 0
-4059 3951 3964 0
4059 6407 -3964 0
4059 6412 -3951 0
-4060 -6406 3948 0
-4060 -6409 3968 0
-4060 -6406 -6409 0
-4060 3948 3968 0
4060 6406 -3968 0
4060 6409 -3948 0
4061 -8185 -3188 0
-4061 8185 0
-4061 3188 0
4062 -8220 3971 0
4062 -3971 -4071 0
4062 -3971 -4063 0
-4062 8220 3971 0
-4062 -3971 4063 4071 0
4063 3931 -4064 4065 4066 0
-4063 -4066 0
-4063 -3931 0
-4063 -4065 0
-4063 4064 0
4064 -6416 3933 0
4064 -6419 -3946 0
4064 -6416 -6419 0
4064 3933 -3946 0
-4064 6416 3946 0
-4064 6419 -3933 0
-4065 -6423 3948 0
-4065 -6422 3966 0
-4065 -6422 -6423 0
-4065 3948 3966 0
4065 6423 -3966 0
4065 6422 -3948 0
-4066 4067 4068 4069 4070 0
4066 -4070 0
4066 -4067 0
4066 -4069 0
4066 -4068 0
-4067 -6417 3958 0
-4067 -6418 3962 0
-4067 -6417 -6418 0
-4067 3958 3962 0
4067 6417 -3962 0
4067 6418 -3958 0
-4068 -6426 3955 0
-4068 -6415 3961 0
-4068 -6415 -6426 0
-4068 3955 3961 0
4068 6426 -3961 0
4068 6415 -3955 0
-4069 -6424 3951 0
-4069 -6420 3964 0
-4069 -6420 -6424 0
-4069 3951 3964 0
4069 6424 -3964 0
4069 6420 -3951 0
-4070 -6421 3968 0
-4070 -6425 3969 0
-4070 -6421 -6425 0
-4070 3968 3969 0
4070 6421 -3969 0
4070 6425 -3968 0
4071 -8186 -3188 0
-4071 8186 0
-4071 3188 0
4072 -8221 3971 0
4072 -3971 -4081 0
4072 -3971 -4073 0
-4072 8221 3971 0
-4072 -3971 4073 4081 0
4073 3931 4074 -4075 4076 0
-4073 -4076 0
-4073 -3931 0
-4073 4075 0
-4073 -4074 0
-4074 -6427 3968 0
-4074 -6428 3969 0
-4074 -6427 -6428 0
-4074 3968 3969 0
4074 6427 -3969 0
4074 6428 -3968 0
4075 -6434 -3946 0
4075 -6435 3951 0
4075 -6434 -6435 0
4075 -3946 3951 0
-4075 6434 -3951 0
-4075 6435 3946 0
-4076 4077 4078 4079 4080 0
4076 -4080 0
4076 -4077 0
4076 -4079 0
4076 -4078 0
-4077 -6437 3955 0
-4077 -6430 3961 0
-4077 -6430 -6437 0
-4077 3955 3961 0
4077 6437 -3961 0
4077 6430 -3955 0
-4078 -6429 3958 0
-4078 -6438 3962 0
-4078 -6429 -6438 0
-4078 3958 3962 0
4078 6429 -3962 0
4078 6438 -3958 0
-4079 -6432 3933 0
-4079 -6436 3948 0
-4079 -6432 -6436 0
-4079 3933 3948 0
4079 6432 -3948 0
4079 6436 -3933 0
-4080 -6433 3964 0
-4080 -6431 3966 0
-4080 -6431 -6433 0
-4080 3964 3966 0
4080 6433 -3966 0
4080 6431 -3964 0
4081 -8187 -3188 0
-4081 8187 0
-4081 3188 0
4082 -8222 3971 0
4082 -3971 -4091 0
4082 -3971 -4083 0
-4082 8222 3971 0
-4082 -3971 4083 4091 0
4083 3931 -4084 4085 4086 0
-4083 -4086 0
-4083 -3931 0
-4083 -4085 0
-4083 4084 0
4084 -6442 -3946 0
4084 -6450 3948 0
4084 -6442 -6450 0
4084 -3946 3948 0
-4084 6442 -3948 0
-4084 6450 3946 0
-4085 -6439 3933 0
-4085 -6446 3969 0
-4085 -6439 -6446 0
-4085 3933 3969 0
4085 6439 -3969 0
4085 6446 -3933 0
-4086 4087 4088 4089 4090 0
4086 -4090 0
4086 -4087 0
4086 -4089 0
4086 -4088 0
-4087 -6440 3958 0
-4087 -6444 3962 0
-4087 -6440 -6444 0
-4087 3958 3962 0
4087 6440 -3962 0
4087 6444 -3958 0
-4088 -6441 3955 0
-4088 -6448 3961 0
-4088 -6441 -6448 0
-4088 3955 3961 0
4088 6441 -3961 0
4088 6448 -3955 0
-4089 -6443 3964 0
-4089 -6447 3966 0
-4089 -6443 -6447 0
-4089 3964 3966 0
4089 6443 -3966 0
4089 6447 -3964 0
-4090 -6445 3951 0
-4090 -6449 3968 0
-4090 -6445 -6449 0
-4090 3951 3968 0
4090 6445 -3968 0
4090 6449 -3951 0
4091 -8188 -3188 0
-4091 8188 0
-4091 3188 0
4092 -8223 3971 0
4092 -3971 -4101 0
4092 -3971 -4093 0
-4092 8223 3971 0
-4092 -3971 4093 4101 0
4093 3931 4094 4095 -4096 0
-4093 4096 0
-4093 -3931 0
-4093 -4095 0
-4093 -4094 0
-4094 -6457 3951 0
-4094 -6453 3964 0
-4094 -6453 -6457 0
-4094 3951 3964 0
4094 6457 -3964 0
4094 6453 -3951 0
-4095 -6455 3933 0
-4095 -6462 3969 0
-4095 -6455 -6462 0
-4095 3933 3969 0
4095 6455 -3969 0
4095 6462 -3933 0
4096 4097 4098 4099 -4100 0
-4096 4100 0
-4096 -4097 0
-4096 -4099 0
-4096 -4098 0
-4097 -6458 3958 0
-4097 -6460 3961 0
-4097 -6458 -6460 0
-4097 3958 3961 0
4097 6458 -3961 0
4097 6460 -3958 0
-4098 -6459 3955 0
-4098 -6451 3962 0
-4098 -6451 -6459 0
-4098 3955 3962 0
4098 6459 -3962 0
4098 6451 -3955 0
-4099 -6456 3948 0
-4099 -6452 3966 0
-4099 -6452 -6456 0
-4099 3948 3966 0
4099 6456 -3966 0
4099 6452 -3948 0
4100 -6461 -3946 0
4100 -6454 3968 0
4100 -6454 -6461 0
4100 -3946 3968 0
-4100 6461 -3968 0
-4100 6454 3946 0
4101 -8189 -3188 0
-4101 8189 0
-4101 3188 0
4102 -8224 3971 0
4102 -3971 -4111 0
4102 -3971 -4103 0
-4102 8224 3971 0
-4102 -3971 4103 4111 0
4103 3931 4104 4105 -4106 0
-4103 4106 0
-4103 -3931 0
-4103 -4105 0
-4103 -4104 0
-4104 -6474 3966 0
-4104 -6466 3968 0
-4104 -6466 -6474 0
-4104 3966 3968 0
4104 6474 -3968 0
4104 6466 -3966 0
-4105 -6463 3951 0
-4105 -6470 3969 0
-4105 -6463 -6470 0
-4105 3951 3969 0
4105 6463 -3969 0
4105 6470 -3951 0
4106 4107 4108 -4109 4110 0
-4106 -4110 0
-4106 -4107 0
-4106 4109 0
-4106 -4108 0
-4107 -6464 3955 0
-4107 -6468 3962 0
-4107 -6464 -6468 0
-4107 3955 3962 0
4107 6464 -3962 0
4107 6468 -3955 0
-4108 -6465 3958 0
-4108 -6472 3961 0
-4108 -6465 -6472 0
-4108 3958 3961 0
4108 6465 -3961 0
4108 6472 -3958 0
4109 -6467 3933 0
4109 -6471 -3946 0
4109 -6467 -6471 0
4109 3933 -3946 0
-4109 6467 3946 0
-4109 6471 -3933 0
-4110 -6469 3948 0
-4110 -6473 3964 0
-4110 -6469 -6473 0
-4110 3948 3964 0
4110 6469 -3964 0
4110 6473 -3948 0
4111 -8190 -3188 0
-4111 8190 0
-4111 3188 0
4112 -8225 3971 0
4112 -3971 -4121 0
4112 -3971 -4113 0
-4112 8225 3971 0
-4112 -3971 4113 4121 0
4113 3931 -4114 4115 4116 0
-4113 -4116 0
-4113 -3931 0
-4113 -4115 0
-4113 4114 0
4114 -6478 -3946 0
4114 -6482 3948 0
4114 -6478 -6482 0
4114 -3946 3948 0
-4114 6478 -3948 0
-4114 6482 3946 0
-4115 -6479 3968 0
-4115 -6481 3969 0
-4115 -6479 -6481 0
-4115 3968 3969 0
4115 6479 -3969 0
4115 6481 -3968 0
-4116 4117 4118 4119 4120 0
4116 -4120 0
4116 -4117 0
4116 -4119 0
4116 -4118 0
-4117 -6475 3958 0
-4117 -6485 3961 0
-4117 -6475 -6485 0
-4117 3958 3961 0
4117 6475 -3961 0
4117 6485 -3958 0
-4118 -6486 3955 0
-4118 -6477 3962 0
-4118 -6477 -6486 0
-4118 3955 3962 0
4118 6486 -3962 0
4118 6477 -3955 0
-4119 -6484 3933 0
-4119 -6483 3966 0
-4119 -6483 -6484 0
-4119 3933 3966 0
4119 6484 -3966 0
4119 6483 -3933 0
-4120 -6480 3951 0
-4120 -6476 3964 0
-4120 -6476 -6480 0
-4120 3951 3964 0
4120 6480 -3964 0
4120 6476 -3951 0
4121 -8191 -3188 0
-4121 8191 0
-4121 3188 0
4122 -8226 3971 0
4122 -3971 -4131 0
4122 -3971 -4123 0
-4122 8226 3971 0
-4122 -3971 4123 4131 0
4123 3931 4124 4125 -4126 0
-4123 4126 0
-4123 -3931 0
-4123 -4125 0
-4123 -4124 0
-4124 -6492 3951 0
-4124 -6491 3969 0
-4124 -6491 -6492 0
-4124 3951 3969 0
4124 6492 -3969 0
4124 6491 -3951 0
-4125 -6495 3933 0
-4125 -6487 3948 0
-4125 -6487 -6495 0
-4125 3933 3948 0
4125 6495 -3948 0
4125 6487 -3933 0
4126 4127 4128 4129 -4130 0
-4126 4130 0
-4126 -4127 0
-4126 -4129 0
-4126 -4128 0
-4127 -6498 3955 0
-4127 -6493 3962 0
-4127 -6493 -6498 0
-4127 3955 3962 0
4127 6498 -3962 0
4127 6493 -3955 0
-4128 -6488 3958 0
-4128 -6497 3961 0
-4128 -6488 -6497 0
-4128 3958 3961 0
4128 6488 -3961 0
4128 6497 -3958 0
-4129 -6490 3966 0
-4129 -6489 3968 0
-4129 -6489 -6490 0
-4129 3966 3968 0
4129 6490 -3968 0
4129 6489 -3966 0
4130 -6496 -3946 0
4130 -6494 3964 0
4130 -6494 -6496 0
4130 -3946 3964 0
-4130 6496 -3964 0
-4130 6494 3946 0
4131 -8192 -3188 0
-4131 8192 0
-4131 3188 0
4132 -8227 3971 0
4132 -3971 -4141 0
4132 -3971 -4133 0
-4132 8227 3971 0
-4132 -3971 4133 4141 0
4133 3931 -4134 4135 4136 0
-4133 -4136 0
-4133 -3931 0
-4133 -4135 0
-4133 4134 0
4134 -6505 -3946 0
4134 -6502 3968 0
4134 -6502 -6505 0
4134 -3946 3968 0
-4134 6505 -3968 0
-4134 6502 3946 0
-4135 -6501 3948 0
-4135 -6503 3964 0
-4135 -6501 -6503 0
-4135 3948 3964 0
4135 6501 -3964 0
4135 6503 -3948 0
-4136 4137 4138 4139 4140 0
4136 -4140 0
4136 -4137 0
4136 -4139 0
4136 -4138 0
-4137 -6499 3961 0
-4137 -6509 3962 0
-4137 -6499 -6509 0
-4137 3961 3962 0
4137 6499 -3962 0
4137 6509 -3961 0
-4138 -6510 3955 0
-4138 -6500 3958 0
-4138 -6500 -6510 0
-4138 3955 3958 0
4138 6510 -3958 0
4138 6500 -3955 0
-4139 -6508 3933 0
-4139 -6507 3966 0
-4139 -6507 -6508 0
-4139 3933 3966 0
4139 6508 -3966 0
4139 6507 -3933 0
-4140 -6506 3951 0
-4140 -6504 3969 0
-4140 -6504 -6506 0
-4140 3951 3969 0
4140 6506 -3969 0
4140 6504 -3951 0
4141 -8193 -3188 0
-4141 8193 0
-4141 3188 0
4142 -8228 3971 0
4142 -3971 -4151 0
4142 -3971 -4143 0
-4142 8228 3971 0
-4142 -3971 4143 4151 0
4143 3931 -4144 4145 4146 0
-4143 -4146 0
-4143 -3931 0
-4143 -4145 0
-4143 4144 0
4144 -6520 -3946 0
4144 -6516 3968 0
4144 -6516 -6520 0
4144 -3946 3968 0
-4144 6520 -3968 0
-4144 6516 3946 0
-4145 -6515 3964 0
-4145 -6521 3969 0
-4145 -6515 -6521 0
-4145 3964 3969 0
4145 6515 -3969 0
4145 6521 -3964 0
-4146 4147 4148 4149 4150 0
4146 -4150 0
4146 -4147 0
4146 -4149 0
4146 -4148 0
-4147 -6513 3955 0
-4147 -6522 3961 0
-4147 -6513 -6522 0
-4147 3955 3961 0
4147 6513 -3961 0
4147 6522 -3955 0
-4148 -6512 3958 0
-4148 -6519 3962 0
-4148 -6512 -6519 0
-4148 3958 3962 0
4148 6512 -3962 0
4148 6519 -3958 0
-4149 -6518 3933 0
-4149 -6511 3948 0
-4149 -6511 -6518 0
-4149 3933 3948 0
4149 6518 -3948 0
4149 6511 -3933 0
-4150 -6517 3951 0
-4150 -6514 3966 0
-4150 -6514 -6517 0
-4150 3951 3966 0
4150 6517 -3966 0
4150 6514 -3951 0
4151 -8194 -3188 0
-4151 8194 0
-4151 3188 0
4152 -8229 3971 0
4152 -3971 -4161 0
4152 -3971 -4153 0
-4152 8229 3971 0
-4152 -3971 4153 4161 0
4153 3931 -4154 4155 4156 0
-4153 -4156 0
-4153 -3931 0
-4153 -4155 0
-4153 4154 0
4154 -6528 -3946 0
4154 -6531 3951 0
4154 -6528 -6531 0
4154 -3946 3951 0
-4154 6528 -3951 0
-4154 6531 3946 0
-4155 -6532 3964 0
-4155 -6527 3968 0
-4155 -6527 -6532 0
-4155 3964 3968 0
4155 6532 -3968 0
4155 6527 -3964 0
-4156 4157 4158 4159 4160 0
4156 -4160 0
4156 -4157 0
4156 -4159 0
4156 -4158 0
-4157 -6534 3955 0
-4157 -6525 3958 0
-4157 -6525 -6534 0
-4157 3955 3958 0
4157 6534 -3958 0
4157 6525 -3955 0
-4158 -6524 3961 0
-4158 -6530 3962 0
-4158 -6524 -6530 0
-4158 3961 3962 0
4158 6524 -3962 0
4158 6530 -3961 0
-4159 -6533 3933 0
-4159 -6523 3969 0
-4159 -6523 -6533 0
-4159 3933 3969 0
4159 6533 -3969 0
4159 6523 -3933 0
-4160 -6529 3948 0
-4160 -6526 3966 0
-4160 -6526 -6529 0
-4160 3948 3966 0
4160 6529 -3966 0
4160 6526 -3948 0
4161 -8195 -3188 0
-4161 8195 0
-4161 3188 0
4162 -8230 3971 0
4162 -3971 -4171 0
4162 -3971 -4163 0
-4162 8230 3971 0
-4162 -3971 4163 4171 0
4163 3931 4164 4165 -4166 0
-4163 4166 0
-4163 -3931 0
-4163 -4165 0
-4163 -4164 0
-4164 -6543 3948 0
-4164 -6537 3969 0
-4164 -6537 -6543 0
-4164 3948 3969 0
4164 6543 -3969 0
4164 6537 -3948 0
-4165 -6536 3964 0
-4165 -6535 3966 0
-4165 -6535 -6536 0
-4165 3964 3966 0
4165 6536 -3966 0
4165 6535 -3964 0
4166 4167 4168 -4169 4170 0
-4166 -4170 0
-4166 -4167 0
-4166 4169 0
-4166 -4168 0
-4167 -6540 3961 0
-4167 -6541 3962 0
-4167 -6540 -6541 0
-4167 3961 3962 0
4167 6540 -3962 0
4167 6541 -3961 0
-4168 -6544 3955 0
-4168 -6539 3958 0
-4168 -6539 -6544 0
-4168 3955 3958 0
4168 6544 -3958 0
4168 6539 -3955 0
4169 -6538 -3946 0
4169 -6546 3968 0
4169 -6538 -6546 0
4169 -3946 3968 0
-4169 6538 -3968 0
-4169 6546 3946 0
-4170 -6542 3933 0
-4170 -6545 3951 0
-4170 -6542 -6545 0
-4170 3933 3951 0
4170 6542 -3951 0
4170 6545 -3933 0
4171 -8196 -3188 0
-4171 8196 0
-4171 3188 0
4172 -8231 3971 0
4172 -3971 -4181 0
4172 -3971 -4173 0
-4172 8231 3971 0
-4172 -3971 4173 4181 0
4173 3931 4174 4175 -4176 0
-4173 4176 0
-4173 -3931 0
-4173 -4175 0
-4173 -4174 0
-4174 -6555 3933 0
-4174 -6552 3969 0
-4174 -6552 -6555 0
-4174 3933 3969 0
4174 6555 -3969 0
4174 6552 -3933 0
-4175 -6556 3966 0
-4175 -6551 3968 0
-4175 -6551 -6556 0
-4175 3966 3968 0
4175 6556 -3968 0
4175 6551 -3966 0
4176 4177 4178 -4179 4180 0
-4176 -4180 0
-4176 -4177 0
-4176 4179 0
-4176 -4178 0
-4177 -6558 3958 0
-4177 -6549 3962 0
-4177 -6549 -6558 0
-4177 3958 3962 0
4177 6558 -3962 0
4177 6549 -3958 0
-4178 -6548 3955 0
-4178 -6554 3961 0
-4178 -6548 -6554 0
-4178 3955 3961 0
4178 6548 -3961 0
4178 6554 -3955 0
4179 -6547 -3946 0
4179 -6557 3964 0
4179 -6547 -6557 0
4179 -3946 3964 0
-4179 6547 -3964 0
-4179 6557 3946 0
-4180 -6550 3948 0
-4180 -6553 3951 0
-4180 -6550 -6553 0
-4180 3948 3951 0
4180 6550 -3951 0
4180 6553 -3948 0
4181 -8197 -3188 0
-4181 8197 0
-4181 3188 0
4182 -8232 3971 0
4182 -3971 -4191 0
4182 -3971 -4183 0
-4182 8232 3971 0
-4182 -3971 4183 4191 0
4183 3931 4184 4185 -4186 0
-4183 4186 0
-4183 -3931 0
-4183 -4185 0
-4183 -4184 0
-4184 -6560 3964 0
-4184 -6567 3969 0
-4184 -6560 -6567 0
-4184 3964 3969 0
4184 6560 -3969 0
4184 6567 -3964 0
-4185 -6569 3948 0
-4185 -6563 3966 0
-4185 -6563 -6569 0
-4185 3948 3966 0
4185 6569 -3966 0
4185 6563 -3948 0
4186 4187 4188 -4189 4190 0
-4186 -4190 0
-4186 -4187 0
-4186 4189 0
-4186 -4188 0
-4187 -6564 3955 0
-4187 -6559 3958 0
-4187 -6559 -6564 0
-4187 3955 3958 0
4187 6564 -3958 0
4187 6559 -3955 0
-4188 -6565 3961 0
-4188 -6568 3962 0
-4188 -6565 -6568 0
-4188 3961 3962 0
4188 6565 -3962 0
4188 6568 -3961 0
4189 -6566 3933 0
4189 -6562 -3946 0
4189 -6562 -6566 0
4189 3933 -3946 0
-4189 6566 3946 0
-4189 6562 -3933 0
-4190 -6570 3951 0
-4190 -6561 3968 0
-4190 -6561 -6570 0
-4190 3951 3968 0
4190 6570 -3968 0
4190 6561 -3951 0
4191 -8198 -3188 0
-4191 8198 0
-4191 3188 0
4192 -8233 3971 0
4192 -3971 -4201 0
4192 -3971 -4193 0
-4192 8233 3971 0
-4192 -3971 4193 4201 0
4193 3931 -4194 4195 4196 0
-4193 -4196 0
-4193 -3931 0
-4193 -4195 0
-4193 4194 0
4194 -6576 -3946 0
4194 -6579 3966 0
4194 -6576 -6579 0
4194 -3946 3966 0
-4194 6576 -3966 0
-4194 6579 3946 0
-4195 -6580 3951 0
-4195 -6575 3964 0
-4195 -6575 -6580 0
-4195 3951 3964 0
4195 6580 -3964 0
4195 6575 -3951 0
-4196 4197 4198 4199 4200 0
4196 -4200 0
4196 -4197 0
4196 -4199 0
4196 -4198 0
-4197 -6573 3958 0
-4197 -6581 3961 0
-4197 -6573 -6581 0
-4197 3958 3961 0
4197 6573 -3961 0
4197 6581 -3958 0
-4198 -6577 3955 0
-4198 -6572 3962 0
-4198 -6572 -6577 0
-4198 3955 3962 0
4198 6577 -3962 0
4198 6572 -3955 0
-4199 -6578 3933 0
-4199 -6571 3968 0
-4199 -6571 -6578 0
-4199 3933 3968 0
4199 6578 -3968 0
4199 6571 -3933 0
-4200 -6582 3948 0
-4200 -6574 3969 0
-4200 -6574 -6582 0
-4200 3948 3969 0
4200 6582 -3969 0
4200 6574 -3948 0
4201 -8199 -3188 0
-4201 8199 0
-4201 3188 0
4202 -8234 3971 0
4202 -3971 -4211 0
4202 -3971 -4203 0
-4202 8234 3971 0
-4202 -3971 4203 4211 0
4203 3931 -4204 4205 4206 0
-4203 -4206 0
-4203 -3931 0
-4203 -4205 0
-4203 4204 0
4204 -6589 -3946 0
4204 -6591 3968 0
4204 -6589 -6591 0
4204 -3946 3968 0
-4204 6589 -3968 0
-4204 6591 3946 0
-4205 -6587 3933 0
-4205 -6590 3951 0
-4205 -6587 -6590 0
-4205 3933 3951 0
4205 6587 -3951 0
4205 6590 -3933 0
-4206 4207 4208 4209 4210 0
4206 -4210 0
4206 -4207 0
4206 -4209 0
4206 -4208 0
-4207 -6585 3958 0
-4207 -6583 3961 0
-4207 -6583 -6585 0
-4207 3958 3961 0
4207 6585 -3961 0
4207 6583 -3958 0
-4208 -6594 3955 0
-4208 -6584 3962 0
-4208 -6584 -6594 0
-4208 3955 3962 0
4208 6594 -3962 0
4208 6584 -3955 0
-4209 -6593 3964 0
-4209 -6586 3966 0
-4209 -6586 -6593 0
-4209 3964 3966 0
4209 6593 -3966 0
4209 6586 -3964 0
-4210 -6588 3948 0
-4210 -6592 3969 0
-4210 -6588 -6592 0
-4210 3948 3969 0
4210 6588 -3969 0
4210 6592 -3948 0
4211 -8200 -3188 0
-4211 8200 0
-4211 3188 0
4212 -8235 3971 0
4212 -3971 -4221 0
4212 -3971 -4213 0
-4212 8235 3971 0
-4212 -3971 4213 4221 0
4213 3931 -4214 4215 4216 0
-4213 -4216 0
-4213 -3931 0
-4213 -4215 0
-4213 4214 0
4214 -6599 -3946 0
4214 -6600 3951 0
4214 -6599 -6600 0
4214 -3946 3951 0
-4214 6599 -3951 0
-4214 6600 3946 0
-4215 -6603 3948 0
-4215 -6595 3964 0
-4215 -6595 -6603 0
-4215 3948 3964 0
4215 6603 -3964 0
4215 6595 -3948 0
-4216 4217 4218 4219 4220 0
4216 -4220 0
4216 -4217 0
4216 -4219 0
4216 -4218 0
-4217 -6606 3955 0
-4217 -6601 3961 0
-4217 -6601 -6606 0
-4217 3955 3961 0
4217 6606 -3961 0
4217 6601 -3955 0
-4218 -6605 3958 0
-4218 -6596 3962 0
-4218 -6596 -6605 0
-4218 3958 3962 0
4218 6605 -3962 0
4218 6596 -3958 0
-4219 -6598 3933 0
-4219 -6597 3969 0
-4219 -6597 -6598 0
-4219 3933 3969 0
4219 6598 -3969 0
4219 6597 -3933 0
-4220 -6604 3966 0
-4220 -6602 3968 0
-4220 -6602 -6604 0
-4220 3966 3968 0
4220 6604 -3968 0
4220 6602 -3966 0
4221 -8201 -3188 0
-4221 8201 0
-4221 3188 0
4222 -8236 3971 0
4222 -3971 -4231 0
4222 -3971 -4223 0
-4222 8236 3971 0
-4222 -3971 4223 4231 0
4223 3931 4224 4225 -4226 0
-4223 4226 0
-4223 -3931 0
-4223 -4225 0
-4223 -4224 0
-4224 -6609 3933 0
-4224 -6613 3964 0
-4224 -6609 -6613 0
-4224 3933 3964 0
4224 6609 -3964 0
4224 6613 -3933 0
-4225 -6618 3966 0
-4225 -6611 3968 0
-4225 -6611 -6618 0
-4225 3966 3968 0
4225 6618 -3968 0
4225 6611 -3966 0
4226 4227 4228 4229 -4230 0
-4226 4230 0
-4226 -4227 0
-4226 -4229 0
-4226 -4228 0
-4227 -6614 3955 0
-4227 -6616 3958 0
-4227 -6614 -6616 0
-4227 3955 3958 0
4227 6614 -3958 0
4227 6616 -3955 0
-4228 -6607 3961 0
-4228 -6615 3962 0
-4228 -6607 -6615 0
-4228 3961 3962 0
4228 6607 -3962 0
4228 6615 -3961 0
-4229 -6612 3948 0
-4229 -6608 3951 0
-4229 -6608 -6612 0
-4229 3948 3951 0
4229 6612 -3951 0
4229 6608 -3948 0
4230 -6610 -3946 0
4230 -6617 3969 0
4230 -6610 -6617 0
4230 -3946 3969 0
-4230 6610 -3969 0
-4230 6617 3946 0
4231 -8202 -3188 0
-4231 8202 0
-4231 3188 0
4232 -8237 3971 0
4232 -3971 -4241 0
4232 -3971 -4233 0
-4232 8237 3971 0
-4232 -3971 4233 4241 0
4233 3931 4234 4235 -4236 0
-4233 4236 0
-4233 -3931 0
-4233 -4235 0
-4233 -4234 0
-4234 -6625 3948 0
-4234 -6621 3969 0
-4234 -6621 -6625 0
-4234 3948 3969 0
4234 6625 -3969 0
4234 6621 -3948 0
-4235 -6630 3964 0
-4235 -6623 3966 0
-4235 -6623 -6630 0
-4235 3964 3966 0
4235 6630 -3966 0
4235 6623 -3964 0
4236 4237 4238 4239 -4240 0
-4236 4240 0
-4236 -4237 0
-4236 -4239 0
-4236 -4238 0
-4237 -6626 3955 0
-4237 -6628 3958 0
-4237 -6626 -6628 0
-4237 3955 3958 0
4237 6626 -3958 0
4237 6628 -3955 0
-4238 -6627 3961 0
-4238 -6619 3962 0
-4238 -6619 -6627 0
-4238 3961 3962 0
4238 6627 -3962 0
4238 6619 -3961 0
-4239 -6624 3933 0
-4239 -6620 3951 0
-4239 -6620 -6624 0
-4239 3933 3951 0
4239 6624 -3951 0
4239 6620 -3933 0
4240 -6629 -3946 0
4240 -6622 3968 0
4240 -6622 -6629 0
4240 -3946 3968 0
-4240 6629 -3968 0
-4240 6622 3946 0
4241 -8203 -3188 0
-4241 8203 0
-4241 3188 0
4242 -8238 3971 0
4242 -3971 -4251 0
4242 -3971 -4243 0
-4242 8238 3971 0
-4242 -3971 4243 4251 0
4243 3931 4244 -4245 4246 0
-4243 -4246 0
-4243 -3931 0
-4243 4245 0
-4243 -4244 0
-4244 -6634 3948 0
-4244 -6642 3951 0
-4244 -6634 -6642 0
-4244 3948 3951 0
4244 6634 -3951 0
4244 6642 -3948 0
4245 -6638 -3946 0
4245 -6631 3964 0
4245 -6631 -6638 0
4245 -3946 3964 0
-4245 6638 -3964 0
-4245 6631 3946 0
-4246 4247 4248 4249 4250 0
4246 -4250 0
4246 -4247 0
4246 -4249 0
4246 -4248 0
-4247 -6636 3955 0
-4247 -6632 3958 0
-4247 -6632 -6636 0
-4247 3955 3958 0
4247 6636 -3958 0
4247 6632 -3955 0
-4248 -6633 3961 0
-4248 -6640 3962 0
-4248 -6633 -6640 0
-4248 3961 3962 0
4248 6633 -3962 0
4248 6640 -3961 0
-4249 -6635 3933 0
-4249 -6639 3966 0
-4249 -6635 -6639 0
-4249 3933 3966 0
4249 6635 -3966 0
4249 6639 -3933 0
-4250 -6637 3968 0
-4250 -6641 3969 0
-4250 -6637 -6641 0
-4250 3968 3969 0
4250 6637 -3969 0
4250 6641 -3968 0
4251 -8204 -3188 0
-4251 8204 0
-4251 3188 0
4252 -8239 3971 0
4252 -3971 -4261 0
4252 -3971 -4253 0
-4252 8239 3971 0
-4252 -3971 4253 4261 0
4253 3931 4254 -4255 4256 0
-4253 -4256 0
-4253 -3931 0
-4253 4255 0
-4253 -4254 0
-4254 -6647 3933 0
-4254 -6646 3964 0
-4254 -6646 -6647 0
-4254 3933 3964 0
4254 6647 -3964 0
4254 6646 -3933 0
4255 -6645 -3946 0
4255 -6653 3968 0
4255 -6645 -6653 0
4255 -3946 3968 0
-4255 6645 -3968 0
-4255 6653 3946 0
-4256 4257 4258 4259 4260 0
4256 -4260 0
4256 -4257 0
4256 -4259 0
4256 -4258 0
-4257 -6648 3961 0
-4257 -6643 3962 0
-4257 -6643 -6648 0
-4257 3961 3962 0
4257 6648 -3962 0
4257 6643 -3961 0
-4258 -6654 3955 0
-4258 -6649 3958 0
-4258 -6649 -6654 0
-4258 3955 3958 0
4258 6654 -3958 0
4258 6649 -3955 0
-4259 -6651 3948 0
-4259 -6652 3966 0
-4259 -6651 -6652 0
-4259 3948 3966 0
4259 6651 -3966 0
4259 6652 -3948 0
-4260 -6650 3951 0
-4260 -6644 3969 0
-4260 -6644 -6650 0
-4260 3951 3969 0
4260 6650 -3969 0
4260 6644 -3951 0
4261 -8205 -3188 0
-4261 8205 0
-4261 3188 0
4262 -8240 3971 0
4262 -3971 -4271 0
4262 -3971 -4263 0
-4262 8240 3971 0
-4262 -3971 4263 4271 0
4263 3931 4264 -4265 4266 0
-4263 -4266 0
-4263 -3931 0
-4263 4265 0
-4263 -4264 0
-4264 -6655 3933 0
-4264 -6663 3964 0
-4264 -6655 -6663 0
-4264 3933 3964 0
4264 6655 -3964 0
4264 6663 -3933 0
4265 -6658 -3946 0
4265 -6657 3966 0
4265 -6657 -6658 0
4265 -3946 3966 0
-4265 6658 -3966 0
-4265 6657 3946 0
-4266 4267 4268 4269 4270 0
4266 -4270 0
4266 -4267 0
4266 -4269 0
4266 -4268 0
-4267 -6659 3955 0
-4267 -6666 3961 0
-4267 -6659 -6666 0
-4267 3955 3961 0
4267 6659 -3961 0
4267 6666 -3955 0
-4268 -6660 3958 0
-4268 -6665 3962 0
-4268 -6660 -6665 0
-4268 3958 3962 0
4268 6660 -3962 0
4268 6665 -3958 0
-4269 -6664 3951 0
-4269 -6656 3968 0
-4269 -6656 -6664 0
-4269 3951 3968 0
4269 6664 -3968 0
4269 6656 -3951 0
-4270 -6661 3948 0
-4270 -6662 3969 0
-4270 -6661 -6662 0
-4270 3948 3969 0
4270 6661 -3969 0
4270 6662 -3948 0
4271 -8206 -3188 0
-4271 8206 0
-4271 3188 0
4272 -8241 3971 0
4272 -3971 -4281 0
4272 -3971 -4273 0
-4272 8241 3971 0
-4272 -3971 4273 4281 0
4273 3931 -4274 4275 4276 0
-4273 -4276 0
-4273 -3931 0
-4273 -4275 0
-4273 4274 0
4274 -6675 -3946 0
4274 -6672 3964 0
4274 -6672 -6675 0
4274 -3946 3964 0
-4274 6675 -3964 0
-4274 6672 3946 0
-4275 -6676 3951 0
-4275 -6671 3969 0
-4275 -6671 -6676 0
-4275 3951 3969 0
4275 6676 -3969 0
4275 6671 -3951 0
-4276 4277 4278 4279 4280 0
4276 -4280 0
4276 -4277 0
4276 -4279 0
4276 -4278 0
-4277 -6677 3958 0
-4277 -6669 3962 0
-4277 -6669 -6677 0
-4277 3958 3962 0
4277 6677 -3962 0
4277 6669 -3958 0
-4278 -6673 3955 0
-4278 -6668 3961 0
-4278 -6668 -6673 0
-4278 3955 3961 0
4278 6673 -3961 0
4278 6668 -3955 0
-4279 -6667 3933 0
-4279 -6674 3966 0
-4279 -6667 -6674 0
-4279 3933 3966 0
4279 6667 -3966 0
4279 6674 -3933 0
-4280 -6678 3948 0
-4280 -6670 3968 0
-4280 -6670 -6678 0
-4280 3948 3968 0
4280 6678 -3968 0
4280 6670 -3948 0
4281 -8207 -3188 0
-4281 8207 0
-4281 3188 0
4282 -8242 3971 0
4282 -3971 -4291 0
4282 -3971 -4283 0
-4282 8242 3971 0
-4282 -3971 4283 4291 0
4283 3931 4284 4285 -4286 0
-4283 4286 0
-4283 -3931 0
-4283 -4285 0
-4283 -4284 0
-4284 -6685 3933 0
-4284 -6687 3968 0
-4284 -6685 -6687 0
-4284 3933 3968 0
4284 6685 -3968 0
4284 6687 -3933 0
-4285 -6683 3948 0
-4285 -6686 3951 0
-4285 -6683 -6686 0
-4285 3948 3951 0
4285 6683 -3951 0
4285 6686 -3948 0
4286 4287 4288 4289 -4290 0
-4286 4290 0
-4286 -4287 0
-4286 -4289 0
-4286 -4288 0
-4287 -6681 3958 0
-4287 -6679 3961 0
-4287 -6679 -6681 0
-4287 3958 3961 0
4287 6681 -3961 0
4287 6679 -3958 0
-4288 -6690 3955 0
-4288 -6680 3962 0
-4288 -6680 -6690 0
-4288 3955 3962 0
4288 6690 -3962 0
4288 6680 -3955 0
-4289 -6689 3964 0
-4289 -6682 3966 0
-4289 -6682 -6689 0
-4289 3964 3966 0
4289 6689 -3966 0
4289 6682 -3964 0
4290 -6684 -3946 0
4290 -6688 3969 0
4290 -6684 -6688 0
4290 -3946 3969 0
-4290 6684 -3969 0
-4290 6688 3946 0
4291 -8208 -3188 0
-4291 8208 0
-4291 3188 0
4292 -6030 -6105 0
-4292 6030 0
-4292 6105 0
-4293 6105 0
-4293 6029 6030 0
4293 -6030 -6105 0
4293 -6029 -6105 0
4294 4295 -4304 -4317 0
4294 4296 -4304 -4317 0
-4294 4317 0
-4294 4304 0
-4294 -4295 -4296 0
-4295 -8246 8249 0
-4295 -8247 8249 0
-4295 8245 8249 0
4295 -8249 0
4295 -8245 8246 8247 0
4296 4297 -4301 0
-4296 -4297 0
-4296 4301 0
4297 -4298 4299 0
-4297 4298 0
-4297 -4299 0
4298 -7578 0
4298 -7571 8250 0
-4298 7578 -8250 0
-4298 7571 7578 0
4299 6105 -4300 0
4299 6027 -4300 0
4299 7578 -4300 0
-4299 4300 0
-4299 -6027 -6105 -7578 0
4300 6028 -3151 0
-4300 -6028 0
-4300 3151 0
4301 -4302 -4303 0
-4301 4302 0
-4301 4303 0
-4302 3130 4293 0
4302 -3130 0
4302 -4293 0
-4303 6033 6034 3151 0
4303 -6033 0
4303 -3151 0
4303 -6034 0
-4304 4305 4313 0
-4304 4305 4311 -4312 0
4304 -4305 0
4304 -4311 -4313 0
4304 4312 -4313 0
-4305 -8248 4295 0
-4305 4295 -4296 0
-4305 4295 4306 0
4305 -4295 0
4305 8248 4296 -4306 0
4306 -4307 4310 0
-4306 4307 0
-4306 -4310 0
-4307 -8246 4308 0
-4307 8247 4308 0
4307 -4308 0
4307 8246 -8247 0
4308 -2148 4309 0
-4308 2148 0
-4308 -4309 0
-4309 8245 8247 0
4309 -8245 0
4309 -8247 0
4310 -6034 4302 0
4310 -6033 4302 0
-4310 -4302 0
-4310 6033 6034 0
4311 -8252 -4297 0
-4311 8252 0
-4311 4297 0
4312 8245 -8251 0
-4312 -8245 0
-4312 8251 0
4313 -4298 4314 4316 0
-4313 4298 0
-4313 -4316 0
-4313 -4314 0
4314 -4299 -4315 0
-4314 4299 0
-4314 4315 0
4315 8245 -8247 -2148 0
4315 -8245 8247 -2148 0
-4315 2148 0
-4315 8245 8247 0
-4315 -8245 -8247 0
4316 8248 -4307 0
-4316 -8248 0
-4316 4307 0
-4317 8246 4309 0
4317 -8246 0
4317 -4309 0
4318 -4317 -4319 0
-4318 4317 0
-4318 4319 0
4319 4303 -4320 0
4319 -4320 4323 0
4319 4295 -4320 0
-4319 4320 0
-4319 -4295 -4303 -4323 0
-4320 4305 4316 4322 0
-4320 4305 -4321 4322 0
4320 -4322 0
4320 -4305 0
4320 -4316 4321 0
4321 4298 4299 -4302 0
-4321 -4298 0
-4321 4302 0
-4321 -4299 0
-4322 4298 4314 0
-4322 -8252 4298 0
4322 -4298 0
4322 8252 -4314 0
-4323 4310 4321 0
4323 -4310 0
4323 -4321 0
4324 -4317 -4325 0
4324 7578 -8250 -4325 0
-4324 4325 0
-4324 -7578 4317 0
-4324 8250 4317 0
-4325 -4308 4327 0
-4325 4327 4333 0
-4325 -4326 4327 0
4325 -4327 0
4325 4326 4308 -4333 0
4326 -8245 8246 0
-4326 8245 0
-4326 -8246 0
4327 -4328 -4329 0
4327 4301 -4306 0
4327 -4328 4301 0
4327 -4306 -4329 0
-4327 4328 4306 0
-4327 -4301 4329 0
4328 -8245 8246 8247 0
-4328 8245 0
-4328 -8247 0
-4328 -8246 0
4329 -4330 4332 0
-4329 4330 0
-4329 -4332 0
-4330 4300 4331 0
4330 -4300 0
4330 -4331 0
-4331 -7578 4311 0
-4331 8250 4311 0
4331 -4311 0
4331 7578 -8250 0
4332 -6027 -6105 -7578 -4300 0
-4332 4300 0
-4332 6027 0
-4332 7578 0
-4332 6105 0
-4333 4334 4331 4335 0
-4333 4331 4335 4336 0
4333 -4331 0
4333 -4335 0
4333 -4334 -4336 0
-4334 7571 7578 0
4334 -7571 0
4334 -7578 0
4335 -8252 -4334 -4315 0
4335 8252 -4315 -4329 0
-4335 4315 0
-4335 8252 4329 0
-4335 -8252 4334 0
4336 -8245 -8247 -2148 0
-4336 8245 0
-4336 8247 0
-4336 2148 0
-4337 4294 4318 0
4337 -4294 0
4337 -4318 0
4338 -4324 4337 0
-4338 4324 0
-4338 -4337 0
4339 7571 -3192 0
-4339 -7571 0
-4339 3192 0
4340 4308 4336 -4343 0
4340 4336 -4341 -4343 0
-4340 4343 0
-4340 -4336 0
-4340 -4308 4341 0
4341 4302 -4303 0
4341 -4303 -4342 0
-4341 4303 0
-4341 -4302 4342 0
4342 -4334 4330 0
-4342 4334 0
-4342 -4330 0
-4343 4308 -4311 4344 0
-4343 4308 4344 4345 0
4343 -4308 0
4343 -4344 0
4343 4311 -4345 0
4344 -8246 -4342 0
4344 -4301 -4309 -4342 0
-4344 4342 0
-4344 8246 4301 0
-4344 8246 4309 0
4345 -8246 -4298 4315 0
-4345 8246 0
-4345 4298 0
-4345 -4315 0
-4346 -7571 4337 0
-4346 7578 8252 0
-4346 -7571 8252 0
-4346 7578 4337 0
4346 7571 -7578 0
4346 -8252 -4337 0
-4347 4337 4348 0
-4347 8253 4348 0
4347 -4348 0
4347 -8253 -4337 0
4348 7568 -4338 0
4348 7299 -4338 0
4348 3169 -4338 0
-4348 4338 0
-4348 -7299 -7568 -3169 0
-4349 8254 4338 0
-4349 -4338 4350 4352 0
4349 -4338 -4350 0
4349 -8254 4338 0
4349 -4338 -4352 0
4350 8176 -4351 0
-4350 -8176 0
-4350 4351 0
4351 -7571 7578 0
-4351 7571 0
-4351 -7578 0
4352 -7580 8210 -4353 0
-4352 7580 0
-4352 -8210 0
-4352 4353 0
4353 -6119 6120 -7578 0
-4353 6119 0
-4353 -6120 0
-4353 7578 0
-4354 -4338 4355 0
-4354 8255 4338 0
4354 -4338 -4355 0
4354 -8255 4338 0
-4355 4353 4356 0
-4355 -7580 8211 4356 0
4355 -4356 0
4355 -8211 -4353 0
4355 7580 -4353 0
4356 -8177 -4351 0
-4356 8177 0
-4356 4351 0
-4357 -4338 4358 0
-4357 8256 4338 0
4357 -4338 -4358 0
4357 -8256 4338 0
-4358 8178 -4359 0
-4358 4351 4353 0
-4358 4351 -4359 0
-4358 8178 4353 0
4358 -8178 -4351 0
4358 -4353 4359 0
4359 -7580 8212 0
-4359 7580 0
-4359 -8212 0
4360 -8257 4338 0
4360 -4338 4361 0
4360 6120 -4338 0
-4360 8257 4338 0
-4360 -6120 -4338 -4361 0
4361 -7568 -3169 0
-4361 7568 0
-4361 3169 0
-4362 8258 4338 0
4362 -8258 0
4362 -4338 0
-4363 8259 4338 0
-4363 -7299 -4338 -4361 0
4363 -8259 4338 0
4363 -4338 4361 0
4363 7299 -4338 0
-4364 -4336 4338 0
-4364 4337 4338 0
-4364 8260 4338 0
4364 -4338 0
4364 -8260 4336 -4337 0
-4365 8261 4366 0
-4365 -7578 4366 0
-4365 4293 4366 0
4365 -4366 0
4365 7578 -8261 -4293 0
4366 -7571 -8261 0
4366 -7571 -3151 -3159 0
-4366 7571 0
-4366 8261 3159 0
-4366 8261 3151 0
4367 2151 -4337 0
4367 7308 4368 -4337 0
-4367 4337 0
-4367 -2151 -4368 0
-4367 -7308 -2151 0
-4368 2147 0
-4368 -7305 7530 0
-4368 7530 8263 0
4368 -7530 -2147 0
4368 7305 -8263 -2147 0
4369 7306 8263 -2147 0
4369 -7305 7306 -2147 0
-4369 2147 0
-4369 -7306 0
-4369 7305 -8263 0
-4370 8250 -8264 -3151 0
-4370 8250 8264 4371 0
-4370 8250 -8264 -4371 0
4370 -8250 0
4370 8264 -4371 0
4370 -8264 3151 4371 0
4371 -8252 4293 0
4371 4293 -4334 0
-4371 -4293 0
-4371 8252 4334 0
-4372 8265 4375 0
-4372 -8264 -8265 -4373 0
-4372 -4373 4375 0
-4372 8264 8265 0
4372 -8265 4373 0
4372 -8264 8265 -4375 0
4372 8264 -8265 -4375 0
-4373 8250 4374 0
4373 -8250 0
4373 -4374 0
-4374 3151 4371 0
4374 -3151 0
4374 -4371 0
4375 8250 -4371 0
-4375 -8250 0
-4375 4371 0
4376 -8266 4373 0
4376 8266 -4375 -4377 0
4376 -8266 -4375 4377 0
-4376 8266 4375 0
-4376 -8266 -4373 -4377 0
-4376 -4373 4375 0
-4376 8266 4377 0
4377 -8264 -8265 0
-4377 8264 0
-4377 8265 0
4378 -6 4379 0
-4378 6 0
-4378 -4379 0
4379 3086 4380 -4381 0
-4379 -3086 0
-4379 4381 0
-4379 -4380 0
4380 -5813 -6105 -3094 0
4380 -5814 -6105 -3094 0
-4380 3094 0
-4380 6105 0
-4380 5813 5814 0
-4381 3087 3095 0
4381 -3087 0
4381 -3095 0
4382 -6 -4383 0
-4382 6 0
-4382 4383 0
4383 -5814 -3088 0
4383 -5813 -3088 0
-4383 3088 0
-4383 5813 5814 0
-4384 8269 4385 0
-4384 5953 -4385 0
4384 -8269 4385 0
4384 -5953 -4385 0
4385 8299 8300 8301 -4386 0
-4385 4386 0
-4385 -8301 0
-4385 -8299 0
-4385 -8300 0
4386 -4387 -4421 0
-4386 4387 0
-4386 4421 0
4387 4388 -4393 0
-4387 -4388 0
-4387 4393 0
-4388 4389 4390 4391 4392 0
4388 -4392 0
4388 -4391 0
4388 -4389 0
4388 -4390 0
4389 -5954 -6105 0
-4389 5954 0
-4389 6105 0
4390 -5958 -6105 0
-4390 5958 0
-4390 6105 0
4391 -5956 -6105 0
-4391 5956 0
-4391 6105 0
4392 -5960 -6105 0
-4392 5960 0
-4392 6105 0
4393 -4394 4396 0
-4393 4394 0
-4393 -4396 0
4394 8267 -4378 0
4394 -8294 -4378 4395 0
-4394 4378 0
-4394 -8267 -4395 0
-4394 -8267 8294 0
-4395 5 3071 0
-4395 5 -4379 0
4395 -5 0
4395 -3071 4379 0
-4396 8273 4397 4411 0
-4396 4397 -4408 4411 0
4396 -4411 0
4396 -4397 0
4396 -8273 4408 0
-4397 4398 4404 0
4397 -4398 0
4397 -4404 0
4398 -8288 4399 0
-4398 8288 0
-4398 -4399 0
-4399 4388 4400 4403 0
4399 -4388 0
4399 -4400 0
4399 -4403 0
-4400 -8286 8287 -4401 4402 0
-4400 8286 -8287 4401 -4402 0
-4400 8286 8287 4401 4402 0
-4400 -8286 -8287 -4401 -4402 0
4400 -8286 4401 0
4400 8286 -4401 0
4400 8287 -4402 0
4400 -8287 4402 0
4401 -5957 -6105 0
-4401 5957 0
-4401 6105 0
4402 -5959 -6105 0
-4402 5959 0
-4402 6105 0
-4403 -5953 5955 8284 -8285 0
-4403 -5953 -5955 -8284 -8285 0
-4403 5953 5955 8284 8285 0
-4403 5953 -5955 -8284 8285 0
4403 5953 -8285 0
4403 -5953 8285 0
4403 -5955 8284 0
4403 5955 -8284 0
4404 -8293 4405 0
-4404 8293 0
-4404 -4405 0
-4405 4388 4406 4407 0
4405 -4388 0
4405 -4406 0
4405 -4407 0
-4406 -8289 8292 -4401 4402 0
-4406 8289 -8292 4401 -4402 0
-4406 8289 8292 4401 4402 0
-4406 -8289 -8292 -4401 -4402 0
4406 -8289 4401 0
4406 8289 -4401 0
4406 8292 -4402 0
4406 -8292 4402 0
-4407 -5953 5955 8290 -8291 0
-4407 -5953 -5955 -8290 -8291 0
-4407 5953 5955 8290 8291 0
-4407 5953 -5955 -8290 8291 0
4407 5953 -8291 0
4407 -5953 8291 0
4407 -5955 8290 0
4407 5955 -8290 0
-4408 4388 4409 4410 0
4408 -4388 0
4408 -4409 0
4408 -4410 0
-4409 -8271 8272 4401 -4402 0
-4409 -8271 -8272 -4401 -4402 0
-4409 8271 8272 4401 4402 0
-4409 8271 -8272 -4401 4402 0
4409 8271 -4402 0
4409 -8271 4402 0
4409 -8272 4401 0
4409 8272 -4401 0
-4410 -5953 5955 -8269 8270 0
-4410 5953 -5955 8269 -8270 0
-4410 5953 5955 8269 8270 0
-4410 -5953 -5955 -8269 -8270 0
4410 -5953 8269 0
4410 5953 -8269 0
4410 5955 -8270 0
4410 -5955 8270 0
-4411 4412 4417 0
4411 -4412 0
4411 -4417 0
4412 -8278 4413 0
-4412 8278 0
-4412 -4413 0
-4413 8275 4401 4414 4415 0
-4413 -8275 -4401 4414 4415 0
4413 -4415 0
4413 -8275 4401 0
4413 -4414 0
4413 8275 -4401 0
-4414 -8277 -4402 0
-4414 8277 4402 0
4414 8277 -4402 0
4414 -8277 4402 0
-4415 5955 8274 4388 4416 0
-4415 -5955 -8274 4388 4416 0
4415 -4416 0
4415 -5955 8274 0
4415 -4388 0
4415 5955 -8274 0
-4416 -5953 -8276 0
-4416 5953 8276 0
4416 5953 -8276 0
4416 -5953 8276 0
4417 -8283 4418 0
-4417 8283 0
-4417 -4418 0
-4418 4388 4419 4420 0
4418 -4388 0
4418 -4419 0
4418 -4420 0
-4419 -8281 8282 -4401 4402 0
-4419 8281 -8282 4401 -4402 0
-4419 8281 8282 4401 4402 0
-4419 -8281 -8282 -4401 -4402 0
4419 -8281 4401 0
4419 8281 -4401 0
4419 8282 -4402 0
4419 -8282 4402 0
-4420 -5953 5955 8279 -8280 0
-4420 -5953 -5955 -8279 -8280 0
-4420 5953 5955 8279 8280 0
-4420 5953 -5955 -8279 8280 0
4420 5953 -8280 0
4420 -5953 8280 0
4420 -5955 8279 0
4420 5955 -8279 0
-4421 -4422 4424 0
-4421 4424 -4425 0
-4421 4393 4424 0
4421 -4424 0
4421 -4393 4422 4425 0
4422 8268 -4382 0
4422 -8295 -4382 4423 0
-4422 4382 0
-4422 -8268 -4423 0
-4422 -8268 8295 0
-4423 5 4383 0
-4423 5 3071 0
4423 -5 0
4423 -3071 -4383 0
4424 4394 -4396 -4422 0
-4424 4422 0
-4424 4396 0
-4424 -4394 0
4425 -8296 -8297 0
4425 -8296 -8298 0
-4425 8296 0
-4425 8297 8298 0
-4426 8270 4385 0
-4426 5955 -4385 0
4426 -8270 4385 0
4426 -5955 -4385 0
4427 -4402 -4385 0
4427 -8271 4385 0
-4427 8271 4385 0
-4427 4402 -4385 0
4428 -4401 -4385 0
4428 -8272 4385 0
-4428 8272 4385 0
-4428 4401 -4385 0
-4429 8273 4385 0
-4429 4386 4385 -4430 0
4429 -4385 0
4429 -8273 4430 0
4429 -8273 -4386 0
4430 4408 -4421 0
-4430 -4408 0
-4430 4421 0
-4431 8274 4432 0
-4431 5955 -4432 0
4431 -8274 4432 0
4431 -5955 -4432 0
4432 8299 8300 -8301 -4386 0
-4432 -8299 0
-4432 4386 0
-4432 8301 0
-4432 -8300 0
4433 -4401 -4432 0
4433 -8275 4432 0
-4433 8275 4432 0
-4433 4401 -4432 0
-4434 8276 4432 0
-4434 5953 -4432 0
4434 -8276 4432 0
4434 -5953 -4432 0
4435 -4402 -4432 0
4435 -8277 4432 0
-4435 8277 4432 0
-4435 4402 -4432 0
-4436 8278 4432 0
-4436 4386 4432 -4437 0
4436 -4432 0
4436 -8278 4437 0
4436 -8278 -4386 0
4437 4413 -4421 0
-4437 -4413 0
-4437 4421 0
-4438 8279 4439 0
-4438 5955 -4439 0
4438 -8279 4439 0
4438 -5955 -4439 0
4439 -8299 -4386 0
-4439 8299 0
-4439 4386 0
-4440 8280 4439 0
-4440 5953 -4439 0
4440 -8280 4439 0
4440 -5953 -4439 0
4441 -4401 -4439 0
4441 -8281 4439 0
-4441 8281 4439 0
-4441 4401 -4439 0
4442 -4402 -4439 0
4442 -8282 4439 0
-4442 8282 4439 0
-4442 4402 -4439 0
-4443 8283 4444 0
-4443 4418 -4421 4444 0
4443 -4444 0
4443 -8283 -4418 0
4443 -8283 4421 0
4444 -8299 -4386 0
4444 -8283 -4386 0
-4444 4386 0
-4444 8283 8299 0
-4445 8284 4446 0
-4445 5955 -4446 0
4445 -8284 4446 0
4445 -5955 -4446 0
4446 -8300 8301 -4386 0
-4446 8300 0
-4446 -8301 0
-4446 4386 0
-4447 8285 4446 0
-4447 5953 -4446 0
4447 -8285 4446 0
4447 -5953 -4446 0
4448 -4401 -4446 0
4448 -8286 4446 0
-4448 8286 4446 0
-4448 4401 -4446 0
4449 -4402 -4446 0
4449 -8287 4446 0
-4449 8287 4446 0
-4449 4402 -4446 0
-4450 8288 4446 0
-4450 4399 4446 -4451 0
4450 -4446 0
4450 -8288 4451 0
4450 -8288 -4399 0
4451 4387 -4421 0
-4451 -4387 0
-4451 4421 0
4452 -4401 -4453 0
4452 -8289 4453 0
-4452 8289 4453 0
-4452 4401 -4453 0
4453 -8300 -8301 -4386 0
-4453 8300 0
-4453 8301 0
-4453 4386 0
-4454 8290 4453 0
-4454 5955 -4453 0
4454 -8290 4453 0
4454 -5955 -4453 0
-4455 8291 4453 0
-4455 5953 -4453 0
4455 -8291 4453 0
4455 -5953 -4453 0
4456 -4402 -4453 0
4456 -8292 4453 0
-4456 8292 4453 0
-4456 4402 -4453 0
-4457 8293 4453 0
-4457 4405 -4451 4453 0
4457 -4453 0
4457 -8293 -4405 0
4457 -8293 4451 0
4458 -4378 -4395 0
-4458 4378 0
-4458 4395 0
4459 -5 -6 -4383 0
4459 -6 -3071 -4383 0
-4459 4383 0
-4459 6 0
-4459 5 3071 0
-4460 -8296 -4461 0
-4460 8296 4461 0
4460 8296 -4461 0
4460 -8296 4461 0
4461 8297 8298 -4424 -4462 0
4461 -8297 -8298 4424 -4462 0
-4461 -8297 -4424 0
-4461 8298 4424 0
-4461 4462 0
-4461 8297 -8298 0
4462 4388 -4421 0
-4462 -4388 0
-4462 4421 0
4463 8297 -4462 0
4463 -8297 4462 0
-4463 -8297 -4462 0
-4463 8297 4462 0
4464 -8298 4462 0
4464 4424 -4462 -4465 0
4464 -4424 -4462 4465 0
-4464 8298 4462 0
-4464 4424 -4462 4465 0
-4464 -4424 -4462 -4465 0
4465 8297 -8298 0
4465 -8297 8298 0
-4465 -8297 -8298 0
-4465 8297 8298 0
-4466 8299 4472 0
-4466 8299 4462 0
-4466 -4462 4467 4472 0
4466 -8299 4462 0
4466 -4462 -4472 0
4466 -8299 -4467 0
4467 -8273 -4393 -4469 0
4467 4468 -4393 -4469 0
-4467 4469 0
-4467 4393 0
-4467 8273 -4468 0
-4468 8299 8300 8301 0
4468 -8299 0
4468 -8301 0
4468 -8300 0
4469 -4470 -4471 0
-4469 4470 0
-4469 4471 0
4470 -8288 -8293 0
4470 -8288 -8300 -8301 0
4470 -8293 -8300 8301 0
-4470 8288 -8301 0
-4470 8293 8300 0
-4470 8293 8301 0
-4470 8288 8300 0
-4471 8278 -8299 0
-4471 8278 8301 0
-4471 8278 -8300 0
4471 -8278 0
4471 8299 8300 -8301 0
-4472 -8299 4417 0
-4472 4417 4393 0
-4472 -8283 4417 0
4472 -4417 0
4472 8283 8299 -4393 0
-4473 4444 4475 0
-4473 -4470 4474 4475 0
4473 -4475 0
4473 -4444 4470 0
4473 -4444 -4474 0
4474 -8273 -8278 -8300 0
-4474 8273 0
-4474 8278 0
-4474 8300 0
-4475 -4417 -4462 0
-4475 8300 4462 0
-4475 4397 -4462 0
4475 -8300 4462 0
4475 -4397 4417 -4462 0
-4476 8301 4462 4477 0
-4476 -4462 4477 4481 0
4476 -4477 0
4476 -8301 4462 0
4476 -4462 -4481 0
4477 -4444 4479 0
4477 -4444 -4478 4480 0
-4477 4444 0
-4477 4478 -4479 0
-4477 -4479 -4480 0
-4478 8288 8300 0
-4478 8288 -8301 0
4478 -8288 0
4478 -8300 8301 0
-4479 8293 8301 0
-4479 8293 8300 0
4479 -8293 0
4479 -8300 -8301 0
4480 8273 -4471 0
4480 8301 -4471 0
-4480 4471 0
-4480 -8273 -8301 0
4481 -4404 4417 0
4481 4398 -4412 4417 0
-4481 -4417 0
-4481 -4398 4404 0
-4481 4404 4412 0
-4482 69 70 0
-4482 -69 -70 0
4482 -69 70 0
4482 69 -70 0
4483 72 -4484 0
4483 -72 4484 0
-4483 -72 -4484 0
-4483 72 4484 0
4484 69 -70 0
-4484 -69 0
-4484 70 0
4485 73 -4486 0
4485 -73 4486 0
-4485 -73 -4486 0
-4485 73 4486 0
4486 -72 -4484 0
-4486 72 0
-4486 4484 0
4487 74 -4488 0
4487 -74 4488 0
-4487 -74 -4488 0
-4487 74 4488 0
4488 -73 -4486 0
-4488 73 0
-4488 4486 0
4489 75 -4490 0
4489 -75 4490 0
-4489 -75 -4490 0
-4489 75 4490 0
4490 -74 -4488 0
-4490 74 0
-4490 4488 0
4491 76 -4492 0
4491 -76 4492 0
-4491 -76 -4492 0
-4491 76 4492 0
4492 -75 -4490 0
-4492 75 0
-4492 4490 0
4493 77 -4494 0
4493 -77 4494 0
-4493 -77 -4494 0
-4493 77 4494 0
4494 -76 -4492 0
-4494 76 0
-4494 4492 0
4495 78 -4496 0
4495 -78 4496 0
-4495 -78 -4496 0
-4495 78 4496 0
4496 -77 -4494 0
-4496 77 0
-4496 4494 0
4497 79 -4498 0
4497 -79 4498 0
-4497 -79 -4498 0
-4497 79 4498 0
4498 -78 -4496 0
-4498 78 0
-4498 4496 0
4499 80 -4500 0
4499 -80 4500 0
-4499 -80 -4500 0
-4499 80 4500 0
4500 -79 -4498 0
-4500 79 0
-4500 4498 0
4501 81 -4502 0
4501 -81 4502 0
-4501 -81 -4502 0
-4501 81 4502 0
4502 -80 -4500 0
-4502 80 0
-4502 4500 0
4503 82 -4504 0
4503 -82 4504 0
-4503 -82 -4504 0
-4503 82 4504 0
4504 -81 -4502 0
-4504 81 0
-4504 4502 0
4505 83 -4506 0
4505 -83 4506 0
-4505 -83 -4506 0
-4505 83 4506 0
4506 -82 -4504 0
-4506 82 0
-4506 4504 0
4507 84 -4508 0
4507 -84 4508 0
-4507 -84 -4508 0
-4507 84 4508 0
4508 -83 -4506 0
-4508 83 0
-4508 4506 0
4509 85 -4510 0
4509 -85 4510 0
-4509 -85 -4510 0
-4509 85 4510 0
4510 -84 -4508 0
-4510 84 0
-4510 4508 0
4511 86 -4512 0
4511 -86 4512 0
-4511 -86 -4512 0
-4511 86 4512 0
4512 -85 -4510 0
-4512 85 0
-4512 4510 0
4513 87 -4514 0
4513 -87 4514 0
-4513 -87 -4514 0
-4513 87 4514 0
4514 -86 -4512 0
-4514 86 0
-4514 4512 0
4515 88 -4516 0
4515 -88 4516 0
-4515 -88 -4516 0
-4515 88 4516 0
4516 -87 -4514 0
-4516 87 0
-4516 4514 0
4517 89 -4518 0
4517 -89 4518 0
-4517 -89 -4518 0
-4517 89 4518 0
4518 -88 -4516 0
-4518 88 0
-4518 4516 0
4519 90 -4520 0
4519 -90 4520 0
-4519 -90 -4520 0
-4519 90 4520 0
4520 -89 -4518 0
-4520 89 0
-4520 4518 0
4521 91 -4522 0
4521 -91 4522 0
-4521 -91 -4522 0
-4521 91 4522 0
4522 -90 -4520 0
-4522 90 0
-4522 4520 0
4523 92 -4524 0
4523 -92 4524 0
-4523 -92 -4524 0
-4523 92 4524 0
4524 -91 -4522 0
-4524 91 0
-4524 4522 0
4525 93 -4526 0
4525 -93 4526 0
-4525 -93 -4526 0
-4525 93 4526 0
4526 -92 -4524 0
-4526 92 0
-4526 4524 0
4527 94 -4528 0
4527 -94 4528 0
-4527 -94 -4528 0
-4527 94 4528 0
4528 -93 -4526 0
-4528 93 0
-4528 4526 0
4529 95 -4530 0
4529 -95 4530 0
-4529 -95 -4530 0
-4529 95 4530 0
4530 -94 -4528 0
-4530 94 0
-4530 4528 0
4531 96 -4532 0
4531 -96 4532 0
-4531 -96 -4532 0
-4531 96 4532 0
4532 -95 -4530 0
-4532 95 0
-4532 4530 0
4533 97 -4534 0
4533 -97 4534 0
-4533 -97 -4534 0
-4533 97 4534 0
4534 -96 -4532 0
-4534 96 0
-4534 4532 0
4535 98 -4536 0
4535 -98 4536 0
-4535 -98 -4536 0
-4535 98 4536 0
4536 -97 -4534 0
-4536 97 0
-4536 4534 0
4537 99 -4538 0
4537 -99 4538 0
-4537 -99 -4538 0
-4537 99 4538 0
4538 -98 -4536 0
-4538 98 0
-4538 4536 0
4539 100 -4540 0
4539 -100 4540 0
-4539 -100 -4540 0
-4539 100 4540 0
4540 -99 -4538 0
-4540 99 0
-4540 4538 0
-4541 8332 -8333 0
-4541 5 71 0
-4541 -8333 5 0
-4541 8332 71 0
4541 8333 -71 0
4541 -8332 -5 0
4542 -4543 4541 0
4542 4543 -4541 0
-4542 4543 4541 0
-4542 -4543 -4541 0
4543 -100 -4540 0
-4543 100 0
-4543 4540 0
-4544 8334 2098 0
-4544 -6036 8334 0
4544 -8334 0
4544 6036 -2098 0
-4545 8335 4546 0
-4545 5 4546 0
4545 -4546 0
4545 -8335 -5 0
4546 -6036 -2098 0
-4546 6036 0
-4546 2098 0
-4547 5 4546 0
-4547 8335 8336 0
-4547 8336 4546 0
-4547 8335 5 0
4547 -8336 -5 0
4547 -8335 -4546 0
-4548 5 4546 0
-4548 8336 8337 0
-4548 8337 4546 0
-4548 8336 5 0
4548 -8337 -5 0
4548 -8336 -4546 0
-4549 3084 -4550 0
-4549 8338 3084 0
4549 -3084 0
4549 -8338 4550 0
4550 -4380 4551 0
-4550 4380 0
-4550 -4551 0
4551 -5812 -3071 0
4551 -3071 3095 0
-4551 3071 0
-4551 5812 -3095 0
4552 8339 -4553 0
4552 -8339 4553 0
-4552 -8339 -4553 0
-4552 8339 4553 0
4553 -8340 -4554 -4557 0
4553 8340 -4556 -4557 0
-4553 4557 0
-4553 -8340 4554 0
-4553 8340 4556 0
4554 -8341 -4555 0
-4554 8341 0
-4554 4555 0
4555 -8342 -8343 4550 0
-4555 8342 0
-4555 8343 0
-4555 -4550 0
4556 8341 8342 8343 -4550 0
-4556 4550 0
-4556 -8343 0
-4556 -8341 0
-4556 -8342 0
-4557 -8339 4558 0
-4557 3084 4558 0
4557 -4558 0
4557 8339 -3084 0
4558 -8339 -4550 0
4558 -4550 -4559 0
4558 -8340 -4550 0
-4558 4550 0
-4558 8339 8340 4559 0
-4559 8341 8342 8343 0
4559 -8341 0
4559 -8343 0
4559 -8342 0
-4560 -8340 -4561 0
-4560 8340 4561 0
4560 8340 -4561 0
4560 -8340 4561 0
4561 -4554 -4557 0
4561 -4556 -4557 0
-4561 4557 0
-4561 4554 4556 0
4562 8341 -4563 0
4562 -8341 4563 0
-4562 -8341 -4563 0
-4562 8341 4563 0
4563 8342 8343 -4550 -4557 0
4563 -8342 -8343 4550 -4557 0
-4563 -8342 -4550 0
-4563 8343 4550 0
-4563 4557 0
-4563 8342 -8343 0
4564 -8342 4557 0
4564 8342 -4557 0
-4564 8342 4557 0
-4564 -8342 -4557 0
4565 -8343 4557 0
4565 4550 -4557 -4566 0
4565 -4550 -4557 4566 0
-4565 8343 4557 0
-4565 4550 -4557 4566 0
-4565 -4550 -4557 -4566 0
4566 8342 -8343 0
4566 -8342 8343 0
-4566 -8342 -8343 0
-4566 8342 8343 0
-4567 3093 -4550 0
-4567 8344 3093 0
4567 -3093 0
4567 -8344 4550 0
4568 8345 -4569 0
4568 -8345 4569 0
-4568 -8345 -4569 0
-4568 8345 4569 0
4569 -8346 -4570 -4573 0
4569 8346 -4572 -4573 0
-4569 4573 0
-4569 -8346 4570 0
-4569 8346 4572 0
4570 -8347 -4571 0
-4570 8347 0
-4570 4571 0
4571 -8348 -8349 4550 0
-4571 8348 0
-4571 8349 0
-4571 -4550 0
4572 8347 8348 8349 -4550 0
-4572 4550 0
-4572 -8349 0
-4572 -8347 0
-4572 -8348 0
-4573 -8345 4574 0
-4573 3093 4574 0
4573 -4574 0
4573 8345 -3093 0
4574 -8345 -4550 0
4574 -4550 -4575 0
4574 -8346 -4550 0
-4574 4550 0
-4574 8345 8346 4575 0
-4575 8347 8348 8349 0
4575 -8347 0
4575 -8349 0
4575 -8348 0
-4576 -8346 -4577 0
-4576 8346 4577 0
4576 8346 -4577 0
4576 -8346 4577 0
4577 -4570 -4573 0
4577 -4572 -4573 0
-4577 4573 0
-4577 4570 4572 0
4578 8347 -4579 0
4578 -8347 4579 0
-4578 -8347 -4579 0
-4578 8347 4579 0
4579 8348 8349 -4550 -4573 0
4579 -8348 -8349 4550 -4573 0
-4579 -8348 -4550 0
-4579 8349 4550 0
-4579 4573 0
-4579 8348 -8349 0
4580 -8348 4573 0
4580 8348 -4573 0
-4580 8348 4573 0
-4580 -8348 -4573 0
4581 -8349 4573 0
4581 4550 -4573 -4582 0
4581 -4550 -4573 4582 0
-4581 8349 4573 0
-4581 4550 -4573 4582 0
-4581 -4550 -4573 -4582 0
4582 8348 -8349 0
4582 -8348 8349 0
-4582 -8348 -8349 0
-4582 8348 8349 0
-4583 6105 0
-4583 5823 4584 0
-4583 8350 -4584 0
4583 -5823 -6105 4584 0
4583 -6105 -8350 -4584 0
-4584 5824 6032 0
4584 -5824 0
4584 -6032 0
-4585 6105 0
-4585 6031 4584 0
-4585 8351 -4584 0
4585 -6031 -6105 4584 0
4585 -6105 -8351 -4584 0
-4586 4587 -4589 0
-4586 8352 4587 0
4586 -4587 0
4586 -8352 4589 0
4587 8350 -2098 4588 0
-4587 -4588 0
-4587 2098 0
-4587 -8350 0
-4588 6105 0
-4588 6031 4584 0
-4588 -8351 4584 0
4588 -6105 -4584 0
4588 -6031 -6105 8351 0
4589 -8350 -4590 0
4589 2098 -4590 0
-4589 4590 0
-4589 8350 -2098 0
4590 8351 -4591 0
-4590 -8351 0
-4590 4591 0
4591 -6031 -6105 4584 0
-4591 6031 0
-4591 6105 0
-4591 -4584 0
-4592 -4590 4593 0
-4592 8353 4593 0
4592 -4593 0
4592 -8353 4590 0
4593 -8352 8353 6 4588 0
-4593 -4588 0
-4593 8352 0
-4593 -6 0
-4593 -8353 0
-4594 -8354 -4595 0
-4594 8354 4595 0
4594 8354 -4595 0
4594 -8354 4595 0
4595 -8355 4596 -4598 0
4595 2161 -4596 -4598 0
-4595 4598 0
-4595 8355 4596 0
-4595 -2161 -4596 0
4596 2159 -4597 0
-4596 -2159 0
-4596 4597 0
4597 7276 7277 -6 0
4597 7277 5 -6 0
-4597 6 0
-4597 -7277 0
-4597 -7276 -5 0
-4598 4599 4600 0
4598 -4599 0
4598 -4600 0
4599 -2160 -4596 0
-4599 2160 0
-4599 4596 0
4600 -8356 -4601 0
-4600 8356 0
-4600 4601 0
4601 8357 8358 -4596 -4602 0
4601 -8357 -8358 4596 -4602 0
-4601 -8357 -4596 0
-4601 8358 4596 0
-4601 4602 0
-4601 8357 -8358 0
-4602 4599 4603 0
4602 -4599 0
4602 -4603 0
4603 8354 -4604 0
-4603 -8354 0
-4603 4604 0
4604 -2159 4597 0
-4604 2159 0
-4604 -4597 0
-4605 -8355 -4606 0
-4605 8355 4606 0
4605 8355 -4606 0
4605 -8355 4606 0
4606 4596 -4598 0
4606 8356 4607 -4598 0
-4606 4598 0
-4606 -8356 -4596 0
-4606 -4607 -4596 0
-4607 8357 8358 0
4607 -8357 0
4607 -8358 0
4608 8356 -4601 0
4608 -8356 4601 0
-4608 -8356 -4601 0
-4608 8356 4601 0
-4609 8357 4602 0
-4609 -8357 -4602 0
4609 -8357 4602 0
4609 8357 -4602 0
4610 -8358 4602 0
4610 4596 -4602 -4611 0
4610 -4596 -4602 4611 0
-4610 8358 4602 0
-4610 4596 -4602 4611 0
-4610 -4596 -4602 -4611 0
4611 8357 -8358 0
4611 -8357 8358 0
-4611 -8357 -8358 0
-4611 8357 8358 0
4612 8359 -4613 0
4612 -8359 4613 0
-4612 -8359 -4613 0
-4612 8359 4613 0
4613 -2160 -4597 0
-4613 2160 0
-4613 4597 0
4614 8360 -4615 0
4614 -8360 4615 0
-4614 -8360 -4615 0
-4614 8360 4615 0
4615 -8359 -4613 0
-4615 8359 0
-4615 4613 0
4616 8361 -4617 0
4616 -8361 4617 0
-4616 -8361 -4617 0
-4616 8361 4617 0
4617 -8360 -4615 0
-4617 8360 0
-4617 4615 0
-4618 4613 -4619 0
-4618 8362 2183 0
-4618 2183 -4619 0
-4618 8362 4613 0
4618 -2183 -4613 0
4618 -8362 4619 0
4619 -8361 -4617 0
-4619 8361 0
-4619 4617 0
-4620 8363 4621 0
-4620 -8363 -4621 0
4620 -8363 4621 0
4620 8363 -4621 0
-4621 2159 0
-4621 -8354 4597 0
-4621 2160 -4597 0
4621 8354 -2159 4597 0
4621 -2159 -2160 -4597 0
4622 8364 -4623 0
4622 -8364 4623 0
-4622 -8364 -4623 0
-4622 8364 4623 0
4623 -8363 -4621 0
-4623 8363 0
-4623 4621 0
4624 8365 -4625 0
4624 -8365 4625 0
-4624 -8365 -4625 0
-4624 8365 4625 0
4625 -8364 -4623 0
-4625 8364 0
-4625 4623 0
-4626 -4627 4628 0
-4626 8366 4628 0
4626 -4628 0
4626 -8366 4627 0
4627 -8365 -4625 0
-4627 8365 0
-4627 4625 0
4628 -8365 8366 -4625 0
-4628 8365 0
-4628 -8366 0
-4628 4625 0
-4629 8367 4630 0
-4629 7340 -4630 0
4629 -8367 4630 0
4629 -7340 -4630 0
4630 -8366 -4627 0
-4630 8366 0
-4630 4627 0
-4631 8368 4632 0
-4631 7340 -4632 0
4631 -8368 4632 0
4631 -7340 -4632 0
4632 8364 8365 8366 -4633 0
-4632 4633 0
-4632 -8366 0
-4632 -8364 0
-4632 -8365 0
4633 8363 -4621 0
-4633 -8363 0
-4633 4621 0
-4634 8369 4635 0
-4634 7340 -4635 0
4634 -8369 4635 0
4634 -7340 -4635 0
4635 8364 8365 8366 -4623 0
-4635 4623 0
-4635 -8366 0
-4635 -8364 0
-4635 -8365 0
-4636 8370 4637 0
-4636 7340 -4637 0
4636 -8370 4637 0
4636 -7340 -4637 0
4637 8365 8366 -4638 0
-4637 4638 0
-4637 -8366 0
-4637 -8365 0
4638 -8364 -4633 0
-4638 8364 0
-4638 4633 0
-4639 8371 4640 0
-4639 7340 -4640 0
4639 -8371 4640 0
4639 -7340 -4640 0
4640 8365 8366 -4625 0
-4640 4625 0
-4640 -8366 0
-4640 -8365 0
-4641 8372 4642 0
-4641 7340 -4642 0
4641 -8372 4642 0
4641 -7340 -4642 0
4642 8364 -8365 8366 -4633 0
-4642 8365 0
-4642 -8366 0
-4642 -8364 0
-4642 4633 0
-4643 8373 4644 0
-4643 7340 -4644 0
4643 -8373 4644 0
4643 -7340 -4644 0
4644 8364 -8365 8366 -4623 0
-4644 8365 0
-4644 -8366 0
-4644 -8364 0
-4644 4623 0
-4645 8374 4646 0
-4645 7340 -4646 0
4645 -8374 4646 0
4645 -7340 -4646 0
4646 -8365 8366 -4638 0
-4646 8365 0
-4646 -8366 0
-4646 4638 0
-4647 8375 4628 0
-4647 7340 -4628 0
4647 -8375 4628 0
4647 -7340 -4628 0
-4648 8376 4649 0
-4648 7340 -4649 0
4648 -8376 4649 0
4648 -7340 -4649 0
4649 8364 8365 -8366 -4633 0
-4649 -8364 0
-4649 4633 0
-4649 8366 0
-4649 -8365 0
-4650 8377 4651 0
-4650 7340 -4651 0
4650 -8377 4651 0
4650 -7340 -4651 0
4651 8364 8365 -8366 -4623 0
-4651 -8364 0
-4651 4623 0
-4651 8366 0
-4651 -8365 0
-4652 8378 4653 0
-4652 7340 -4653 0
4652 -8378 4653 0
4652 -7340 -4653 0
4653 8365 -8366 -4638 0
-4653 4638 0
-4653 8366 0
-4653 -8365 0
-4654 8379 4655 0
-4654 7340 -4655 0
4654 -8379 4655 0
4654 -7340 -4655 0
4655 8365 -8366 -4625 0
-4655 4625 0
-4655 8366 0
-4655 -8365 0
-4656 8380 4657 0
-4656 7340 -4657 0
4656 -8380 4657 0
4656 -7340 -4657 0
4657 8364 -8365 -8366 -4633 0
-4657 -8364 0
-4657 4633 0
-4657 8366 0
-4657 8365 0
-4658 8381 4659 0
-4658 7340 -4659 0
4658 -8381 4659 0
4658 -7340 -4659 0
4659 8364 -8365 -8366 -4623 0
-4659 -8364 0
-4659 4623 0
-4659 8366 0
-4659 8365 0
-4660 8382 4661 0
-4660 7340 -4661 0
4660 -8382 4661 0
4660 -7340 -4661 0
4661 -8365 -8366 -4638 0
-4661 8365 0
-4661 8366 0
-4661 4638 0
-4662 8383 4630 0
-4662 7339 -4630 0
4662 -8383 4630 0
4662 -7339 -4630 0
-4663 8384 4632 0
-4663 7339 -4632 0
4663 -8384 4632 0
4663 -7339 -4632 0
-4664 8385 4635 0
-4664 7339 -4635 0
4664 -8385 4635 0
4664 -7339 -4635 0
-4665 8386 4637 0
-4665 7339 -4637 0
4665 -8386 4637 0
4665 -7339 -4637 0
-4666 8387 4640 0
-4666 7339 -4640 0
4666 -8387 4640 0
4666 -7339 -4640 0
-4667 8388 4642 0
-4667 7339 -4642 0
4667 -8388 4642 0
4667 -7339 -4642 0
-4668 8389 4644 0
-4668 7339 -4644 0
4668 -8389 4644 0
4668 -7339 -4644 0
-4669 8390 4646 0
-4669 7339 -4646 0
4669 -8390 4646 0
4669 -7339 -4646 0
-4670 8391 4628 0
-4670 7339 -4628 0
4670 -8391 4628 0
4670 -7339 -4628 0
-4671 8392 4649 0
-4671 7339 -4649 0
4671 -8392 4649 0
4671 -7339 -4649 0
-4672 8393 4651 0
-4672 7339 -4651 0
4672 -8393 4651 0
4672 -7339 -4651 0
-4673 8394 4653 0
-4673 7339 -4653 0
4673 -8394 4653 0
4673 -7339 -4653 0
-4674 8395 4655 0
-4674 7339 -4655 0
4674 -8395 4655 0
4674 -7339 -4655 0
-4675 8396 4657 0
-4675 7339 -4657 0
4675 -8396 4657 0
4675 -7339 -4657 0
-4676 8397 4659 0
-4676 7339 -4659 0
4676 -8397 4659 0
4676 -7339 -4659 0
-4677 8398 4661 0
-4677 7339 -4661 0
4677 -8398 4661 0
4677 -7339 -4661 0
-4678 8399 4630 0
-4678 7338 -4630 0
4678 -8399 4630 0
4678 -7338 -4630 0
-4679 8400 4632 0
-4679 7338 -4632 0
4679 -8400 4632 0
4679 -7338 -4632 0
-4680 8401 4635 0
-4680 7338 -4635 0
4680 -8401 4635 0
4680 -7338 -4635 0
-4681 8402 4637 0
-4681 7338 -4637 0
4681 -8402 4637 0
4681 -7338 -4637 0
-4682 8403 4640 0
-4682 7338 -4640 0
4682 -8403 4640 0
4682 -7338 -4640 0
-4683 8404 4642 0
-4683 7338 -4642 0
4683 -8404 4642 0
4683 -7338 -4642 0
-4684 8405 4644 0
-4684 7338 -4644 0
4684 -8405 4644 0
4684 -7338 -4644 0
-4685 8406 4646 0
-4685 7338 -4646 0
4685 -8406 4646 0
4685 -7338 -4646 0
-4686 8407 4628 0
-4686 7338 -4628 0
4686 -8407 4628 0
4686 -7338 -4628 0
-4687 8408 4649 0
-4687 7338 -4649 0
4687 -8408 4649 0
4687 -7338 -4649 0
-4688 8409 4651 0
-4688 7338 -4651 0
4688 -8409 4651 0
4688 -7338 -4651 0
-4689 8410 4653 0
-4689 7338 -4653 0
4689 -8410 4653 0
4689 -7338 -4653 0
-4690 8411 4655 0
-4690 7338 -4655 0
4690 -8411 4655 0
4690 -7338 -4655 0
-4691 8412 4657 0
-4691 7338 -4657 0
4691 -8412 4657 0
4691 -7338 -4657 0
-4692 8413 4659 0
-4692 7338 -4659 0
4692 -8413 4659 0
4692 -7338 -4659 0
-4693 8414 4661 0
-4693 7338 -4661 0
4693 -8414 4661 0
4693 -7338 -4661 0
-4694 8415 4630 0
-4694 7337 -4630 0
4694 -8415 4630 0
4694 -7337 -4630 0
-4695 8416 4632 0
-4695 7337 -4632 0
4695 -8416 4632 0
4695 -7337 -4632 0
-4696 8417 4635 0
-4696 7337 -4635 0
4696 -8417 4635 0
4696 -7337 -4635 0
-4697 8418 4637 0
-4697 7337 -4637 0
4697 -8418 4637 0
4697 -7337 -4637 0
-4698 8419 4640 0
-4698 7337 -4640 0
4698 -8419 4640 0
4698 -7337 -4640 0
-4699 8420 4642 0
-4699 7337 -4642 0
4699 -8420 4642 0
4699 -7337 -4642 0
-4700 8421 4644 0
-4700 7337 -4644 0
4700 -8421 4644 0
4700 -7337 -4644 0
-4701 8422 4646 0
-4701 7337 -4646 0
4701 -8422 4646 0
4701 -7337 -4646 0
-4702 8423 4628 0
-4702 7337 -4628 0
4702 -8423 4628 0
4702 -7337 -4628 0
-4703 8424 4649 0
-4703 7337 -4649 0
4703 -8424 4649 0
4703 -7337 -4649 0
-4704 8425 4651 0
-4704 7337 -4651 0
4704 -8425 4651 0
4704 -7337 -4651 0
-4705 8426 4653 0
-4705 7337 -4653 0
4705 -8426 4653 0
4705 -7337 -4653 0
-4706 8427 4655 0
-4706 7337 -4655 0
4706 -8427 4655 0
4706 -7337 -4655 0
-4707 8428 4657 0
-4707 7337 -4657 0
4707 -8428 4657 0
4707 -7337 -4657 0
-4708 8429 4659 0
-4708 7337 -4659 0
4708 -8429 4659 0
4708 -7337 -4659 0
-4709 8430 4661 0
-4709 7337 -4661 0
4709 -8430 4661 0
4709 -7337 -4661 0
-4710 8431 4630 0
-4710 7336 -4630 0
4710 -8431 4630 0
4710 -7336 -4630 0
-4711 8432 4632 0
-4711 7336 -4632 0
4711 -8432 4632 0
4711 -7336 -4632 0
-4712 8433 4635 0
-4712 7336 -4635 0
4712 -8433 4635 0
4712 -7336 -4635 0
-4713 8434 4637 0
-4713 7336 -4637 0
4713 -8434 4637 0
4713 -7336 -4637 0
-4714 8435 4640 0
-4714 7336 -4640 0
4714 -8435 4640 0
4714 -7336 -4640 0
-4715 8436 4642 0
-4715 7336 -4642 0
4715 -8436 4642 0
4715 -7336 -4642 0
-4716 8437 4644 0
-4716 7336 -4644 0
4716 -8437 4644 0
4716 -7336 -4644 0
-4717 8438 4646 0
-4717 7336 -4646 0
4717 -8438 4646 0
4717 -7336 -4646 0
-4718 8439 4628 0
-4718 7336 -4628 0
4718 -8439 4628 0
4718 -7336 -4628 0
-4719 8440 4649 0
-4719 7336 -4649 0
4719 -8440 4649 0
4719 -7336 -4649 0
-4720 8441 4651 0
-4720 7336 -4651 0
4720 -8441 4651 0
4720 -7336 -4651 0
-4721 8442 4653 0
-4721 7336 -4653 0
4721 -8442 4653 0
4721 -7336 -4653 0
-4722 8443 4655 0
-4722 7336 -4655 0
4722 -8443 4655 0
4722 -7336 -4655 0
-4723 8444 4657 0
-4723 7336 -4657 0
4723 -8444 4657 0
4723 -7336 -4657 0
-4724 8445 4659 0
-4724 7336 -4659 0
4724 -8445 4659 0
4724 -7336 -4659 0
-4725 8446 4661 0
-4725 7336 -4661 0
4725 -8446 4661 0
4725 -7336 -4661 0
-4726 8447 4630 0
-4726 7335 -4630 0
4726 -8447 4630 0
4726 -7335 -4630 0
-4727 8448 4632 0
-4727 7335 -4632 0
4727 -8448 4632 0
4727 -7335 -4632 0
-4728 8449 4635 0
-4728 7335 -4635 0
4728 -8449 4635 0
4728 -7335 -4635 0
-4729 8450 4637 0
-4729 7335 -4637 0
4729 -8450 4637 0
4729 -7335 -4637 0
-4730 8451 4640 0
-4730 7335 -4640 0
4730 -8451 4640 0
4730 -7335 -4640 0
-4731 8452 4642 0
-4731 7335 -4642 0
4731 -8452 4642 0
4731 -7335 -4642 0
-4732 8453 4644 0
-4732 7335 -4644 0
4732 -8453 4644 0
4732 -7335 -4644 0
-4733 8454 4646 0
-4733 7335 -4646 0
4733 -8454 4646 0
4733 -7335 -4646 0
-4734 8455 4628 0
-4734 7335 -4628 0
4734 -8455 4628 0
4734 -7335 -4628 0
-4735 8456 4649 0
-4735 7335 -4649 0
4735 -8456 4649 0
4735 -7335 -4649 0
-4736 8457 4651 0
-4736 7335 -4651 0
4736 -8457 4651 0
4736 -7335 -4651 0
-4737 8458 4653 0
-4737 7335 -4653 0
4737 -8458 4653 0
4737 -7335 -4653 0
-4738 8459 4655 0
-4738 7335 -4655 0
4738 -8459 4655 0
4738 -7335 -4655 0
-4739 8460 4657 0
-4739 7335 -4657 0
4739 -8460 4657 0
4739 -7335 -4657 0
-4740 8461 4659 0
-4740 7335 -4659 0
4740 -8461 4659 0
4740 -7335 -4659 0
-4741 8462 4661 0
-4741 7335 -4661 0
4741 -8462 4661 0
4741 -7335 -4661 0
-4742 8463 4630 0
-4742 7334 -4630 0
4742 -8463 4630 0
4742 -7334 -4630 0
-4743 8464 4632 0
-4743 7334 -4632 0
4743 -8464 4632 0
4743 -7334 -4632 0
-4744 8465 4635 0
-4744 7334 -4635 0
4744 -8465 4635 0
4744 -7334 -4635 0
-4745 8466 4637 0
-4745 7334 -4637 0
4745 -8466 4637 0
4745 -7334 -4637 0
-4746 8467 4640 0
-4746 7334 -4640 0
4746 -8467 4640 0
4746 -7334 -4640 0
-4747 8468 4642 0
-4747 7334 -4642 0
4747 -8468 4642 0
4747 -7334 -4642 0
-4748 8469 4644 0
-4748 7334 -4644 0
4748 -8469 4644 0
4748 -7334 -4644 0
-4749 8470 4646 0
-4749 7334 -4646 0
4749 -8470 4646 0
4749 -7334 -4646 0
-4750 8471 4628 0
-4750 7334 -4628 0
4750 -8471 4628 0
4750 -7334 -4628 0
-4751 8472 4649 0
-4751 7334 -4649 0
4751 -8472 4649 0
4751 -7334 -4649 0
-4752 8473 4651 0
-4752 7334 -4651 0
4752 -8473 4651 0
4752 -7334 -4651 0
-4753 8474 4653 0
-4753 7334 -4653 0
4753 -8474 4653 0
4753 -7334 -4653 0
-4754 8475 4655 0
-4754 7334 -4655 0
4754 -8475 4655 0
4754 -7334 -4655 0
-4755 8476 4657 0
-4755 7334 -4657 0
4755 -8476 4657 0
4755 -7334 -4657 0
-4756 8477 4659 0
-4756 7334 -4659 0
4756 -8477 4659 0
4756 -7334 -4659 0
-4757 8478 4661 0
-4757 7334 -4661 0
4757 -8478 4661 0
4757 -7334 -4661 0
-4758 8479 4630 0
-4758 7333 -4630 0
4758 -8479 4630 0
4758 -7333 -4630 0
-4759 8480 4632 0
-4759 7333 -4632 0
4759 -8480 4632 0
4759 -7333 -4632 0
-4760 8481 4635 0
-4760 7333 -4635 0
4760 -8481 4635 0
4760 -7333 -4635 0
-4761 8482 4637 0
-4761 7333 -4637 0
4761 -8482 4637 0
4761 -7333 -4637 0
-4762 8483 4640 0
-4762 7333 -4640 0
4762 -8483 4640 0
4762 -7333 -4640 0
-4763 8484 4642 0
-4763 7333 -4642 0
4763 -8484 4642 0
4763 -7333 -4642 0
-4764 8485 4644 0
-4764 7333 -4644 0
4764 -8485 4644 0
4764 -7333 -4644 0
-4765 8486 4646 0
-4765 7333 -4646 0
4765 -8486 4646 0
4765 -7333 -4646 0
-4766 8487 4628 0
-4766 7333 -4628 0
4766 -8487 4628 0
4766 -7333 -4628 0
-4767 8488 4649 0
-4767 7333 -4649 0
4767 -8488 4649 0
4767 -7333 -4649 0
-4768 8489 4651 0
-4768 7333 -4651 0
4768 -8489 4651 0
4768 -7333 -4651 0
-4769 8490 4653 0
-4769 7333 -4653 0
4769 -8490 4653 0
4769 -7333 -4653 0
-4770 8491 4655 0
-4770 7333 -4655 0
4770 -8491 4655 0
4770 -7333 -4655 0
-4771 8492 4657 0
-4771 7333 -4657 0
4771 -8492 4657 0
4771 -7333 -4657 0
-4772 8493 4659 0
-4772 7333 -4659 0
4772 -8493 4659 0
4772 -7333 -4659 0
-4773 8494 4661 0
-4773 7333 -4661 0
4773 -8494 4661 0
4773 -7333 -4661 0
-4774 8495 4630 0
-4774 7332 -4630 0
4774 -8495 4630 0
4774 -7332 -4630 0
-4775 8496 4632 0
-4775 7332 -4632 0
4775 -8496 4632 0
4775 -7332 -4632 0
-4776 8497 4635 0
-4776 7332 -4635 0
4776 -8497 4635 0
4776 -7332 -4635 0
-4777 8498 4637 0
-4777 7332 -4637 0
4777 -8498 4637 0
4777 -7332 -4637 0
-4778 8499 4640 0
-4778 7332 -4640 0
4778 -8499 4640 0
4778 -7332 -4640 0
-4779 8500 4642 0
-4779 7332 -4642 0
4779 -8500 4642 0
4779 -7332 -4642 0
-4780 8501 4644 0
-4780 7332 -4644 0
4780 -8501 4644 0
4780 -7332 -4644 0
-4781 8502 4646 0
-4781 7332 -4646 0
4781 -8502 4646 0
4781 -7332 -4646 0
-4782 8503 4628 0
-4782 7332 -4628 0
4782 -8503 4628 0
4782 -7332 -4628 0
-4783 8504 4649 0
-4783 7332 -4649 0
4783 -8504 4649 0
4783 -7332 -4649 0
-4784 8505 4651 0
-4784 7332 -4651 0
4784 -8505 4651 0
4784 -7332 -4651 0
-4785 8506 4653 0
-4785 7332 -4653 0
4785 -8506 4653 0
4785 -7332 -4653 0
-4786 8507 4655 0
-4786 7332 -4655 0
4786 -8507 4655 0
4786 -7332 -4655 0
-4787 8508 4657 0
-4787 7332 -4657 0
4787 -8508 4657 0
4787 -7332 -4657 0
-4788 8509 4659 0
-4788 7332 -4659 0
4788 -8509 4659 0
4788 -7332 -4659 0
-4789 8510 4661 0
-4789 7332 -4661 0
4789 -8510 4661 0
4789 -7332 -4661 0
-4790 8511 4630 0
-4790 7331 -4630 0
4790 -8511 4630 0
4790 -7331 -4630 0
-4791 8512 4632 0
-4791 7331 -4632 0
4791 -8512 4632 0
4791 -7331 -4632 0
-4792 8513 4635 0
-4792 7331 -4635 0
4792 -8513 4635 0
4792 -7331 -4635 0
-4793 8514 4637 0
-4793 7331 -4637 0
4793 -8514 4637 0
4793 -7331 -4637 0
-4794 8515 4640 0
-4794 7331 -4640 0
4794 -8515 4640 0
4794 -7331 -4640 0
-4795 8516 4642 0
-4795 7331 -4642 0
4795 -8516 4642 0
4795 -7331 -4642 0
-4796 8517 4644 0
-4796 7331 -4644 0
4796 -8517 4644 0
4796 -7331 -4644 0
-4797 8518 4646 0
-4797 7331 -4646 0
4797 -8518 4646 0
4797 -7331 -4646 0
-4798 8519 4628 0
-4798 7331 -4628 0
4798 -8519 4628 0
4798 -7331 -4628 0
-4799 8520 4649 0
-4799 7331 -4649 0
4799 -8520 4649 0
4799 -7331 -4649 0
-4800 8521 4651 0
-4800 7331 -4651 0
4800 -8521 4651 0
4800 -7331 -4651 0
-4801 8522 4653 0
-4801 7331 -4653 0
4801 -8522 4653 0
4801 -7331 -4653 0
-4802 8523 4655 0
-4802 7331 -4655 0
4802 -8523 4655 0
4802 -7331 -4655 0
-4803 8524 4657 0
-4803 7331 -4657 0
4803 -8524 4657 0
4803 -7331 -4657 0
-4804 8525 4659 0
-4804 7331 -4659 0
4804 -8525 4659 0
4804 -7331 -4659 0
-4805 8526 4661 0
-4805 7331 -4661 0
4805 -8526 4661 0
4805 -7331 -4661 0
-4806 8527 4630 0
-4806 7330 -4630 0
4806 -8527 4630 0
4806 -7330 -4630 0
-4807 8528 4632 0
-4807 7330 -4632 0
4807 -8528 4632 0
4807 -7330 -4632 0
-4808 8529 4635 0
-4808 7330 -4635 0
4808 -8529 4635 0
4808 -7330 -4635 0
-4809 8530 4637 0
-4809 7330 -4637 0
4809 -8530 4637 0
4809 -7330 -4637 0
-4810 8531 4640 0
-4810 7330 -4640 0
4810 -8531 4640 0
4810 -7330 -4640 0
-4811 8532 4642 0
-4811 7330 -4642 0
4811 -8532 4642 0
4811 -7330 -4642 0
-4812 8533 4644 0
-4812 7330 -4644 0
4812 -8533 4644 0
4812 -7330 -4644 0
-4813 8534 4646 0
-4813 7330 -4646 0
4813 -8534 4646 0
4813 -7330 -4646 0
-4814 8535 4628 0
-4814 7330 -4628 0
4814 -8535 4628 0
4814 -7330 -4628 0
-4815 8536 4649 0
-4815 7330 -4649 0
4815 -8536 4649 0
4815 -7330 -4649 0
-4816 8537 4651 0
-4816 7330 -4651 0
4816 -8537 4651 0
4816 -7330 -4651 0
-4817 8538 4653 0
-4817 7330 -4653 0
4817 -8538 4653 0
4817 -7330 -4653 0
-4818 8539 4655 0
-4818 7330 -4655 0
4818 -8539 4655 0
4818 -7330 -4655 0
-4819 8540 4657 0
-4819 7330 -4657 0
4819 -8540 4657 0
4819 -7330 -4657 0
-4820 8541 4659 0
-4820 7330 -4659 0
4820 -8541 4659 0
4820 -7330 -4659 0
-4821 8542 4661 0
-4821 7330 -4661 0
4821 -8542 4661 0
4821 -7330 -4661 0
-4822 8543 4630 0
-4822 7329 -4630 0
4822 -8543 4630 0
4822 -7329 -4630 0
-4823 8544 4632 0
-4823 7329 -4632 0
4823 -8544 4632 0
4823 -7329 -4632 0
-4824 8545 4635 0
-4824 7329 -4635 0
4824 -8545 4635 0
4824 -7329 -4635 0
-4825 8546 4637 0
-4825 7329 -4637 0
4825 -8546 4637 0
4825 -7329 -4637 0
-4826 8547 4640 0
-4826 7329 -4640 0
4826 -8547 4640 0
4826 -7329 -4640 0
-4827 8548 4642 0
-4827 7329 -4642 0
4827 -8548 4642 0
4827 -7329 -4642 0
-4828 8549 4644 0
-4828 7329 -4644 0
4828 -8549 4644 0
4828 -7329 -4644 0
-4829 8550 4646 0
-4829 7329 -4646 0
4829 -8550 4646 0
4829 -7329 -4646 0
-4830 8551 4628 0
-4830 7329 -4628 0
4830 -8551 4628 0
4830 -7329 -4628 0
-4831 8552 4649 0
-4831 7329 -4649 0
4831 -8552 4649 0
4831 -7329 -4649 0
-4832 8553 4651 0
-4832 7329 -4651 0
4832 -8553 4651 0
4832 -7329 -4651 0
-4833 8554 4653 0
-4833 7329 -4653 0
4833 -8554 4653 0
4833 -7329 -4653 0
-4834 8555 4655 0
-4834 7329 -4655 0
4834 -8555 4655 0
4834 -7329 -4655 0
-4835 8556 4657 0
-4835 7329 -4657 0
4835 -8556 4657 0
4835 -7329 -4657 0
-4836 8557 4659 0
-4836 7329 -4659 0
4836 -8557 4659 0
4836 -7329 -4659 0
-4837 8558 4661 0
-4837 7329 -4661 0
4837 -8558 4661 0
4837 -7329 -4661 0
-4838 8559 4630 0
-4838 7328 -4630 0
4838 -8559 4630 0
4838 -7328 -4630 0
-4839 8560 4632 0
-4839 7328 -4632 0
4839 -8560 4632 0
4839 -7328 -4632 0
-4840 8561 4635 0
-4840 7328 -4635 0
4840 -8561 4635 0
4840 -7328 -4635 0
-4841 8562 4637 0
-4841 7328 -4637 0
4841 -8562 4637 0
4841 -7328 -4637 0
-4842 8563 4640 0
-4842 7328 -4640 0
4842 -8563 4640 0
4842 -7328 -4640 0
-4843 8564 4642 0
-4843 7328 -4642 0
4843 -8564 4642 0
4843 -7328 -4642 0
-4844 8565 4644 0
-4844 7328 -4644 0
4844 -8565 4644 0
4844 -7328 -4644 0
-4845 8566 4646 0
-4845 7328 -4646 0
4845 -8566 4646 0
4845 -7328 -4646 0
-4846 8567 4628 0
-4846 7328 -4628 0
4846 -8567 4628 0
4846 -7328 -4628 0
-4847 8568 4649 0
-4847 7328 -4649 0
4847 -8568 4649 0
4847 -7328 -4649 0
-4848 8569 4651 0
-4848 7328 -4651 0
4848 -8569 4651 0
4848 -7328 -4651 0
-4849 8570 4653 0
-4849 7328 -4653 0
4849 -8570 4653 0
4849 -7328 -4653 0
-4850 8571 4655 0
-4850 7328 -4655 0
4850 -8571 4655 0
4850 -7328 -4655 0
-4851 8572 4657 0
-4851 7328 -4657 0
4851 -8572 4657 0
4851 -7328 -4657 0
-4852 8573 4659 0
-4852 7328 -4659 0
4852 -8573 4659 0
4852 -7328 -4659 0
-4853 8574 4661 0
-4853 7328 -4661 0
4853 -8574 4661 0
4853 -7328 -4661 0
-4854 8575 4630 0
-4854 7327 -4630 0
4854 -8575 4630 0
4854 -7327 -4630 0
-4855 8576 4632 0
-4855 7327 -4632 0
4855 -8576 4632 0
4855 -7327 -4632 0
-4856 8577 4635 0
-4856 7327 -4635 0
4856 -8577 4635 0
4856 -7327 -4635 0
-4857 8578 4637 0
-4857 7327 -4637 0
4857 -8578 4637 0
4857 -7327 -4637 0
-4858 8579 4640 0
-4858 7327 -4640 0
4858 -8579 4640 0
4858 -7327 -4640 0
-4859 8580 4642 0
-4859 7327 -4642 0
4859 -8580 4642 0
4859 -7327 -4642 0
-4860 8581 4644 0
-4860 7327 -4644 0
4860 -8581 4644 0
4860 -7327 -4644 0
-4861 8582 4646 0
-4861 7327 -4646 0
4861 -8582 4646 0
4861 -7327 -4646 0
-4862 8583 4628 0
-4862 7327 -4628 0
4862 -8583 4628 0
4862 -7327 -4628 0
-4863 8584 4649 0
-4863 7327 -4649 0
4863 -8584 4649 0
4863 -7327 -4649 0
-4864 8585 4651 0
-4864 7327 -4651 0
4864 -8585 4651 0
4864 -7327 -4651 0
-4865 8586 4653 0
-4865 7327 -4653 0
4865 -8586 4653 0
4865 -7327 -4653 0
-4866 8587 4655 0
-4866 7327 -4655 0
4866 -8587 4655 0
4866 -7327 -4655 0
-4867 8588 4657 0
-4867 7327 -4657 0
4867 -8588 4657 0
4867 -7327 -4657 0
-4868 8589 4659 0
-4868 7327 -4659 0
4868 -8589 4659 0
4868 -7327 -4659 0
-4869 8590 4661 0
-4869 7327 -4661 0
4869 -8590 4661 0
4869 -7327 -4661 0
-4870 8591 4630 0
-4870 7326 -4630 0
4870 -8591 4630 0
4870 -7326 -4630 0
-4871 8592 4632 0
-4871 7326 -4632 0
4871 -8592 4632 0
4871 -7326 -4632 0
-4872 8593 4635 0
-4872 7326 -4635 0
4872 -8593 4635 0
4872 -7326 -4635 0
-4873 8594 4637 0
-4873 7326 -4637 0
4873 -8594 4637 0
4873 -7326 -4637 0
-4874 8595 4640 0
-4874 7326 -4640 0
4874 -8595 4640 0
4874 -7326 -4640 0
-4875 8596 4642 0
-4875 7326 -4642 0
4875 -8596 4642 0
4875 -7326 -4642 0
-4876 8597 4644 0
-4876 7326 -4644 0
4876 -8597 4644 0
4876 -7326 -4644 0
-4877 8598 4646 0
-4877 7326 -4646 0
4877 -8598 4646 0
4877 -7326 -4646 0
-4878 8599 4628 0
-4878 7326 -4628 0
4878 -8599 4628 0
4878 -7326 -4628 0
-4879 8600 4649 0
-4879 7326 -4649 0
4879 -8600 4649 0
4879 -7326 -4649 0
-4880 8601 4651 0
-4880 7326 -4651 0
4880 -8601 4651 0
4880 -7326 -4651 0
-4881 8602 4653 0
-4881 7326 -4653 0
4881 -8602 4653 0
4881 -7326 -4653 0
-4882 8603 4655 0
-4882 7326 -4655 0
4882 -8603 4655 0
4882 -7326 -4655 0
-4883 8604 4657 0
-4883 7326 -4657 0
4883 -8604 4657 0
4883 -7326 -4657 0
-4884 8605 4659 0
-4884 7326 -4659 0
4884 -8605 4659 0
4884 -7326 -4659 0
-4885 8606 4661 0
-4885 7326 -4661 0
4885 -8606 4661 0
4885 -7326 -4661 0
-4886 8607 4630 0
-4886 7325 -4630 0
4886 -8607 4630 0
4886 -7325 -4630 0
-4887 8608 4632 0
-4887 7325 -4632 0
4887 -8608 4632 0
4887 -7325 -4632 0
-4888 8609 4635 0
-4888 7325 -4635 0
4888 -8609 4635 0
4888 -7325 -4635 0
-4889 8610 4637 0
-4889 7325 -4637 0
4889 -8610 4637 0
4889 -7325 -4637 0
-4890 8611 4640 0
-4890 7325 -4640 0
4890 -8611 4640 0
4890 -7325 -4640 0
-4891 8612 4642 0
-4891 7325 -4642 0
4891 -8612 4642 0
4891 -7325 -4642 0
-4892 8613 4644 0
-4892 7325 -4644 0
4892 -8613 4644 0
4892 -7325 -4644 0
-4893 8614 4646 0
-4893 7325 -4646 0
4893 -8614 4646 0
4893 -7325 -4646 0
-4894 8615 4628 0
-4894 7325 -4628 0
4894 -8615 4628 0
4894 -7325 -4628 0
-4895 8616 4649 0
-4895 7325 -4649 0
4895 -8616 4649 0
4895 -7325 -4649 0
-4896 8617 4651 0
-4896 7325 -4651 0
4896 -8617 4651 0
4896 -7325 -4651 0
-4897 8618 4653 0
-4897 7325 -4653 0
4897 -8618 4653 0
4897 -7325 -4653 0
-4898 8619 4655 0
-4898 7325 -4655 0
4898 -8619 4655 0
4898 -7325 -4655 0
-4899 8620 4657 0
-4899 7325 -4657 0
4899 -8620 4657 0
4899 -7325 -4657 0
-4900 8621 4659 0
-4900 7325 -4659 0
4900 -8621 4659 0
4900 -7325 -4659 0
-4901 8622 4661 0
-4901 7325 -4661 0
4901 -8622 4661 0
4901 -7325 -4661 0
-4902 8623 4630 0
-4902 7324 -4630 0
4902 -8623 4630 0
4902 -7324 -4630 0
-4903 8624 4632 0
-4903 7324 -4632 0
4903 -8624 4632 0
4903 -7324 -4632 0
-4904 8625 4635 0
-4904 7324 -4635 0
4904 -8625 4635 0
4904 -7324 -4635 0
-4905 8626 4637 0
-4905 7324 -4637 0
4905 -8626 4637 0
4905 -7324 -4637 0
-4906 8627 4640 0
-4906 7324 -4640 0
4906 -8627 4640 0
4906 -7324 -4640 0
-4907 8628 4642 0
-4907 7324 -4642 0
4907 -8628 4642 0
4907 -7324 -4642 0
-4908 8629 4644 0
-4908 7324 -4644 0
4908 -8629 4644 0
4908 -7324 -4644 0
-4909 8630 4646 0
-4909 7324 -4646 0
4909 -8630 4646 0
4909 -7324 -4646 0
-4910 8631 4628 0
-4910 7324 -4628 0
4910 -8631 4628 0
4910 -7324 -4628 0
-4911 8632 4649 0
-4911 7324 -4649 0
4911 -8632 4649 0
4911 -7324 -4649 0
-4912 8633 4651 0
-4912 7324 -4651 0
4912 -8633 4651 0
4912 -7324 -4651 0
-4913 8634 4653 0
-4913 7324 -4653 0
4913 -8634 4653 0
4913 -7324 -4653 0
-4914 8635 4655 0
-4914 7324 -4655 0
4914 -8635 4655 0
4914 -7324 -4655 0
-4915 8636 4657 0
-4915 7324 -4657 0
4915 -8636 4657 0
4915 -7324 -4657 0
-4916 8637 4659 0
-4916 7324 -4659 0
4916 -8637 4659 0
4916 -7324 -4659 0
-4917 8638 4661 0
-4917 7324 -4661 0
4917 -8638 4661 0
4917 -7324 -4661 0
-4918 8639 4630 0
-4918 7323 -4630 0
4918 -8639 4630 0
4918 -7323 -4630 0
-4919 8640 4632 0
-4919 7323 -4632 0
4919 -8640 4632 0
4919 -7323 -4632 0
-4920 8641 4635 0
-4920 7323 -4635 0
4920 -8641 4635 0
4920 -7323 -4635 0
-4921 8642 4637 0
-4921 7323 -4637 0
4921 -8642 4637 0
4921 -7323 -4637 0
-4922 8643 4640 0
-4922 7323 -4640 0
4922 -8643 4640 0
4922 -7323 -4640 0
-4923 8644 4642 0
-4923 7323 -4642 0
4923 -8644 4642 0
4923 -7323 -4642 0
-4924 8645 4644 0
-4924 7323 -4644 0
4924 -8645 4644 0
4924 -7323 -4644 0
-4925 8646 4646 0
-4925 7323 -4646 0
4925 -8646 4646 0
4925 -7323 -4646 0
-4926 8647 4628 0
-4926 7323 -4628 0
4926 -8647 4628 0
4926 -7323 -4628 0
-4927 8648 4649 0
-4927 7323 -4649 0
4927 -8648 4649 0
4927 -7323 -4649 0
-4928 8649 4651 0
-4928 7323 -4651 0
4928 -8649 4651 0
4928 -7323 -4651 0
-4929 8650 4653 0
-4929 7323 -4653 0
4929 -8650 4653 0
4929 -7323 -4653 0
-4930 8651 4655 0
-4930 7323 -4655 0
4930 -8651 4655 0
4930 -7323 -4655 0
-4931 8652 4657 0
-4931 7323 -4657 0
4931 -8652 4657 0
4931 -7323 -4657 0
-4932 8653 4659 0
-4932 7323 -4659 0
4932 -8653 4659 0
4932 -7323 -4659 0
-4933 8654 4661 0
-4933 7323 -4661 0
4933 -8654 4661 0
4933 -7323 -4661 0
-4934 8655 4630 0
-4934 7322 -4630 0
4934 -8655 4630 0
4934 -7322 -4630 0
-4935 8656 4632 0
-4935 7322 -4632 0
4935 -8656 4632 0
4935 -7322 -4632 0
-4936 8657 4635 0
-4936 7322 -4635 0
4936 -8657 4635 0
4936 -7322 -4635 0
-4937 8658 4637 0
-4937 7322 -4637 0
4937 -8658 4637 0
4937 -7322 -4637 0
-4938 8659 4640 0
-4938 7322 -4640 0
4938 -8659 4640 0
4938 -7322 -4640 0
-4939 8660 4642 0
-4939 7322 -4642 0
4939 -8660 4642 0
4939 -7322 -4642 0
-4940 8661 4644 0
-4940 7322 -4644 0
4940 -8661 4644 0
4940 -7322 -4644 0
-4941 8662 4646 0
-4941 7322 -4646 0
4941 -8662 4646 0
4941 -7322 -4646 0
-4942 8663 4628 0
-4942 7322 -4628 0
4942 -8663 4628 0
4942 -7322 -4628 0
-4943 8664 4649 0
-4943 7322 -4649 0
4943 -8664 4649 0
4943 -7322 -4649 0
-4944 8665 4651 0
-4944 7322 -4651 0
4944 -8665 4651 0
4944 -7322 -4651 0
-4945 8666 4653 0
-4945 7322 -4653 0
4945 -8666 4653 0
4945 -7322 -4653 0
-4946 8667 4655 0
-4946 7322 -4655 0
4946 -8667 4655 0
4946 -7322 -4655 0
-4947 8668 4657 0
-4947 7322 -4657 0
4947 -8668 4657 0
4947 -7322 -4657 0
-4948 8669 4659 0
-4948 7322 -4659 0
4948 -8669 4659 0
4948 -7322 -4659 0
-4949 8670 4661 0
-4949 7322 -4661 0
4949 -8670 4661 0
4949 -7322 -4661 0
-4950 8671 4630 0
-4950 7321 -4630 0
4950 -8671 4630 0
4950 -7321 -4630 0
-4951 8672 4632 0
-4951 7321 -4632 0
4951 -8672 4632 0
4951 -7321 -4632 0
-4952 8673 4635 0
-4952 7321 -4635 0
4952 -8673 4635 0
4952 -7321 -4635 0
-4953 8674 4637 0
-4953 7321 -4637 0
4953 -8674 4637 0
4953 -7321 -4637 0
-4954 8675 4640 0
-4954 7321 -4640 0
4954 -8675 4640 0
4954 -7321 -4640 0
-4955 8676 4642 0
-4955 7321 -4642 0
4955 -8676 4642 0
4955 -7321 -4642 0
-4956 8677 4644 0
-4956 7321 -4644 0
4956 -8677 4644 0
4956 -7321 -4644 0
-4957 8678 4646 0
-4957 7321 -4646 0
4957 -8678 4646 0
4957 -7321 -4646 0
-4958 8679 4628 0
-4958 7321 -4628 0
4958 -8679 4628 0
4958 -7321 -4628 0
-4959 8680 4649 0
-4959 7321 -4649 0
4959 -8680 4649 0
4959 -7321 -4649 0
-4960 8681 4651 0
-4960 7321 -4651 0
4960 -8681 4651 0
4960 -7321 -4651 0
-4961 8682 4653 0
-4961 7321 -4653 0
4961 -8682 4653 0
4961 -7321 -4653 0
-4962 8683 4655 0
-4962 7321 -4655 0
4962 -8683 4655 0
4962 -7321 -4655 0
-4963 8684 4657 0
-4963 7321 -4657 0
4963 -8684 4657 0
4963 -7321 -4657 0
-4964 8685 4659 0
-4964 7321 -4659 0
4964 -8685 4659 0
4964 -7321 -4659 0
-4965 8686 4661 0
-4965 7321 -4661 0
4965 -8686 4661 0
4965 -7321 -4661 0
-4966 8687 4630 0
-4966 7320 -4630 0
4966 -8687 4630 0
4966 -7320 -4630 0
-4967 8688 4632 0
-4967 7320 -4632 0
4967 -8688 4632 0
4967 -7320 -4632 0
-4968 8689 4635 0
-4968 7320 -4635 0
4968 -8689 4635 0
4968 -7320 -4635 0
-4969 8690 4637 0
-4969 7320 -4637 0
4969 -8690 4637 0
4969 -7320 -4637 0
-4970 8691 4640 0
-4970 7320 -4640 0
4970 -8691 4640 0
4970 -7320 -4640 0
-4971 8692 4642 0
-4971 7320 -4642 0
4971 -8692 4642 0
4971 -7320 -4642 0
-4972 8693 4644 0
-4972 7320 -4644 0
4972 -8693 4644 0
4972 -7320 -4644 0
-4973 8694 4646 0
-4973 7320 -4646 0
4973 -8694 4646 0
4973 -7320 -4646 0
-4974 8695 4628 0
-4974 7320 -4628 0
4974 -8695 4628 0
4974 -7320 -4628 0
-4975 8696 4649 0
-4975 7320 -4649 0
4975 -8696 4649 0
4975 -7320 -4649 0
-4976 8697 4651 0
-4976 7320 -4651 0
4976 -8697 4651 0
4976 -7320 -4651 0
-4977 8698 4653 0
-4977 7320 -4653 0
4977 -8698 4653 0
4977 -7320 -4653 0
-4978 8699 4655 0
-4978 7320 -4655 0
4978 -8699 4655 0
4978 -7320 -4655 0
-4979 8700 4657 0
-4979 7320 -4657 0
4979 -8700 4657 0
4979 -7320 -4657 0
-4980 8701 4659 0
-4980 7320 -4659 0
4980 -8701 4659 0
4980 -7320 -4659 0
-4981 8702 4661 0
-4981 7320 -4661 0
4981 -8702 4661 0
4981 -7320 -4661 0
-4982 8703 4630 0
-4982 7319 -4630 0
4982 -8703 4630 0
4982 -7319 -4630 0
-4983 8704 4632 0
-4983 7319 -4632 0
4983 -8704 4632 0
4983 -7319 -4632 0
-4984 8705 4635 0
-4984 7319 -4635 0
4984 -8705 4635 0
4984 -7319 -4635 0
-4985 8706 4637 0
-4985 7319 -4637 0
4985 -8706 4637 0
4985 -7319 -4637 0
-4986 8707 4640 0
-4986 7319 -4640 0
4986 -8707 4640 0
4986 -7319 -4640 0
-4987 8708 4642 0
-4987 7319 -4642 0
4987 -8708 4642 0
4987 -7319 -4642 0
-4988 8709 4644 0
-4988 7319 -4644 0
4988 -8709 4644 0
4988 -7319 -4644 0
-4989 8710 4646 0
-4989 7319 -4646 0
4989 -8710 4646 0
4989 -7319 -4646 0
-4990 8711 4628 0
-4990 7319 -4628 0
4990 -8711 4628 0
4990 -7319 -4628 0
-4991 8712 4649 0
-4991 7319 -4649 0
4991 -8712 4649 0
4991 -7319 -4649 0
-4992 8713 4651 0
-4992 7319 -4651 0
4992 -8713 4651 0
4992 -7319 -4651 0
-4993 8714 4653 0
-4993 7319 -4653 0
4993 -8714 4653 0
4993 -7319 -4653 0
-4994 8715 4655 0
-4994 7319 -4655 0
4994 -8715 4655 0
4994 -7319 -4655 0
-4995 8716 4657 0
-4995 7319 -4657 0
4995 -8716 4657 0
4995 -7319 -4657 0
-4996 8717 4659 0
-4996 7319 -4659 0
4996 -8717 4659 0
4996 -7319 -4659 0
-4997 8718 4661 0
-4997 7319 -4661 0
4997 -8718 4661 0
4997 -7319 -4661 0
-4998 8719 4630 0
-4998 7318 -4630 0
4998 -8719 4630 0
4998 -7318 -4630 0
-4999 8720 4632 0
-4999 7318 -4632 0
4999 -8720 4632 0
4999 -7318 -4632 0
-5000 8721 4635 0
-5000 7318 -4635 0
5000 -8721 4635 0
5000 -7318 -4635 0
-5001 8722 4637 0
-5001 7318 -4637 0
5001 -8722 4637 0
5001 -7318 -4637 0
-5002 8723 4640 0
-5002 7318 -4640 0
5002 -8723 4640 0
5002 -7318 -4640 0
-5003 8724 4642 0
-5003 7318 -4642 0
5003 -8724 4642 0
5003 -7318 -4642 0
-5004 8725 4644 0
-5004 7318 -4644 0
5004 -8725 4644 0
5004 -7318 -4644 0
-5005 8726 4646 0
-5005 7318 -4646 0
5005 -8726 4646 0
5005 -7318 -4646 0
-5006 8727 4628 0
-5006 7318 -4628 0
5006 -8727 4628 0
5006 -7318 -4628 0
-5007 8728 4649 0
-5007 7318 -4649 0
5007 -8728 4649 0
5007 -7318 -4649 0
-5008 8729 4651 0
-5008 7318 -4651 0
5008 -8729 4651 0
5008 -7318 -4651 0
-5009 8730 4653 0
-5009 7318 -4653 0
5009 -8730 4653 0
5009 -7318 -4653 0
-5010 8731 4655 0
-5010 7318 -4655 0
5010 -8731 4655 0
5010 -7318 -4655 0
-5011 8732 4657 0
-5011 7318 -4657 0
5011 -8732 4657 0
5011 -7318 -4657 0
-5012 8733 4659 0
-5012 7318 -4659 0
5012 -8733 4659 0
5012 -7318 -4659 0
-5013 8734 4661 0
-5013 7318 -4661 0
5013 -8734 4661 0
5013 -7318 -4661 0
-5014 8735 4630 0
-5014 7317 -4630 0
5014 -8735 4630 0
5014 -7317 -4630 0
-5015 8736 4632 0
-5015 7317 -4632 0
5015 -8736 4632 0
5015 -7317 -4632 0
-5016 8737 4635 0
-5016 7317 -4635 0
5016 -8737 4635 0
5016 -7317 -4635 0
-5017 8738 4637 0
-5017 7317 -4637 0
5017 -8738 4637 0
5017 -7317 -4637 0
-5018 8739 4640 0
-5018 7317 -4640 0
5018 -8739 4640 0
5018 -7317 -4640 0
-5019 8740 4642 0
-5019 7317 -4642 0
5019 -8740 4642 0
5019 -7317 -4642 0
-5020 8741 4644 0
-5020 7317 -4644 0
5020 -8741 4644 0
5020 -7317 -4644 0
-5021 8742 4646 0
-5021 7317 -4646 0
5021 -8742 4646 0
5021 -7317 -4646 0
-5022 8743 4628 0
-5022 7317 -4628 0
5022 -8743 4628 0
5022 -7317 -4628 0
-5023 8744 4649 0
-5023 7317 -4649 0
5023 -8744 4649 0
5023 -7317 -4649 0
-5024 8745 4651 0
-5024 7317 -4651 0
5024 -8745 4651 0
5024 -7317 -4651 0
-5025 8746 4653 0
-5025 7317 -4653 0
5025 -8746 4653 0
5025 -7317 -4653 0
-5026 8747 4655 0
-5026 7317 -4655 0
5026 -8747 4655 0
5026 -7317 -4655 0
-5027 8748 4657 0
-5027 7317 -4657 0
5027 -8748 4657 0
5027 -7317 -4657 0
-5028 8749 4659 0
-5028 7317 -4659 0
5028 -8749 4659 0
5028 -7317 -4659 0
-5029 8750 4661 0
-5029 7317 -4661 0
5029 -8750 4661 0
5029 -7317 -4661 0
-5030 8751 4630 0
-5030 7316 -4630 0
5030 -8751 4630 0
5030 -7316 -4630 0
-5031 8752 4632 0
-5031 7316 -4632 0
5031 -8752 4632 0
5031 -7316 -4632 0
-5032 8753 4635 0
-5032 7316 -4635 0
5032 -8753 4635 0
5032 -7316 -4635 0
-5033 8754 4637 0
-5033 7316 -4637 0
5033 -8754 4637 0
5033 -7316 -4637 0
-5034 8755 4640 0
-5034 7316 -4640 0
5034 -8755 4640 0
5034 -7316 -4640 0
-5035 8756 4642 0
-5035 7316 -4642 0
5035 -8756 4642 0
5035 -7316 -4642 0
-5036 8757 4644 0
-5036 7316 -4644 0
5036 -8757 4644 0
5036 -7316 -4644 0
-5037 8758 4646 0
-5037 7316 -4646 0
5037 -8758 4646 0
5037 -7316 -4646 0
-5038 8759 4628 0
-5038 7316 -4628 0
5038 -8759 4628 0
5038 -7316 -4628 0
-5039 8760 4649 0
-5039 7316 -4649 0
5039 -8760 4649 0
5039 -7316 -4649 0
-5040 8761 4651 0
-5040 7316 -4651 0
5040 -8761 4651 0
5040 -7316 -4651 0
-5041 8762 4653 0
-5041 7316 -4653 0
5041 -8762 4653 0
5041 -7316 -4653 0
-5042 8763 4655 0
-5042 7316 -4655 0
5042 -8763 4655 0
5042 -7316 -4655 0
-5043 8764 4657 0
-5043 7316 -4657 0
5043 -8764 4657 0
5043 -7316 -4657 0
-5044 8765 4659 0
-5044 7316 -4659 0
5044 -8765 4659 0
5044 -7316 -4659 0
-5045 8766 4661 0
-5045 7316 -4661 0
5045 -8766 4661 0
5045 -7316 -4661 0
-5046 8767 4630 0
-5046 7315 -4630 0
5046 -8767 4630 0
5046 -7315 -4630 0
-5047 8768 4632 0
-5047 7315 -4632 0
5047 -8768 4632 0
5047 -7315 -4632 0
-5048 8769 4635 0
-5048 7315 -4635 0
5048 -8769 4635 0
5048 -7315 -4635 0
-5049 8770 4637 0
-5049 7315 -4637 0
5049 -8770 4637 0
5049 -7315 -4637 0
-5050 8771 4640 0
-5050 7315 -4640 0
5050 -8771 4640 0
5050 -7315 -4640 0
-5051 8772 4642 0
-5051 7315 -4642 0
5051 -8772 4642 0
5051 -7315 -4642 0
-5052 8773 4644 0
-5052 7315 -4644 0
5052 -8773 4644 0
5052 -7315 -4644 0
-5053 8774 4646 0
-5053 7315 -4646 0
5053 -8774 4646 0
5053 -7315 -4646 0
-5054 8775 4628 0
-5054 7315 -4628 0
5054 -8775 4628 0
5054 -7315 -4628 0
-5055 8776 4649 0
-5055 7315 -4649 0
5055 -8776 4649 0
5055 -7315 -4649 0
-5056 8777 4651 0
-5056 7315 -4651 0
5056 -8777 4651 0
5056 -7315 -4651 0
-5057 8778 4653 0
-5057 7315 -4653 0
5057 -8778 4653 0
5057 -7315 -4653 0
-5058 8779 4655 0
-5058 7315 -4655 0
5058 -8779 4655 0
5058 -7315 -4655 0
-5059 8780 4657 0
-5059 7315 -4657 0
5059 -8780 4657 0
5059 -7315 -4657 0
-5060 8781 4659 0
-5060 7315 -4659 0
5060 -8781 4659 0
5060 -7315 -4659 0
-5061 8782 4661 0
-5061 7315 -4661 0
5061 -8782 4661 0
5061 -7315 -4661 0
-5062 8783 4630 0
-5062 7314 -4630 0
5062 -8783 4630 0
5062 -7314 -4630 0
-5063 8784 4632 0
-5063 7314 -4632 0
5063 -8784 4632 0
5063 -7314 -4632 0
-5064 8785 4635 0
-5064 7314 -4635 0
5064 -8785 4635 0
5064 -7314 -4635 0
-5065 8786 4637 0
-5065 7314 -4637 0
5065 -8786 4637 0
5065 -7314 -4637 0
-5066 8787 4640 0
-5066 7314 -4640 0
5066 -8787 4640 0
5066 -7314 -4640 0
-5067 8788 4642 0
-5067 7314 -4642 0
5067 -8788 4642 0
5067 -7314 -4642 0
-5068 8789 4644 0
-5068 7314 -4644 0
5068 -8789 4644 0
5068 -7314 -4644 0
-5069 8790 4646 0
-5069 7314 -4646 0
5069 -8790 4646 0
5069 -7314 -4646 0
-5070 8791 4628 0
-5070 7314 -4628 0
5070 -8791 4628 0
5070 -7314 -4628 0
-5071 8792 4649 0
-5071 7314 -4649 0
5071 -8792 4649 0
5071 -7314 -4649 0
-5072 8793 4651 0
-5072 7314 -4651 0
5072 -8793 4651 0
5072 -7314 -4651 0
-5073 8794 4653 0
-5073 7314 -4653 0
5073 -8794 4653 0
5073 -7314 -4653 0
-5074 8795 4655 0
-5074 7314 -4655 0
5074 -8795 4655 0
5074 -7314 -4655 0
-5075 8796 4657 0
-5075 7314 -4657 0
5075 -8796 4657 0
5075 -7314 -4657 0
-5076 8797 4659 0
-5076 7314 -4659 0
5076 -8797 4659 0
5076 -7314 -4659 0
-5077 8798 4661 0
-5077 7314 -4661 0
5077 -8798 4661 0
5077 -7314 -4661 0
-5078 8799 4630 0
-5078 7313 -4630 0
5078 -8799 4630 0
5078 -7313 -4630 0
-5079 8800 4632 0
-5079 7313 -4632 0
5079 -8800 4632 0
5079 -7313 -4632 0
-5080 8801 4635 0
-5080 7313 -4635 0
5080 -8801 4635 0
5080 -7313 -4635 0
-5081 8802 4637 0
-5081 7313 -4637 0
5081 -8802 4637 0
5081 -7313 -4637 0
-5082 8803 4640 0
-5082 7313 -4640 0
5082 -8803 4640 0
5082 -7313 -4640 0
-5083 8804 4642 0
-5083 7313 -4642 0
5083 -8804 4642 0
5083 -7313 -4642 0
-5084 8805 4644 0
-5084 7313 -4644 0
5084 -8805 4644 0
5084 -7313 -4644 0
-5085 8806 4646 0
-5085 7313 -4646 0
5085 -8806 4646 0
5085 -7313 -4646 0
-5086 8807 4628 0
-5086 7313 -4628 0
5086 -8807 4628 0
5086 -7313 -4628 0
-5087 8808 4649 0
-5087 7313 -4649 0
5087 -8808 4649 0
5087 -7313 -4649 0
-5088 8809 4651 0
-5088 7313 -4651 0
5088 -8809 4651 0
5088 -7313 -4651 0
-5089 8810 4653 0
-5089 7313 -4653 0
5089 -8810 4653 0
5089 -7313 -4653 0
-5090 8811 4655 0
-5090 7313 -4655 0
5090 -8811 4655 0
5090 -7313 -4655 0
-5091 8812 4657 0
-5091 7313 -4657 0
5091 -8812 4657 0
5091 -7313 -4657 0
-5092 8813 4659 0
-5092 7313 -4659 0
5092 -8813 4659 0
5092 -7313 -4659 0
-5093 8814 4661 0
-5093 7313 -4661 0
5093 -8814 4661 0
5093 -7313 -4661 0
-5094 8815 4630 0
-5094 7312 -4630 0
5094 -8815 4630 0
5094 -7312 -4630 0
-5095 8816 4632 0
-5095 7312 -4632 0
5095 -8816 4632 0
5095 -7312 -4632 0
-5096 8817 4635 0
-5096 7312 -4635 0
5096 -8817 4635 0
5096 -7312 -4635 0
-5097 8818 4637 0
-5097 7312 -4637 0
5097 -8818 4637 0
5097 -7312 -4637 0
-5098 8819 4640 0
-5098 7312 -4640 0
5098 -8819 4640 0
5098 -7312 -4640 0
-5099 8820 4642 0
-5099 7312 -4642 0
5099 -8820 4642 0
5099 -7312 -4642 0
-5100 8821 4644 0
-5100 7312 -4644 0
5100 -8821 4644 0
5100 -7312 -4644 0
-5101 8822 4646 0
-5101 7312 -4646 0
5101 -8822 4646 0
5101 -7312 -4646 0
-5102 8823 4628 0
-5102 7312 -4628 0
5102 -8823 4628 0
5102 -7312 -4628 0
-5103 8824 4649 0
-5103 7312 -4649 0
5103 -8824 4649 0
5103 -7312 -4649 0
-5104 8825 4651 0
-5104 7312 -4651 0
5104 -8825 4651 0
5104 -7312 -4651 0
-5105 8826 4653 0
-5105 7312 -4653 0
5105 -8826 4653 0
5105 -7312 -4653 0
-5106 8827 4655 0
-5106 7312 -4655 0
5106 -8827 4655 0
5106 -7312 -4655 0
-5107 8828 4657 0
-5107 7312 -4657 0
5107 -8828 4657 0
5107 -7312 -4657 0
-5108 8829 4659 0
-5108 7312 -4659 0
5108 -8829 4659 0
5108 -7312 -4659 0
-5109 8830 4661 0
-5109 7312 -4661 0
5109 -8830 4661 0
5109 -7312 -4661 0
-5110 8831 4630 0
-5110 7311 -4630 0
5110 -8831 4630 0
5110 -7311 -4630 0
-5111 8832 4632 0
-5111 7311 -4632 0
5111 -8832 4632 0
5111 -7311 -4632 0
-5112 8833 4635 0
-5112 7311 -4635 0
5112 -8833 4635 0
5112 -7311 -4635 0
-5113 8834 4637 0
-5113 7311 -4637 0
5113 -8834 4637 0
5113 -7311 -4637 0
-5114 8835 4640 0
-5114 7311 -4640 0
5114 -8835 4640 0
5114 -7311 -4640 0
-5115 8836 4642 0
-5115 7311 -4642 0
5115 -8836 4642 0
5115 -7311 -4642 0
-5116 8837 4644 0
-5116 7311 -4644 0
5116 -8837 4644 0
5116 -7311 -4644 0
-5117 8838 4646 0
-5117 7311 -4646 0
5117 -8838 4646 0
5117 -7311 -4646 0
-5118 8839 4628 0
-5118 7311 -4628 0
5118 -8839 4628 0
5118 -7311 -4628 0
-5119 8840 4649 0
-5119 7311 -4649 0
5119 -8840 4649 0
5119 -7311 -4649 0
-5120 8841 4651 0
-5120 7311 -4651 0
5120 -8841 4651 0
5120 -7311 -4651 0
-5121 8842 4653 0
-5121 7311 -4653 0
5121 -8842 4653 0
5121 -7311 -4653 0
-5122 8843 4655 0
-5122 7311 -4655 0
5122 -8843 4655 0
5122 -7311 -4655 0
-5123 8844 4657 0
-5123 7311 -4657 0
5123 -8844 4657 0
5123 -7311 -4657 0
-5124 8845 4659 0
-5124 7311 -4659 0
5124 -8845 4659 0
5124 -7311 -4659 0
-5125 8846 4661 0
-5125 7311 -4661 0
5125 -8846 4661 0
5125 -7311 -4661 0
-5126 8847 4630 0
-5126 7368 -4630 0
5126 -8847 4630 0
5126 -7368 -4630 0
-5127 8848 4632 0
-5127 7368 -4632 0
5127 -8848 4632 0
5127 -7368 -4632 0
-5128 8849 4635 0
-5128 7368 -4635 0
5128 -8849 4635 0
5128 -7368 -4635 0
-5129 8850 4637 0
-5129 7368 -4637 0
5129 -8850 4637 0
5129 -7368 -4637 0
-5130 8851 4640 0
-5130 7368 -4640 0
5130 -8851 4640 0
5130 -7368 -4640 0
-5131 8852 4642 0
-5131 7368 -4642 0
5131 -8852 4642 0
5131 -7368 -4642 0
-5132 8853 4644 0
-5132 7368 -4644 0
5132 -8853 4644 0
5132 -7368 -4644 0
-5133 8854 4646 0
-5133 7368 -4646 0
5133 -8854 4646 0
5133 -7368 -4646 0
-5134 8855 4628 0
-5134 7368 -4628 0
5134 -8855 4628 0
5134 -7368 -4628 0
-5135 8856 4649 0
-5135 7368 -4649 0
5135 -8856 4649 0
5135 -7368 -4649 0
-5136 8857 4651 0
-5136 7368 -4651 0
5136 -8857 4651 0
5136 -7368 -4651 0
-5137 8858 4653 0
-5137 7368 -4653 0
5137 -8858 4653 0
5137 -7368 -4653 0
-5138 8859 4655 0
-5138 7368 -4655 0
5138 -8859 4655 0
5138 -7368 -4655 0
-5139 8860 4657 0
-5139 7368 -4657 0
5139 -8860 4657 0
5139 -7368 -4657 0
-5140 8861 4659 0
-5140 7368 -4659 0
5140 -8861 4659 0
5140 -7368 -4659 0
-5141 8862 4661 0
-5141 7368 -4661 0
5141 -8862 4661 0
5141 -7368 -4661 0
-5142 8863 4630 0
-5142 7369 -4630 0
5142 -8863 4630 0
5142 -7369 -4630 0
-5143 8864 4632 0
-5143 7369 -4632 0
5143 -8864 4632 0
5143 -7369 -4632 0
-5144 8865 4635 0
-5144 7369 -4635 0
5144 -8865 4635 0
5144 -7369 -4635 0
-5145 8866 4637 0
-5145 7369 -4637 0
5145 -8866 4637 0
5145 -7369 -4637 0
-5146 8867 4640 0
-5146 7369 -4640 0
5146 -8867 4640 0
5146 -7369 -4640 0
-5147 8868 4642 0
-5147 7369 -4642 0
5147 -8868 4642 0
5147 -7369 -4642 0
-5148 8869 4644 0
-5148 7369 -4644 0
5148 -8869 4644 0
5148 -7369 -4644 0
-5149 8870 4646 0
-5149 7369 -4646 0
5149 -8870 4646 0
5149 -7369 -4646 0
-5150 8871 4628 0
-5150 7369 -4628 0
5150 -8871 4628 0
5150 -7369 -4628 0
-5151 8872 4649 0
-5151 7369 -4649 0
5151 -8872 4649 0
5151 -7369 -4649 0
-5152 8873 4651 0
-5152 7369 -4651 0
5152 -8873 4651 0
5152 -7369 -4651 0
-5153 8874 4653 0
-5153 7369 -4653 0
5153 -8874 4653 0
5153 -7369 -4653 0
-5154 8875 4655 0
-5154 7369 -4655 0
5154 -8875 4655 0
5154 -7369 -4655 0
-5155 8876 4657 0
-5155 7369 -4657 0
5155 -8876 4657 0
5155 -7369 -4657 0
-5156 8877 4659 0
-5156 7369 -4659 0
5156 -8877 4659 0
5156 -7369 -4659 0
-5157 8878 4661 0
-5157 7369 -4661 0
5157 -8878 4661 0
5157 -7369 -4661 0
-5158 8879 2961 0
-5158 2970 2961 0
5158 -2961 0
5158 -8879 -2970 0
-5159 7536 2970 0
-5159 8880 -2970 0
5159 -8880 -2970 0
5159 -7536 2970 0
-5160 8881 5162 0
-5160 8881 -5161 0
-5160 2970 -5161 5162 0
5160 -8881 5161 0
5160 -8881 -5162 0
5160 -8881 -2970 0
5160 5161 -5162 0
5161 -7536 8880 0
-5161 7536 0
-5161 -8880 0
5162 8879 -2961 0
-5162 -8879 0
-5162 2961 0
-5163 -5164 5165 0
-5163 8882 5165 0
5163 -5165 0
5163 -8882 5164 0
5164 -7536 8880 2970 0
-5164 7536 0
-5164 -2970 0
-5164 -8880 0
5165 -8881 8882 2988 5161 0
-5165 -2988 0
-5165 -5161 0
-5165 8881 0
-5165 -8882 0
-5166 7539 8 0
-5166 8883 -8 0
5166 -8883 -8 0
5166 -7539 8 0
-5167 8884 5169 0
-5167 8884 -5168 0
-5167 8 -5168 5169 0
5167 -8884 5168 0
5167 -8884 -5169 0
5167 -8884 -8 0
5167 5168 -5169 0
5168 -7539 8883 0
-5168 7539 0
-5168 -8883 0
5169 6037 -2960 0
-5169 -6037 0
-5169 2960 0
5170 -8885 5171 0
5170 -8884 9 5171 0
-5170 -5171 0
-5170 8885 -9 0
-5170 8884 8885 0
5171 -7539 8883 8 0
-5171 7539 0
-5171 -8 0
-5171 -8883 0
-5172 101 102 0
-5172 -101 -102 0
5172 -101 102 0
5172 101 -102 0
5173 -5174 107 0
5173 5174 -107 0
-5173 5174 107 0
-5173 -5174 -107 0
5174 -104 -106 0
-5174 104 0
-5174 106 0
5175 108 -5176 0
5175 -108 5176 0
-5175 -108 -5176 0
-5175 108 5176 0
5176 -5174 -107 0
-5176 5174 0
-5176 107 0
5177 109 -5178 0
5177 -109 5178 0
-5177 -109 -5178 0
-5177 109 5178 0
5178 -108 -5176 0
-5178 108 0
-5178 5176 0
5179 110 -5180 0
5179 -110 5180 0
-5179 -110 -5180 0
-5179 110 5180 0
5180 -109 -5178 0
-5180 109 0
-5180 5178 0
5181 111 -5182 0
5181 -111 5182 0
-5181 -111 -5182 0
-5181 111 5182 0
5182 -110 -5180 0
-5182 110 0
-5182 5180 0
5183 112 -5184 0
5183 -112 5184 0
-5183 -112 -5184 0
-5183 112 5184 0
5184 -111 -5182 0
-5184 111 0
-5184 5182 0
5185 113 -5186 0
5185 -113 5186 0
-5185 -113 -5186 0
-5185 113 5186 0
5186 -112 -5184 0
-5186 112 0
-5186 5184 0
5187 114 -5188 0
5187 -114 5188 0
-5187 -114 -5188 0
-5187 114 5188 0
5188 -113 -5186 0
-5188 113 0
-5188 5186 0
5189 115 -5190 0
5189 -115 5190 0
-5189 -115 -5190 0
-5189 115 5190 0
5190 -114 -5188 0
-5190 114 0
-5190 5188 0
5191 116 -5192 0
5191 -116 5192 0
-5191 -116 -5192 0
-5191 116 5192 0
5192 -115 -5190 0
-5192 115 0
-5192 5190 0
5193 117 -5194 0
5193 -117 5194 0
-5193 -117 -5194 0
-5193 117 5194 0
5194 -116 -5192 0
-5194 116 0
-5194 5192 0
5195 118 -5196 0
5195 -118 5196 0
-5195 -118 -5196 0
-5195 118 5196 0
5196 -117 -5194 0
-5196 117 0
-5196 5194 0
5197 119 -5198 0
5197 -119 5198 0
-5197 -119 -5198 0
-5197 119 5198 0
5198 -118 -5196 0
-5198 118 0
-5198 5196 0
5199 120 -5200 0
5199 -120 5200 0
-5199 -120 -5200 0
-5199 120 5200 0
5200 -119 -5198 0
-5200 119 0
-5200 5198 0
5201 121 -5202 0
5201 -121 5202 0
-5201 -121 -5202 0
-5201 121 5202 0
5202 -120 -5200 0
-5202 120 0
-5202 5200 0
5203 122 -5204 0
5203 -122 5204 0
-5203 -122 -5204 0
-5203 122 5204 0
5204 -121 -5202 0
-5204 121 0
-5204 5202 0
5205 123 -5206 0
5205 -123 5206 0
-5205 -123 -5206 0
-5205 123 5206 0
5206 -122 -5204 0
-5206 122 0
-5206 5204 0
5207 124 -5208 0
5207 -124 5208 0
-5207 -124 -5208 0
-5207 124 5208 0
5208 -123 -5206 0
-5208 123 0
-5208 5206 0
5209 125 -5210 0
5209 -125 5210 0
-5209 -125 -5210 0
-5209 125 5210 0
5210 -124 -5208 0
-5210 124 0
-5210 5208 0
5211 126 -5212 0
5211 -126 5212 0
-5211 -126 -5212 0
-5211 126 5212 0
5212 -125 -5210 0
-5212 125 0
-5212 5210 0
5213 127 -5214 0
5213 -127 5214 0
-5213 -127 -5214 0
-5213 127 5214 0
5214 -126 -5212 0
-5214 126 0
-5214 5212 0
5215 128 -5216 0
5215 -128 5216 0
-5215 -128 -5216 0
-5215 128 5216 0
5216 -127 -5214 0
-5216 127 0
-5216 5214 0
5217 129 -5218 0
5217 -129 5218 0
-5217 -129 -5218 0
-5217 129 5218 0
5218 -128 -5216 0
-5218 128 0
-5218 5216 0
5219 130 -5220 0
5219 -130 5220 0
-5219 -130 -5220 0
-5219 130 5220 0
5220 -129 -5218 0
-5220 129 0
-5220 5218 0
5221 131 -5222 0
5221 -131 5222 0
-5221 -131 -5222 0
-5221 131 5222 0
5222 -130 -5220 0
-5222 130 0
-5222 5220 0
5223 132 -5224 0
5223 -132 5224 0
-5223 -132 -5224 0
-5223 132 5224 0
5224 -131 -5222 0
-5224 131 0
-5224 5222 0
5225 133 -5226 0
5225 -133 5226 0
-5225 -133 -5226 0
-5225 133 5226 0
5226 -132 -5224 0
-5226 132 0
-5226 5224 0
5227 134 -5228 0
5227 -134 5228 0
-5227 -134 -5228 0
-5227 134 5228 0
5228 -133 -5226 0
-5228 133 0
-5228 5226 0
-5229 8915 -8916 0
-5229 8 103 0
-5229 -8916 8 0
-5229 8915 103 0
5229 8916 -103 0
5229 -8915 -8 0
5230 -5231 5229 0
5230 5231 -5229 0
-5230 5231 5229 0
-5230 -5231 -5229 0
5231 -134 -5228 0
-5231 134 0
-5231 5228 0
-5232 8917 5169 0
5232 -8917 0
5232 -5169 0
5233 -8918 -8 0
5233 8918 -2960 0
-5233 8918 2960 0
-5233 -8918 8 0
-5234 8919 5235 0
-5234 -8918 -8919 8 0
-5234 8 5235 0
-5234 8918 8919 0
5234 -8919 -8 0
5234 -8918 8919 -5235 0
5234 8918 -8919 -5235 0
5235 -6037 -2960 0
-5235 6037 0
-5235 2960 0
-5236 8920 5237 0
-5236 -8920 8 -5237 0
-5236 8 5238 0
-5236 8920 5238 0
5236 -8920 -8 0
5236 8920 -5237 -5238 0
5236 -8920 5237 -5238 0
5237 -8918 -8919 0
-5237 8918 0
-5237 8919 0
5238 -6037 -8917 -2960 0
-5238 6037 0
-5238 8917 0
-5238 2960 0
-5239 8921 5238 0
-5239 -8921 8 -5240 0
-5239 8 5238 0
-5239 8921 5240 0
5239 -8921 -8 0
5239 8921 -5238 -5240 0
5239 -8921 -5238 5240 0
5240 -8918 -8919 -8920 0
-5240 8918 0
-5240 8919 0
-5240 8920 0
-5241 8922 5238 0
-5241 -8922 8 -5242 0
-5241 8 5238 0
-5241 8922 5242 0
5241 -8922 -8 0
5241 8922 -5238 -5242 0
5241 -8922 -5238 5242 0
5242 -8921 -5240 0
-5242 8921 0
-5242 5240 0
-5243 8923 5238 0
-5243 -8923 8 -5244 0
-5243 8 5238 0
-5243 8923 5244 0
5243 -8923 -8 0
5243 8923 -5238 -5244 0
5243 -8923 -5238 5244 0
5244 -8922 -5242 0
-5244 8922 0
-5244 5242 0
-5245 8924 5238 0
-5245 -8924 8 -5246 0
-5245 8 5238 0
-5245 8924 5246 0
5245 -8924 -8 0
5245 8924 -5238 -5246 0
5245 -8924 -5238 5246 0
5246 -8923 -5244 0
-5246 8923 0
-5246 5244 0
-5247 8925 5238 0
-5247 -8925 8 -5248 0
-5247 8 5238 0
-5247 8925 5248 0
5247 -8925 -8 0
5247 8925 -5238 -5248 0
5247 -8925 -5238 5248 0
5248 -8924 -5246 0
-5248 8924 0
-5248 5246 0
-5249 8926 5238 0
-5249 -8926 8 -5250 0
-5249 8 5238 0
-5249 8926 5250 0
5249 -8926 -8 0
5249 8926 -5238 -5250 0
5249 -8926 -5238 5250 0
5250 -8925 -5248 0
-5250 8925 0
-5250 5248 0
-5251 8927 5238 0
-5251 -8927 8 -5252 0
-5251 8 5238 0
-5251 8927 5252 0
5251 -8927 -8 0
5251 8927 -5238 -5252 0
5251 -8927 -5238 5252 0
5252 -8926 -5250 0
-5252 8926 0
-5252 5250 0
-5253 8928 5238 0
-5253 -8928 8 -5254 0
-5253 8 5238 0
-5253 8928 5254 0
5253 -8928 -8 0
5253 8928 -5238 -5254 0
5253 -8928 -5238 5254 0
5254 -8927 -5252 0
-5254 8927 0
-5254 5252 0
-5255 8929 5238 0
-5255 -8929 8 -5256 0
-5255 8 5238 0
-5255 8929 5256 0
5255 -8929 -8 0
5255 8929 -5238 -5256 0
5255 -8929 -5238 5256 0
5256 -8928 -5254 0
-5256 8928 0
-5256 5254 0
-5257 8930 5238 0
-5257 -8930 8 -5258 0
-5257 8 5238 0
-5257 8930 5258 0
5257 -8930 -8 0
5257 8930 -5238 -5258 0
5257 -8930 -5238 5258 0
5258 -8929 -5256 0
-5258 8929 0
-5258 5256 0
-5259 8931 5238 0
-5259 -8931 8 -5260 0
-5259 8 5238 0
-5259 8931 5260 0
5259 -8931 -8 0
5259 8931 -5238 -5260 0
5259 -8931 -5238 5260 0
5260 -8930 -5258 0
-5260 8930 0
-5260 5258 0
-5261 8932 5238 0
-5261 -8932 8 -5262 0
-5261 8 5238 0
-5261 8932 5262 0
5261 -8932 -8 0
5261 8932 -5238 -5262 0
5261 -8932 -5238 5262 0
5262 -8931 -5260 0
-5262 8931 0
-5262 5260 0
-5263 8933 5238 0
-5263 -8933 8 -5264 0
-5263 8 5238 0
-5263 8933 5264 0
5263 -8933 -8 0
5263 8933 -5238 -5264 0
5263 -8933 -5238 5264 0
5264 -8932 -5262 0
-5264 8932 0
-5264 5262 0
-5265 8934 5238 0
-5265 -8934 8 -5266 0
-5265 8 5238 0
-5265 8934 5266 0
5265 -8934 -8 0
5265 8934 -5238 -5266 0
5265 -8934 -5238 5266 0
5266 -8933 -5264 0
-5266 8933 0
-5266 5264 0
-5267 8935 5238 0
-5267 -8935 8 -5268 0
-5267 8 5238 0
-5267 8935 5268 0
5267 -8935 -8 0
5267 8935 -5238 -5268 0
5267 -8935 -5238 5268 0
5268 -8934 -5266 0
-5268 8934 0
-5268 5266 0
-5269 8936 5238 0
-5269 -8936 8 -5270 0
-5269 8 5238 0
-5269 8936 5270 0
5269 -8936 -8 0
5269 8936 -5238 -5270 0
5269 -8936 -5238 5270 0
5270 -8935 -5268 0
-5270 8935 0
-5270 5268 0
-5271 8937 5238 0
-5271 -8937 8 -5272 0
-5271 8 5238 0
-5271 8937 5272 0
5271 -8937 -8 0
5271 8937 -5238 -5272 0
5271 -8937 -5238 5272 0
5272 -8936 -5270 0
-5272 8936 0
-5272 5270 0
-5273 8938 5238 0
-5273 -8938 8 -5274 0
-5273 8 5238 0
-5273 8938 5274 0
5273 -8938 -8 0
5273 8938 -5238 -5274 0
5273 -8938 -5238 5274 0
5274 -8937 -5272 0
-5274 8937 0
-5274 5272 0
-5275 8939 5238 0
-5275 -8939 8 -5276 0
-5275 8 5238 0
-5275 8939 5276 0
5275 -8939 -8 0
5275 8939 -5238 -5276 0
5275 -8939 -5238 5276 0
5276 -8938 -5274 0
-5276 8938 0
-5276 5274 0
-5277 8940 5238 0
-5277 -8940 8 -5278 0
-5277 8 5238 0
-5277 8940 5278 0
5277 -8940 -8 0
5277 8940 -5238 -5278 0
5277 -8940 -5238 5278 0
5278 -8939 -5276 0
-5278 8939 0
-5278 5276 0
-5279 8941 5238 0
-5279 -8941 8 -5280 0
-5279 8 5238 0
-5279 8941 5280 0
5279 -8941 -8 0
5279 8941 -5238 -5280 0
5279 -8941 -5238 5280 0
5280 -8940 -5278 0
-5280 8940 0
-5280 5278 0
-5281 8942 5238 0
-5281 -8942 8 -5282 0
-5281 8 5238 0
-5281 8942 5282 0
5281 -8942 -8 0
5281 8942 -5238 -5282 0
5281 -8942 -5238 5282 0
5282 -8941 -5280 0
-5282 8941 0
-5282 5280 0
-5283 8943 5238 0
-5283 -8943 8 -5284 0
-5283 8 5238 0
-5283 8943 5284 0
5283 -8943 -8 0
5283 8943 -5238 -5284 0
5283 -8943 -5238 5284 0
5284 -8942 -5282 0
-5284 8942 0
-5284 5282 0
-5285 8944 5238 0
-5285 -8944 8 -5286 0
-5285 8 5238 0
-5285 8944 5286 0
5285 -8944 -8 0
5285 8944 -5238 -5286 0
5285 -8944 -5238 5286 0
5286 -8943 -5284 0
-5286 8943 0
-5286 5284 0
-5287 8945 5238 0
-5287 -8945 8 -5288 0
-5287 8 5238 0
-5287 8945 5288 0
5287 -8945 -8 0
5287 8945 -5238 -5288 0
5287 -8945 -5238 5288 0
5288 -8944 -5286 0
-5288 8944 0
-5288 5286 0
-5289 8946 5238 0
-5289 -8946 8 -5290 0
-5289 8 5238 0
-5289 8946 5290 0
5289 -8946 -8 0
5289 8946 -5238 -5290 0
5289 -8946 -5238 5290 0
5290 -8945 -5288 0
-5290 8945 0
-5290 5288 0
-5291 8947 5238 0
-5291 -8947 8 -5292 0
-5291 8 5238 0
-5291 8947 5292 0
5291 -8947 -8 0
5291 8947 -5238 -5292 0
5291 -8947 -5238 5292 0
5292 -8946 -5290 0
-5292 8946 0
-5292 5290 0
-5293 8948 5238 0
-5293 -8948 8 -5294 0
-5293 8 5238 0
-5293 8948 5294 0
5293 -8948 -8 0
5293 8948 -5238 -5294 0
5293 -8948 -5238 5294 0
5294 -8947 -5292 0
-5294 8947 0
-5294 5292 0
-5295 8949 5238 0
-5295 -8949 8 -5296 0
-5295 8 5238 0
-5295 8949 5296 0
5295 -8949 -8 0
5295 8949 -5238 -5296 0
5295 -8949 -5238 5296 0
5296 -8948 -5294 0
-5296 8948 0
-5296 5294 0
5297 -7281 -3032 0
5297 -7407 -3032 0
5297 -158 -3032 0
-5297 3032 0
-5297 7281 7407 158 0
5298 -8951 -5299 0
5298 3071 -5299 0
-5298 5299 0
-5298 8951 -3071 0
5299 -5812 -8950 -4383 0
5299 -8950 3078 -4383 0
-5299 4383 0
-5299 8950 0
-5299 5812 -3078 0
-5300 8952 5301 0
-5300 -8951 8952 0
5300 -8952 0
5300 8951 -5301 0
5301 3071 -5299 0
-5301 -3071 0
-5301 5299 0
-5302 5299 0
-5302 8951 3071 0
-5302 8953 -3071 0
5302 -8951 3071 -5299 0
5302 -8953 -3071 -5299 0
5303 -6129 -8950 -2098 0
-5303 6129 0
-5303 8950 0
-5303 2098 0
5304 -4402 -5305 0
5304 -8955 5305 0
-5304 8955 5305 0
-5304 4402 -5305 0
5305 -5303 -5312 0
5305 -5303 -5306 0
5305 -5303 -5309 0
-5305 5303 0
-5305 5306 5309 5312 0
-5306 8961 4401 5307 5308 0
-5306 -8961 -4401 5307 5308 0
5306 -5307 0
5306 8961 -4401 0
5306 -5308 0
5306 -8961 4401 0
5307 8957 -4389 0
5307 -8957 4389 0
-5307 -8957 -4389 0
-5307 8957 4389 0
-5308 -5953 5955 8960 -8962 0
-5308 -5953 -5955 -8960 -8962 0
-5308 5953 5955 8960 8962 0
-5308 5953 -5955 -8960 8962 0
5308 5953 -8962 0
5308 -5953 8962 0
5308 -5955 8960 0
5308 5955 -8960 0
-5309 8956 4390 5310 5311 0
-5309 -8956 -4390 5310 5311 0
5309 -5310 0
5309 -8956 4390 0
5309 -5311 0
5309 8956 -4390 0
5310 -8958 4392 0
-5310 8958 0
-5310 -4392 0
5311 -8959 4391 0
-5311 8959 0
-5311 -4391 0
-5312 8955 4402 5313 5314 0
-5312 -8955 -4402 5313 5314 0
5312 -5313 0
5312 -8955 4402 0
5312 -5314 0
5312 8955 -4402 0
5313 8959 -4391 0
-5313 -8959 0
-5313 4391 0
5314 8958 -4392 0
-5314 -8958 0
-5314 4392 0
5315 -4390 -5305 0
5315 -8956 5305 0
-5315 8956 5305 0
-5315 4390 -5305 0
5316 -4389 -5305 0
5316 -8957 5305 0
-5316 8957 5305 0
-5316 4389 -5305 0
5317 -4392 -5305 0
5317 -8958 5305 0
-5317 8958 5305 0
-5317 4392 -5305 0
5318 -4391 -5305 0
5318 -8959 5305 0
-5318 8959 5305 0
-5318 4391 -5305 0
-5319 8960 5305 0
-5319 5955 -5305 0
5319 -8960 5305 0
5319 -5955 -5305 0
5320 -4401 -5305 0
5320 -8961 5305 0
-5320 8961 5305 0
-5320 4401 -5305 0
-5321 8962 5305 0
-5321 5953 -5305 0
5321 -8962 5305 0
5321 -5953 -5305 0
5322 -8963 -5323 0
5322 -5323 5324 0
5322 -8963 5324 0
-5322 5323 -5324 0
-5322 8963 5323 0
-5322 8963 -5324 0
5323 6118 -155 0
-5323 -6118 0
-5323 155 0
5324 7535 -3032 0
-5324 -7535 0
-5324 3032 0
5325 -8964 5324 0
5325 5324 -5326 0
-5325 -5324 0
-5325 8964 5326 0
5326 -8963 152 0
-5326 8963 0
-5326 -152 0
5327 -3159 -4324 0
-5327 3159 0
-5327 4324 0
5328 -4332 -4346 0
-5328 4332 0
-5328 4346 0
-5329 3077 4550 0
5329 -3077 0
5329 -4550 0
5330 -55 -3032 0
5330 -52 -55 0
-5330 55 0
-5330 52 3032 0
-5331 31 5330 0
-5331 -6040 -7280 5330 0
5331 -5330 0
5331 7280 -31 0
5331 6040 -31 0
-5332 8970 5331 0
-5332 -5331 5333 5335 0
5332 -8970 5331 0
5332 -5331 -5335 0
5332 -5331 -5333 0
5333 -51 5334 0
5333 7280 -51 -1246 0
-5333 51 0
-5333 -7280 -5334 0
-5333 1246 -5334 0
-5334 6040 6840 0
5334 -6040 0
5334 -6840 0
5335 52 -1673 0
-5335 -52 0
-5335 1673 0
-5336 8971 5331 0
-5336 -5331 5337 5339 0
5336 -8971 5331 0
5336 -5331 -5339 0
5336 -5331 -5337 0
5337 -51 5338 0
5337 7280 -51 -1262 0
-5337 51 0
-5337 -7280 -5338 0
-5337 1262 -5338 0
-5338 6040 6849 0
5338 -6040 0
5338 -6849 0
5339 52 -1674 0
-5339 -52 0
-5339 1674 0
-5340 8972 5331 0
-5340 -5331 5341 5343 0
5340 -8972 5331 0
5340 -5331 -5343 0
5340 -5331 -5341 0
5341 -51 5342 0
5341 7280 -51 -1277 0
-5341 51 0
-5341 -7280 -5342 0
-5341 1277 -5342 0
-5342 6040 6858 0
5342 -6040 0
5342 -6858 0
5343 52 -1675 0
-5343 -52 0
-5343 1675 0
-5344 8973 5331 0
-5344 -5331 5345 5347 0
5344 -8973 5331 0
5344 -5331 -5347 0
5344 -5331 -5345 0
5345 -51 5346 0
5345 7280 -51 -1292 0
-5345 51 0
-5345 -7280 -5346 0
-5345 1292 -5346 0
-5346 6040 6867 0
5346 -6040 0
5346 -6867 0
5347 52 -1676 0
-5347 -52 0
-5347 1676 0
-5348 8974 5331 0
-5348 -5331 5349 5351 0
5348 -8974 5331 0
5348 -5331 -5351 0
5348 -5331 -5349 0
5349 -51 5350 0
5349 7280 -51 -1307 0
-5349 51 0
-5349 -7280 -5350 0
-5349 1307 -5350 0
-5350 6040 6876 0
5350 -6040 0
5350 -6876 0
5351 52 -1677 0
-5351 -52 0
-5351 1677 0
-5352 8975 5331 0
-5352 -5331 5353 5355 0
5352 -8975 5331 0
5352 -5331 -5355 0
5352 -5331 -5353 0
5353 -51 5354 0
5353 7280 -51 -1322 0
-5353 51 0
-5353 -7280 -5354 0
-5353 1322 -5354 0
-5354 6040 6885 0
5354 -6040 0
5354 -6885 0
5355 52 -1678 0
-5355 -52 0
-5355 1678 0
-5356 5331 5357 0
5356 -5331 0
5356 -5357 0
5357 -8976 -5358 0
5357 -8976 8977 0
-5357 8976 0
-5357 -8977 5358 0
-5358 8969 184 0
5358 -8969 0
5358 -184 0
-5359 -52 51 0
-5359 1679 -5360 0
-5359 -52 -5360 0
-5359 51 1679 0
5359 52 -1679 0
5359 -51 5360 0
5360 -6894 -7280 0
5360 -6040 1337 0
5360 -6040 -7280 0
5360 -6894 1337 0
-5360 7280 -1337 0
-5360 6040 6894 0
-5361 8978 5331 0
-5361 -5331 5362 5364 0
5361 -8978 5331 0
5361 -5331 -5364 0
5361 -5331 -5362 0
5362 -51 5363 0
5362 7280 -51 -1343 0
-5362 51 0
-5362 -7280 -5363 0
-5362 1343 -5363 0
-5363 6040 6895 0
5363 -6040 0
5363 -6895 0
5364 52 -1680 0
-5364 -52 0
-5364 1680 0
-5365 8979 5331 0
-5365 -5331 5366 5368 0
5365 -8979 5331 0
5365 -5331 -5368 0
5365 -5331 -5366 0
5366 -51 5367 0
5366 7280 -51 -1349 0
-5366 51 0
-5366 -7280 -5367 0
-5366 1349 -5367 0
-5367 6040 6896 0
5367 -6040 0
5367 -6896 0
5368 52 -1681 0
-5368 -52 0
-5368 1681 0
-5369 8980 5331 0
-5369 -5331 5370 5372 0
5369 -8980 5331 0
5369 -5331 -5372 0
5369 -5331 -5370 0
5370 -51 5371 0
5370 7280 -51 -1355 0
-5370 51 0
-5370 -7280 -5371 0
-5370 1355 -5371 0
-5371 6040 6897 0
5371 -6040 0
5371 -6897 0
5372 52 -1682 0
-5372 -52 0
-5372 1682 0
-5373 8981 5331 0
-5373 -5331 5374 5376 0
5373 -8981 5331 0
5373 -5331 -5376 0
5373 -5331 -5374 0
5374 -51 5375 0
5374 7280 -51 -1361 0
-5374 51 0
-5374 -7280 -5375 0
-5374 1361 -5375 0
-5375 6040 6898 0
5375 -6040 0
5375 -6898 0
5376 52 -1683 0
-5376 -52 0
-5376 1683 0
-5377 8982 5331 0
-5377 -5331 5378 5380 0
5377 -8982 5331 0
5377 -5331 -5380 0
5377 -5331 -5378 0
5378 -51 5379 0
5378 7280 -51 -1367 0
-5378 51 0
-5378 -7280 -5379 0
-5378 1367 -5379 0
-5379 6040 6899 0
5379 -6040 0
5379 -6899 0
5380 52 -1684 0
-5380 -52 0
-5380 1684 0
-5381 8983 5331 0
-5381 -5331 5382 5384 0
5381 -8983 5331 0
5381 -5331 -5384 0
5381 -5331 -5382 0
5382 -51 5383 0
5382 7280 -51 -1373 0
-5382 51 0
-5382 -7280 -5383 0
-5382 1373 -5383 0
-5383 6040 6900 0
5383 -6040 0
5383 -6900 0
5384 52 -1685 0
-5384 -52 0
-5384 1685 0
-5385 8984 5331 0
-5385 -5331 5386 5388 0
5385 -8984 5331 0
5385 -5331 -5388 0
5385 -5331 -5386 0
5386 -51 5387 0
5386 7280 -51 -1379 0
-5386 51 0
-5386 -7280 -5387 0
-5386 1379 -5387 0
-5387 6040 6901 0
5387 -6040 0
5387 -6901 0
5388 52 -1686 0
-5388 -52 0
-5388 1686 0
-5389 5331 5390 0
5389 -5331 0
5389 -5390 0
5390 -8985 -5358 0
5390 -8985 8986 0
-5390 8985 0
-5390 -8986 5358 0
-5391 -52 51 0
-5391 1687 -5392 0
-5391 -52 -5392 0
-5391 51 1687 0
5391 52 -1687 0
5391 -51 5392 0
5392 -6902 -7280 0
5392 -6040 1385 0
5392 -6040 -7280 0
5392 -6902 1385 0
-5392 7280 -1385 0
-5392 6040 6902 0
-5393 8987 5331 0
-5393 -5331 5394 5396 0
5393 -8987 5331 0
5393 -5331 -5396 0
5393 -5331 -5394 0
5394 -51 5395 0
5394 7280 -51 -1391 0
-5394 51 0
-5394 -7280 -5395 0
-5394 1391 -5395 0
-5395 6040 6903 0
5395 -6040 0
5395 -6903 0
5396 52 -1688 0
-5396 -52 0
-5396 1688 0
-5397 8988 5331 0
-5397 -5331 5398 5400 0
5397 -8988 5331 0
5397 -5331 -5400 0
5397 -5331 -5398 0
5398 -51 5399 0
5398 7280 -51 -1397 0
-5398 51 0
-5398 -7280 -5399 0
-5398 1397 -5399 0
-5399 6040 6904 0
5399 -6040 0
5399 -6904 0
5400 52 -1689 0
-5400 -52 0
-5400 1689 0
-5401 8989 5331 0
-5401 -5331 5402 5404 0
5401 -8989 5331 0
5401 -5331 -5404 0
5401 -5331 -5402 0
5402 -51 5403 0
5402 7280 -51 -1403 0
-5402 51 0
-5402 -7280 -5403 0
-5402 1403 -5403 0
-5403 6040 6905 0
5403 -6040 0
5403 -6905 0
5404 52 -1690 0
-5404 -52 0
-5404 1690 0
-5405 8990 5331 0
-5405 -5331 5406 5408 0
5405 -8990 5331 0
5405 -5331 -5408 0
5405 -5331 -5406 0
5406 -51 5407 0
5406 7280 -51 -1409 0
-5406 51 0
-5406 -7280 -5407 0
-5406 1409 -5407 0
-5407 6040 6906 0
5407 -6040 0
5407 -6906 0
5408 52 -1691 0
-5408 -52 0
-5408 1691 0
-5409 8991 5331 0
-5409 -5331 5410 5412 0
5409 -8991 5331 0
5409 -5331 -5412 0
5409 -5331 -5410 0
5410 -51 5411 0
5410 7280 -51 -1415 0
-5410 51 0
-5410 -7280 -5411 0
-5410 1415 -5411 0
-5411 6040 6907 0
5411 -6040 0
5411 -6907 0
5412 52 -1692 0
-5412 -52 0
-5412 1692 0
-5413 8992 5331 0
-5413 -5331 5414 5416 0
5413 -8992 5331 0
5413 -5331 -5416 0
5413 -5331 -5414 0
5414 -51 5415 0
5414 7280 -51 -1421 0
-5414 51 0
-5414 -7280 -5415 0
-5414 1421 -5415 0
-5415 6040 6908 0
5415 -6040 0
5415 -6908 0
5416 52 -1693 0
-5416 -52 0
-5416 1693 0
-5417 8993 5331 0
-5417 -5331 5418 5420 0
5417 -8993 5331 0
5417 -5331 -5420 0
5417 -5331 -5418 0
5418 -51 5419 0
5418 7280 -51 -1427 0
-5418 51 0
-5418 -7280 -5419 0
-5418 1427 -5419 0
-5419 6040 6909 0
5419 -6040 0
5419 -6909 0
5420 52 -1694 0
-5420 -52 0
-5420 1694 0
-5421 5331 5422 0
5421 -5331 0
5421 -5422 0
5422 -8994 -5358 0
5422 -8994 8995 0
-5422 8994 0
-5422 -8995 5358 0
-5423 -52 51 0
-5423 1695 -5424 0
-5423 -52 -5424 0
-5423 51 1695 0
5423 52 -1695 0
5423 -51 5424 0
5424 -6910 -7280 0
5424 -6040 1433 0
5424 -6040 -7280 0
5424 -6910 1433 0
-5424 7280 -1433 0
-5424 6040 6910 0
-5425 8996 5331 0
-5425 -5331 5426 5428 0
5425 -8996 5331 0
5425 -5331 -5428 0
5425 -5331 -5426 0
5426 -51 5427 0
5426 7280 -51 -1439 0
-5426 51 0
-5426 -7280 -5427 0
-5426 1439 -5427 0
-5427 6040 6911 0
5427 -6040 0
5427 -6911 0
5428 52 -1696 0
-5428 -52 0
-5428 1696 0
-5429 8997 5331 0
-5429 -5331 5430 5432 0
5429 -8997 5331 0
5429 -5331 -5432 0
5429 -5331 -5430 0
5430 -51 5431 0
5430 7280 -51 -1445 0
-5430 51 0
-5430 -7280 -5431 0
-5430 1445 -5431 0
-5431 6040 6912 0
5431 -6040 0
5431 -6912 0
5432 52 -1697 0
-5432 -52 0
-5432 1697 0
-5433 8998 5331 0
-5433 -5331 5434 5436 0
5433 -8998 5331 0
5433 -5331 -5436 0
5433 -5331 -5434 0
5434 -51 5435 0
5434 7280 -51 -1451 0
-5434 51 0
-5434 -7280 -5435 0
-5434 1451 -5435 0
-5435 6040 6913 0
5435 -6040 0
5435 -6913 0
5436 52 -1698 0
-5436 -52 0
-5436 1698 0
-5437 8999 5331 0
-5437 -5331 5438 5440 0
5437 -8999 5331 0
5437 -5331 -5440 0
5437 -5331 -5438 0
5438 -51 5439 0
5438 7280 -51 -1457 0
-5438 51 0
-5438 -7280 -5439 0
-5438 1457 -5439 0
-5439 6040 6914 0
5439 -6040 0
5439 -6914 0
5440 52 -1699 0
-5440 -52 0
-5440 1699 0
-5441 9000 5331 0
-5441 -5331 5442 5444 0
5441 -9000 5331 0
5441 -5331 -5444 0
5441 -5331 -5442 0
5442 -51 5443 0
5442 7280 -51 -1463 0
-5442 51 0
-5442 -7280 -5443 0
-5442 1463 -5443 0
-5443 6040 6915 0
5443 -6040 0
5443 -6915 0
5444 52 -1700 0
-5444 -52 0
-5444 1700 0
-5445 9001 5331 0
-5445 -5331 5446 5448 0
5445 -9001 5331 0
5445 -5331 -5448 0
5445 -5331 -5446 0
5446 -51 5447 0
5446 7280 -51 -1469 0
-5446 51 0
-5446 -7280 -5447 0
-5446 1469 -5447 0
-5447 6040 6916 0
5447 -6040 0
5447 -6916 0
5448 52 -1701 0
-5448 -52 0
-5448 1701 0
-5449 9002 5331 0
-5449 -5331 5450 5452 0
5449 -9002 5331 0
5449 -5331 -5452 0
5449 -5331 -5450 0
5450 -51 5451 0
5450 7280 -51 -1475 0
-5450 51 0
-5450 -7280 -5451 0
-5450 1475 -5451 0
-5451 6040 6917 0
5451 -6040 0
5451 -6917 0
5452 52 -1702 0
-5452 -52 0
-5452 1702 0
-5453 5331 5454 0
5453 -5331 0
5453 -5454 0
5454 -9003 -5358 0
5454 -9003 9004 0
-5454 9003 0
-5454 -9004 5358 0
-5455 -52 51 0
-5455 1703 -5456 0
-5455 -52 -5456 0
-5455 51 1703 0
5455 52 -1703 0
5455 -51 5456 0
5456 -6918 -7280 0
5456 -6040 1481 0
5456 -6040 -7280 0
5456 -6918 1481 0
-5456 7280 -1481 0
-5456 6040 6918 0
-5457 9005 5331 0
-5457 -5331 5458 5460 0
5457 -9005 5331 0
5457 -5331 -5460 0
5457 -5331 -5458 0
5458 -51 5459 0
5458 7280 -51 -1487 0
-5458 51 0
-5458 -7280 -5459 0
-5458 1487 -5459 0
-5459 6040 6919 0
5459 -6040 0
5459 -6919 0
5460 52 -1704 0
-5460 -52 0
-5460 1704 0
-5461 9006 5331 0
-5461 -5331 5462 5464 0
5461 -9006 5331 0
5461 -5331 -5464 0
5461 -5331 -5462 0
5462 -51 5463 0
5462 7280 -51 -1493 0
-5462 51 0
-5462 -7280 -5463 0
-5462 1493 -5463 0
-5463 6040 6920 0
5463 -6040 0
5463 -6920 0
5464 52 -1705 0
-5464 -52 0
-5464 1705 0
-5465 9007 5331 0
-5465 -5331 5466 5468 0
5465 -9007 5331 0
5465 -5331 -5468 0
5465 -5331 -5466 0
5466 -51 5467 0
5466 7280 -51 -1499 0
-5466 51 0
-5466 -7280 -5467 0
-5466 1499 -5467 0
-5467 6040 6921 0
5467 -6040 0
5467 -6921 0
5468 52 -1706 0
-5468 -52 0
-5468 1706 0
-5469 9008 5331 0
-5469 -5331 5470 5472 0
5469 -9008 5331 0
5469 -5331 -5472 0
5469 -5331 -5470 0
5470 -51 5471 0
5470 7280 -51 -1505 0
-5470 51 0
-5470 -7280 -5471 0
-5470 1505 -5471 0
-5471 6040 6922 0
5471 -6040 0
5471 -6922 0
5472 52 -1707 0
-5472 -52 0
-5472 1707 0
-5473 9009 5331 0
-5473 -5331 5474 5476 0
5473 -9009 5331 0
5473 -5331 -5476 0
5473 -5331 -5474 0
5474 -51 5475 0
5474 7280 -51 -1511 0
-5474 51 0
-5474 -7280 -5475 0
-5474 1511 -5475 0
-5475 6040 6923 0
5475 -6040 0
5475 -6923 0
5476 52 -1708 0
-5476 -52 0
-5476 1708 0
-5477 9010 5331 0
-5477 -5331 5478 5480 0
5477 -9010 5331 0
5477 -5331 -5480 0
5477 -5331 -5478 0
5478 -51 5479 0
5478 7280 -51 -1517 0
-5478 51 0
-5478 -7280 -5479 0
-5478 1517 -5479 0
-5479 6040 6924 0
5479 -6040 0
5479 -6924 0
5480 52 -1709 0
-5480 -52 0
-5480 1709 0
-5481 9011 5331 0
-5481 -5331 5482 5484 0
5481 -9011 5331 0
5481 -5331 -5484 0
5481 -5331 -5482 0
5482 -51 5483 0
5482 7280 -51 -1523 0
-5482 51 0
-5482 -7280 -5483 0
-5482 1523 -5483 0
-5483 6040 6925 0
5483 -6040 0
5483 -6925 0
5484 52 -1710 0
-5484 -52 0
-5484 1710 0
-5485 5331 5486 0
5485 -5331 0
5485 -5486 0
5486 -9012 -5358 0
5486 -9012 9013 0
-5486 9012 0
-5486 -9013 5358 0
-5487 -52 51 0
-5487 1711 -5488 0
-5487 -52 -5488 0
-5487 51 1711 0
5487 52 -1711 0
5487 -51 5488 0
5488 -6926 -7280 0
5488 -6040 1529 0
5488 -6040 -7280 0
5488 -6926 1529 0
-5488 7280 -1529 0
-5488 6040 6926 0
-5489 9014 5331 0
-5489 -5331 5490 5492 0
5489 -9014 5331 0
5489 -5331 -5492 0
5489 -5331 -5490 0
5490 -51 5491 0
5490 7280 -51 -1535 0
-5490 51 0
-5490 -7280 -5491 0
-5490 1535 -5491 0
-5491 6040 6927 0
5491 -6040 0
5491 -6927 0
5492 52 -1712 0
-5492 -52 0
-5492 1712 0
-5493 9015 5331 0
-5493 -5331 5494 5496 0
5493 -9015 5331 0
5493 -5331 -5496 0
5493 -5331 -5494 0
5494 -51 5495 0
5494 7280 -51 -1541 0
-5494 51 0
-5494 -7280 -5495 0
-5494 1541 -5495 0
-5495 6040 6928 0
5495 -6040 0
5495 -6928 0
5496 52 -1713 0
-5496 -52 0
-5496 1713 0
-5497 9016 5331 0
-5497 -5331 5498 5500 0
5497 -9016 5331 0
5497 -5331 -5500 0
5497 -5331 -5498 0
5498 -51 5499 0
5498 7280 -51 -1547 0
-5498 51 0
-5498 -7280 -5499 0
-5498 1547 -5499 0
-5499 6040 6929 0
5499 -6040 0
5499 -6929 0
5500 52 -1714 0
-5500 -52 0
-5500 1714 0
-5501 9017 5331 0
-5501 -5331 5502 5504 0
5501 -9017 5331 0
5501 -5331 -5504 0
5501 -5331 -5502 0
5502 -51 5503 0
5502 7280 -51 -1553 0
-5502 51 0
-5502 -7280 -5503 0
-5502 1553 -5503 0
-5503 6040 6930 0
5503 -6040 0
5503 -6930 0
5504 52 -1715 0
-5504 -52 0
-5504 1715 0
-5505 9018 5331 0
-5505 -5331 5506 5508 0
5505 -9018 5331 0
5505 -5331 -5508 0
5505 -5331 -5506 0
5506 -51 5507 0
5506 7280 -51 -1559 0
-5506 51 0
-5506 -7280 -5507 0
-5506 1559 -5507 0
-5507 6040 6931 0
5507 -6040 0
5507 -6931 0
5508 52 -1716 0
-5508 -52 0
-5508 1716 0
-5509 9019 5331 0
-5509 -5331 5510 5512 0
5509 -9019 5331 0
5509 -5331 -5512 0
5509 -5331 -5510 0
5510 -51 5511 0
5510 7280 -51 -1565 0
-5510 51 0
-5510 -7280 -5511 0
-5510 1565 -5511 0
-5511 6040 6932 0
5511 -6040 0
5511 -6932 0
5512 52 -1717 0
-5512 -52 0
-5512 1717 0
-5513 9020 5331 0
-5513 -5331 5514 5516 0
5513 -9020 5331 0
5513 -5331 -5516 0
5513 -5331 -5514 0
5514 -51 5515 0
5514 7280 -51 -1571 0
-5514 51 0
-5514 -7280 -5515 0
-5514 1571 -5515 0
-5515 6040 6933 0
5515 -6040 0
5515 -6933 0
5516 52 -1718 0
-5516 -52 0
-5516 1718 0
-5517 5331 5518 0
5517 -5331 0
5517 -5518 0
5518 -9021 -5358 0
5518 -9021 9022 0
-5518 9021 0
-5518 -9022 5358 0
-5519 -52 51 0
-5519 1719 -5520 0
-5519 -52 -5520 0
-5519 51 1719 0
5519 52 -1719 0
5519 -51 5520 0
5520 -6934 -7280 0
5520 -6040 1577 0
5520 -6040 -7280 0
5520 -6934 1577 0
-5520 7280 -1577 0
-5520 6040 6934 0
-5521 9023 5331 0
-5521 -5331 5522 5524 0
5521 -9023 5331 0
5521 -5331 -5524 0
5521 -5331 -5522 0
5522 -51 5523 0
5522 7280 -51 -1583 0
-5522 51 0
-5522 -7280 -5523 0
-5522 1583 -5523 0
-5523 6040 6935 0
5523 -6040 0
5523 -6935 0
5524 52 -1720 0
-5524 -52 0
-5524 1720 0
-5525 9024 5331 0
-5525 -5331 5526 5528 0
5525 -9024 5331 0
5525 -5331 -5528 0
5525 -5331 -5526 0
5526 -51 5527 0
5526 7280 -51 -1589 0
-5526 51 0
-5526 -7280 -5527 0
-5526 1589 -5527 0
-5527 6040 6936 0
5527 -6040 0
5527 -6936 0
5528 52 -1721 0
-5528 -52 0
-5528 1721 0
-5529 9025 5331 0
-5529 -5331 5530 5532 0
5529 -9025 5331 0
5529 -5331 -5532 0
5529 -5331 -5530 0
5530 -51 5531 0
5530 7280 -51 -1595 0
-5530 51 0
-5530 -7280 -5531 0
-5530 1595 -5531 0
-5531 6040 6937 0
5531 -6040 0
5531 -6937 0
5532 52 -1722 0
-5532 -52 0
-5532 1722 0
-5533 9026 5331 0
-5533 -5331 5534 5536 0
5533 -9026 5331 0
5533 -5331 -5536 0
5533 -5331 -5534 0
5534 -51 5535 0
5534 7280 -51 -1601 0
-5534 51 0
-5534 -7280 -5535 0
-5534 1601 -5535 0
-5535 6040 6938 0
5535 -6040 0
5535 -6938 0
5536 52 -1723 0
-5536 -52 0
-5536 1723 0
-5537 9027 5331 0
-5537 -5331 5538 5540 0
5537 -9027 5331 0
5537 -5331 -5540 0
5537 -5331 -5538 0
5538 -51 5539 0
5538 7280 -51 -1607 0
-5538 51 0
-5538 -7280 -5539 0
-5538 1607 -5539 0
-5539 6040 6939 0
5539 -6040 0
5539 -6939 0
5540 52 -1724 0
-5540 -52 0
-5540 1724 0
-5541 9028 5331 0
-5541 -5331 5542 5544 0
5541 -9028 5331 0
5541 -5331 -5544 0
5541 -5331 -5542 0
5542 -51 5543 0
5542 7280 -51 -1613 0
-5542 51 0
-5542 -7280 -5543 0
-5542 1613 -5543 0
-5543 6040 6940 0
5543 -6040 0
5543 -6940 0
5544 52 -1725 0
-5544 -52 0
-5544 1725 0
-5545 9029 5331 0
-5545 -5331 5546 5548 0
5545 -9029 5331 0
5545 -5331 -5548 0
5545 -5331 -5546 0
5546 -51 5547 0
5546 7280 -51 -1619 0
-5546 51 0
-5546 -7280 -5547 0
-5546 1619 -5547 0
-5547 6040 6941 0
5547 -6040 0
5547 -6941 0
5548 52 -1726 0
-5548 -52 0
-5548 1726 0
-5549 5331 5550 0
5549 -5331 0
5549 -5550 0
5550 -9030 -5358 0
5550 -9030 9031 0
-5550 9030 0
-5550 -9031 5358 0
-5551 -52 51 0
-5551 1727 -5552 0
-5551 -52 -5552 0
-5551 51 1727 0
5551 52 -1727 0
5551 -51 5552 0
5552 -6942 -7280 0
5552 -6040 1625 0
5552 -6040 -7280 0
5552 -6942 1625 0
-5552 7280 -1625 0
-5552 6040 6942 0
-5553 9032 5331 0
-5553 -5331 5554 5556 0
5553 -9032 5331 0
5553 -5331 -5556 0
5553 -5331 -5554 0
5554 -51 5555 0
5554 7280 -51 -1631 0
-5554 51 0
-5554 -7280 -5555 0
-5554 1631 -5555 0
-5555 6040 6943 0
5555 -6040 0
5555 -6943 0
5556 52 -1728 0
-5556 -52 0
-5556 1728 0
-5557 9033 5331 0
-5557 -5331 5558 5560 0
5557 -9033 5331 0
5557 -5331 -5560 0
5557 -5331 -5558 0
5558 -51 5559 0
5558 7280 -51 -1637 0
-5558 51 0
-5558 -7280 -5559 0
-5558 1637 -5559 0
-5559 6040 6944 0
5559 -6040 0
5559 -6944 0
5560 52 -1729 0
-5560 -52 0
-5560 1729 0
-5561 9034 5331 0
-5561 -5331 5562 5564 0
5561 -9034 5331 0
5561 -5331 -5564 0
5561 -5331 -5562 0
5562 -51 5563 0
5562 7280 -51 -1643 0
-5562 51 0
-5562 -7280 -5563 0
-5562 1643 -5563 0
-5563 6040 6945 0
5563 -6040 0
5563 -6945 0
5564 52 -1730 0
-5564 -52 0
-5564 1730 0
-5565 9035 5331 0
-5565 -5331 5566 5568 0
5565 -9035 5331 0
5565 -5331 -5568 0
5565 -5331 -5566 0
5566 -51 5567 0
5566 7280 -51 -1649 0
-5566 51 0
-5566 -7280 -5567 0
-5566 1649 -5567 0
-5567 6040 6946 0
5567 -6040 0
5567 -6946 0
5568 52 -1731 0
-5568 -52 0
-5568 1731 0
-5569 9036 5331 0
-5569 -5331 5570 5572 0
5569 -9036 5331 0
5569 -5331 -5572 0
5569 -5331 -5570 0
5570 -51 5571 0
5570 7280 -51 -1655 0
-5570 51 0
-5570 -7280 -5571 0
-5570 1655 -5571 0
-5571 6040 6947 0
5571 -6040 0
5571 -6947 0
5572 52 -1732 0
-5572 -52 0
-5572 1732 0
-5573 9037 5331 0
-5573 -5331 5574 5576 0
5573 -9037 5331 0
5573 -5331 -5576 0
5573 -5331 -5574 0
5574 -51 5575 0
5574 7280 -51 -1661 0
-5574 51 0
-5574 -7280 -5575 0
-5574 1661 -5575 0
-5575 6040 6948 0
5575 -6040 0
5575 -6948 0
5576 52 -1733 0
-5576 -52 0
-5576 1733 0
-5577 9038 5331 0
-5577 -5331 5578 5580 0
5577 -9038 5331 0
5577 -5331 -5580 0
5577 -5331 -5578 0
5578 -51 5579 0
5578 7280 -51 -1667 0
-5578 51 0
-5578 -7280 -5579 0
-5578 1667 -5579 0
-5579 6040 6949 0
5579 -6040 0
5579 -6949 0
5580 52 -1734 0
-5580 -52 0
-5580 1734 0
-5581 578 3214 0
5581 -578 0
5581 -3214 0
-5582 2160 5593 0
-5582 -4597 5593 0
-5582 5583 5593 0
5582 -5593 0
5582 -2160 4597 -5583 0
-5583 2157 2708 2744 5584 0
5583 -5584 0
5583 -2157 0
5583 -2744 0
5583 -2708 0
-5584 2681 2682 2705 5585 0
5584 -5585 0
5584 -2681 0
5584 -2705 0
5584 -2682 0
-5585 2683 2703 2704 5586 0
5585 -5586 0
5585 -2683 0
5585 -2704 0
5585 -2703 0
-5586 2686 2701 2702 5587 0
5586 -5587 0
5586 -2686 0
5586 -2702 0
5586 -2701 0
-5587 2684 2685 2687 5588 0
5587 -5588 0
5587 -2684 0
5587 -2687 0
5587 -2685 0
-5588 2695 2696 2743 5589 0
5588 -5589 0
5588 -2695 0
5588 -2743 0
5588 -2696 0
-5589 2690 2697 2700 5590 0
5589 -5590 0
5589 -2690 0
5589 -2700 0
5589 -2697 0
-5590 2689 2691 2694 5591 0
5590 -5591 0
5590 -2689 0
5590 -2694 0
5590 -2691 0
-5591 2688 2692 2693 5592 0
5591 -5592 0
5591 -2688 0
5591 -2693 0
5591 -2692 0
-5592 2698 2706 2707 0
5592 -2698 0
5592 -2706 0
5592 -2707 0
-5593 4338 5594 5617 0
-5593 3130 5594 5617 0
5593 -5617 0
5593 -5594 0
5593 -3130 -4338 0
5594 -4332 -5595 0
5594 -4338 -5595 0
-5594 5595 0
-5594 4332 4338 0
-5595 4351 4355 5596 0
-5595 4355 5596 5607 0
5595 -4355 0
5595 -5596 0
5595 -4351 -5607 0
5596 -4353 5602 0
5596 -4353 -5597 0
-5596 4353 0
-5596 5597 -5602 0
-5597 5598 5599 5600 5601 0
5597 -5601 0
5597 -5598 0
5597 -5600 0
5597 -5599 0
-5598 8220 8230 8234 8236 0
5598 -8236 0
5598 -8234 0
5598 -8220 0
5598 -8230 0
-5599 8231 8232 8239 8242 0
5599 -8242 0
5599 -8239 0
5599 -8231 0
5599 -8232 0
-5600 8214 8215 8218 8224 0
5600 -8224 0
5600 -8218 0
5600 -8214 0
5600 -8215 0
-5601 8213 8219 8223 8241 0
5601 -8241 0
5601 -8223 0
5601 -8213 0
5601 -8219 0
5602 5603 -5604 5605 5606 0
-5602 -5606 0
-5602 -5603 0
-5602 -5605 0
-5602 5604 0
-5603 8216 8225 8229 8235 0
5603 -8235 0
5603 -8229 0
5603 -8216 0
5603 -8225 0
5604 -7580 8212 8221 8228 0
-5604 -8228 0
-5604 -8221 0
-5604 7580 0
-5604 -8212 0
-5605 8217 8226 8227 8240 0
5605 -8240 0
5605 -8227 0
5605 -8217 0
5605 -8226 0
-5606 8222 8233 8237 8238 0
5606 -8238 0
5606 -8237 0
5606 -8222 0
5606 -8233 0
-5607 5608 5609 5610 5612 0
5607 -5612 0
5607 -5608 0
5607 -5610 0
5607 -5609 0
-5608 8182 8193 8200 8202 0
5608 -8202 0
5608 -8200 0
5608 -8182 0
5608 -8193 0
-5609 8187 8190 8199 8204 0
5609 -8204 0
5609 -8199 0
5609 -8187 0
5609 -8190 0
-5610 8178 8180 8198 5611 0
5610 -5611 0
5610 -8198 0
5610 -8178 0
5610 -8180 0
-5611 8179 8181 8201 8205 0
5611 -8205 0
5611 -8201 0
5611 -8179 0
5611 -8181 0
-5612 5613 5614 5615 5616 0
5612 -5616 0
5612 -5613 0
5612 -5615 0
5612 -5614 0
-5613 8185 8189 8195 8197 0
5613 -8197 0
5613 -8195 0
5613 -8185 0
5613 -8189 0
-5614 8192 8196 8203 8208 0
5614 -8208 0
5614 -8203 0
5614 -8192 0
5614 -8196 0
-5615 8184 8191 8194 8206 0
5615 -8206 0
5615 -8194 0
5615 -8184 0
5615 -8191 0
-5616 8183 8186 8188 8207 0
5616 -8207 0
5616 -8188 0
5616 -8183 0
5616 -8186 0
-5617 4319 5618 0
-5617 4294 5618 0
-5617 4340 5618 0
5617 -5618 0
5617 -4294 -4319 -4340 0
-5618 4387 5620 0
-5618 8296 5620 0
-5618 5619 5620 0
5618 -5620 0
5618 -8296 -4387 -5619 0
-5619 8297 8298 0
5619 -8297 0
5619 -8298 0
-5620 4394 5621 0
-5620 4396 5621 0
-5620 -4422 5621 0
5620 -5621 0
5620 -4394 -4396 4422 0
-5621 -4550 5626 5639 0
-5621 5622 5626 5639 0
5621 -5639 0
5621 -5626 0
5621 4550 -5622 0
-5622 7541 -4380 5625 0
-5622 7541 5623 5625 0
5622 -7541 0
5622 -5625 0
5622 4380 -5623 0
-5623 8338 5624 0
-5623 -3071 -3085 5624 0
5623 -5624 0
5623 -8338 3071 0
5623 -8338 3085 0
5624 -8344 -3087 0
5624 -8344 4551 0
5624 -8344 3094 0
-5624 8344 0
-5624 3087 -3094 -4551 0
5625 3071 3088 -4381 0
-5625 -3071 0
-5625 4381 0
-5625 -3088 0
-5626 -8967 5627 5630 0
-5626 4550 5627 5630 0
5626 -5627 0
5626 -5630 0
5626 8967 -4550 0
-5627 8339 5628 0
-5627 3084 5628 0
5627 -5628 0
5627 -8339 -3084 0
5628 -7308 -2151 0
5628 -2151 -5629 0
5628 -8261 -2151 0
-5628 2151 0
-5628 7308 8261 5629 0
-5629 2147 0
-5629 -7306 7530 0
5629 -7530 -2147 0
5629 7306 -2147 0
5630 -7277 -2098 -5634 0
5630 -7277 -2098 -5631 0
-5630 7277 0
-5630 2098 0
-5630 5631 5634 0
-5631 7589 4392 5632 5633 0
-5631 -7589 -4392 5632 5633 0
5631 -5633 0
5631 -7589 4392 0
5631 -5632 0
5631 7589 -4392 0
-5632 -5953 5955 -7582 7584 0
-5632 5953 -5955 7582 -7584 0
-5632 5953 5955 7582 7584 0
-5632 -5953 -5955 -7582 -7584 0
5632 -5953 7582 0
5632 5953 -7582 0
5632 5955 -7584 0
5632 -5955 7584 0
-5633 -7585 -4391 0
-5633 7585 4391 0
5633 7585 -4391 0
5633 -7585 4391 0
-5634 7588 4402 5635 5636 0
-5634 -7588 -4402 5635 5636 0
5634 -5636 0
5634 -7588 4402 0
5634 -5635 0
5634 7588 -4402 0
-5635 -7587 4389 0
-5635 -7583 4390 0
-5635 -7583 -7587 0
-5635 4389 4390 0
5635 7587 -4390 0
5635 7583 -4389 0
-5636 7586 4401 5637 5638 0
-5636 -7586 -4401 5637 5638 0
5636 -5637 0
5636 -7586 4401 0
5636 -5638 0
5636 7586 -4401 0
5637 -7587 4390 0
-5637 7587 0
-5637 -4390 0
5638 -7583 4389 0
-5638 7583 0
-5638 -4389 0
-5639 8354 5640 5641 0
-5639 4604 5640 5641 0
5639 -5641 0
5639 -5640 0
5639 -8354 -4604 0
-5640 8352 3093 0
-5640 8345 4587 0
-5640 3093 4587 0
-5640 8345 8352 0
5640 -8345 -3093 0
5640 -8352 -4587 0
-5641 4593 5642 5655 5657 0
5641 -4593 0
5641 -5657 0
5641 -5655 0
5641 -5642 0
-5642 4302 5643 5654 0
-5642 5643 -5653 5654 0
5642 -5643 0
5642 -5654 0
5642 -4302 5653 0
-5643 5644 5648 5651 5652 0
5643 -5648 0
5643 -5652 0
5643 -5644 0
5643 -5651 0
-5644 5162 5165 5646 0
-5644 5645 5165 5646 0
5644 -5646 0
5644 -5165 0
5644 -5162 -5645 0
5645 -8880 -8881 0
5645 7536 -8881 0
-5645 8881 0
-5645 -7536 8880 0
5646 -3151 -5647 0
5646 8244 -9044 -3151 0
-5646 3151 0
-5646 -8244 5647 0
-5646 9044 5647 0
5647 -8265 -8266 0
5647 -8264 -8266 0
-5647 8266 0
-5647 8264 8265 0
-5648 -9 5649 0
-5648 9046 5649 5650 0
5648 -5649 0
5648 9 -5650 0
5648 -9046 9 0
5649 8334 -4546 0
5649 -8336 -4546 0
5649 -8337 -4546 0
-5649 4546 0
-5649 -8334 8336 8337 0
5650 -8883 -8884 8885 0
5650 7539 -8884 8885 0
-5650 8884 0
-5650 -8885 0
-5650 -7539 8883 0
5651 -7564 8966 4293 -4317 0
-5651 -4293 0
-5651 4317 0
-5651 7564 0
-5651 -8966 0
5652 4388 -4402 0
5652 -5955 4388 -4401 0
-5652 -4388 0
-5652 4401 4402 0
-5652 5955 4402 0
5653 -8244 -8260 8966 0
5653 -8260 8966 -4293 0
-5653 8260 0
-5653 -8966 0
-5653 8244 4293 0
5654 -8261 -2153 -5629 0
-5654 8261 0
-5654 2153 0
-5654 5629 0
-5655 -8884 4589 0
-5655 -8352 5656 0
-5655 -8352 -8884 0
-5655 4589 5656 0
5655 8884 -5656 0
5655 8352 -4589 0
5656 -7539 8883 8 5169 0
-5656 -5169 0
-5656 -8 0
-5656 7539 0
-5656 -8883 0
-5657 8884 5659 5661 0
-5657 5658 5659 5661 0
5657 -5661 0
5657 -5659 0
5657 -8884 -5658 0
5658 -8883 -5169 0
5658 7539 -5169 0
-5658 5169 0
-5658 -7539 8883 0
-5659 9045 9048 5660 0
-5659 9048 2098 5660 0
5659 -5660 0
5659 -9048 0
5659 -9045 -2098 0
-5660 2960 3159 0
-5660 9047 9049 0
-5660 9049 3159 0
-5660 9047 2960 0
5660 -9049 -2960 0
5660 -9047 -3159 0
-5661 5662 -5664 0
-5661 8965 5662 0
-5661 4315 5662 0
5661 -5662 0
5661 -8965 -4315 5664 0
5662 8881 -5663 0
-5662 -8881 0
-5662 5663 0
5663 5162 -5164 0
-5663 -5162 0
-5663 5164 0
5664 -8243 -3159 -5665 0
5664 -3151 -3159 -5665 0
-5664 3159 0
-5664 5665 0
-5664 8243 3151 0
-5665 6030 7564 0
-5665 6105 7564 0
5665 -7564 0
5665 -6030 -6105 0
5666 -8953 -5667 0
5666 8952 -5667 0
-5666 5667 0
-5666 -8952 8953 0
5667 -8951 -5301 0
-5667 8951 0
-5667 5301 0
5668 -8954 -5305 0
-5668 8954 0
-5668 5305 0
5669 -5697 -5739 0
5669 8975 5670 -5739 0
-5669 5739 0
-5669 -5670 5697 0
-5669 -8975 5697 0
5670 8974 -5694 0
5670 8974 8992 -5671 0
-5670 -8974 0
-5670 -8992 5694 0
-5670 5671 5694 0
-5671 -9001 5693 0
-5671 5672 5692 5693 0
5671 -5693 0
5671 9001 -5672 0
5671 9001 -5692 0
5672 9010 -5691 0
5672 9010 9019 -5673 0
-5672 -9010 0
-5672 -9019 5691 0
-5672 5673 5691 0
-5673 -9028 5690 0
-5673 5674 5689 5690 0
5673 -5690 0
5673 9028 -5674 0
5673 9028 -5689 0
5674 9037 -5675 0
5674 9037 -5676 5688 0
-5674 -9037 0
-5674 5675 5676 0
-5674 5675 -5688 0
-5675 198 216 234 252 0
5675 -252 0
5675 -198 0
5675 -234 0
5675 -216 0
-5676 -270 5685 0
-5676 5677 5684 5685 0
5676 -5685 0
5676 270 -5684 0
5676 270 -5677 0
5677 279 -5683 0
5677 279 288 -5678 0
-5677 -279 0
-5677 -288 5683 0
-5677 5678 5683 0
-5678 -297 5682 0
-5678 5679 5681 5682 0
5678 -5682 0
5678 297 -5681 0
5678 297 -5679 0
5679 306 -5680 0
-5679 -306 0
-5679 5680 0
-5680 310 312 314 316 0
5680 -316 0
5680 -310 0
5680 -314 0
5680 -312 0
-5681 301 303 305 307 0
5681 -307 0
5681 -301 0
5681 -305 0
5681 -303 0
-5682 292 294 296 298 0
5682 -298 0
5682 -292 0
5682 -296 0
5682 -294 0
-5683 283 285 287 289 0
5683 -289 0
5683 -283 0
5683 -287 0
5683 -285 0
-5684 274 276 278 280 0
5684 -280 0
5684 -274 0
5684 -278 0
5684 -276 0
-5685 269 271 5686 5687 0
5685 -5687 0
5685 -269 0
5685 -5686 0
5685 -271 0
-5686 256 258 260 262 0
5686 -262 0
5686 -256 0
5686 -260 0
5686 -258 0
-5687 265 267 0
5687 -265 0
5687 -267 0
-5688 243 261 0
-5688 243 -5686 0
5688 -243 0
5688 -261 5686 0
-5689 9032 9034 9036 9038 0
5689 -9038 0
5689 -9036 0
5689 -9032 0
5689 -9034 0
-5690 9023 9025 9027 9029 0
5690 -9029 0
5690 -9027 0
5690 -9023 0
5690 -9025 0
-5691 9014 9016 9018 9020 0
5691 -9020 0
5691 -9018 0
5691 -9014 0
5691 -9016 0
-5692 9005 9007 9009 9011 0
5692 -9011 0
5692 -9009 0
5692 -9005 0
5692 -9007 0
-5693 8996 8998 9000 9002 0
5693 -9002 0
5693 -9000 0
5693 -8996 0
5693 -8998 0
-5694 8980 8982 5695 5696 0
5694 -8980 0
5694 -5696 0
5694 -5695 0
5694 -8982 0
-5695 8973 8978 8989 8993 0
5695 -8993 0
5695 -8989 0
5695 -8973 0
5695 -8978 0
-5696 8971 8984 8987 8991 0
5696 -8991 0
5696 -8987 0
5696 -8971 0
5696 -8984 0
-5697 5698 5699 5700 5734 0
5697 -5734 0
5697 -5698 0
5697 -5700 0
5697 -5699 0
-5698 -283 5390 0
-5698 -8987 281 0
-5698 281 5390 0
-5698 -8987 -283 0
5698 -281 283 0
5698 8987 -5390 0
-5699 -292 5357 0
-5699 -8978 290 0
-5699 290 5357 0
-5699 -8978 -292 0
5699 -290 292 0
5699 8978 -5357 0
-5700 -9014 5701 5733 0
-5700 5486 5701 5733 0
5700 -5733 0
5700 -5701 0
5700 9014 -5486 0
-5701 5702 5705 5710 5728 0
5701 -5728 0
5701 -5702 0
5701 -5710 0
5701 -5705 0
-5702 306 5703 5704 0
-5702 -307 5703 5704 0
5702 -5703 0
5702 -5704 0
5702 -306 307 0
-5703 257 -278 0
-5703 -258 277 0
-5703 -258 -278 0
-5703 257 277 0
5703 -257 258 0
5703 -277 278 0
5704 -315 316 0
-5704 315 0
-5704 -316 0
-5705 5706 5707 5708 5709 0
5705 -5709 0
5705 -5706 0
5705 -5708 0
5705 -5707 0
-5706 266 -303 0
-5706 -267 302 0
-5706 -267 -303 0
-5706 266 302 0
5706 -266 267 0
5706 -302 303 0
-5707 275 -298 0
-5707 -276 297 0
-5707 -276 -298 0
-5707 275 297 0
5707 -275 276 0
5707 -297 298 0
-5708 259 -285 0
-5708 -260 284 0
-5708 -260 -285 0
-5708 259 284 0
5708 -259 260 0
5708 -284 285 0
-5709 270 -312 0
-5709 -271 311 0
-5709 -271 -312 0
-5709 270 311 0
5709 -270 271 0
5709 -311 312 0
-5710 243 5711 5727 0
-5710 -252 5711 5727 0
5710 -5727 0
5710 -5711 0
5710 -243 252 0
-5711 279 5712 5717 0
-5711 -280 5712 5717 0
5711 -5717 0
5711 -5712 0
5711 -279 280 0
-5712 5713 5714 5715 5716 0
5712 -5716 0
5712 -5713 0
5712 -5715 0
5712 -5714 0
-5713 -8971 8990 0
-5713 8970 -8991 0
-5713 8970 8990 0
-5713 -8971 -8991 0
5713 -8970 8971 0
5713 -8990 8991 0
-5714 -8980 9024 0
-5714 8979 -9025 0
-5714 8979 9024 0
-5714 -8980 -9025 0
5714 -8979 8980 0
5714 -9024 9025 0
-5715 -8982 9019 0
-5715 8981 -9020 0
-5715 8981 9019 0
-5715 -8982 -9020 0
5715 -8981 8982 0
5715 -9019 9020 0
-5716 -9002 9028 0
-5716 9001 -9029 0
-5716 9001 9028 0
-5716 -9002 -9029 0
5716 -9001 9002 0
5716 -9028 9029 0
-5717 5718 5723 5725 5726 0
5717 -5726 0
5717 -5718 0
5717 -5725 0
5717 -5723 0
-5718 5719 5720 5721 5722 0
5718 -5722 0
5718 -5719 0
5718 -5721 0
5718 -5720 0
-5719 -9034 9035 0
-5719 9033 -9036 0
-5719 9033 9035 0
-5719 -9034 -9036 0
5719 -9033 9034 0
5719 -9035 9036 0
-5720 -9000 9010 0
-5720 8999 -9011 0
-5720 8999 9010 0
-5720 -9000 -9011 0
5720 -8999 9000 0
5720 -9010 9011 0
-5721 -9016 9017 0
-5721 9015 -9018 0
-5721 9015 9017 0
-5721 -9016 -9018 0
5721 -9015 9016 0
5721 -9017 9018 0
-5722 -8989 9008 0
-5722 8988 -9009 0
-5722 8988 9008 0
-5722 -8989 -9009 0
5722 -8988 8989 0
5722 -9008 9009 0
-5723 -9027 5724 0
-5723 9026 5724 0
5723 -5724 0
5723 -9026 9027 0
-5724 -8984 9006 0
-5724 8983 -9007 0
-5724 8983 9006 0
-5724 -8984 -9007 0
5724 -8983 8984 0
5724 -9006 9007 0
-5725 -8993 8997 0
-5725 8992 -8998 0
-5725 8992 8997 0
-5725 -8993 -8998 0
5725 -8992 8993 0
5725 -8997 8998 0
-5726 -8973 9037 0
-5726 8972 -9038 0
-5726 8972 9037 0
-5726 -8973 -9038 0
5726 -8972 8973 0
5726 -9037 9038 0
-5727 207 -234 0
-5727 -216 225 0
-5727 -216 -234 0
-5727 207 225 0
5727 -207 216 0
5727 -225 234 0
-5728 5729 5730 5731 5732 0
5728 -5732 0
5728 -5729 0
5728 -5731 0
5728 -5730 0
-5729 268 -294 0
-5729 -269 293 0
-5729 -269 -294 0
-5729 268 293 0
5729 -268 269 0
5729 -293 294 0
-5730 261 -305 0
-5730 -262 304 0
-5730 -262 -305 0
-5730 261 304 0
5730 -261 262 0
5730 -304 305 0
-5731 288 -314 0
-5731 -289 313 0
-5731 -289 -314 0
-5731 288 313 0
5731 -288 289 0
5731 -313 314 0
-5732 286 -296 0
-5732 -287 295 0
-5732 -287 -296 0
-5732 286 295 0
5732 -286 287 0
5732 -295 296 0
-5733 -274 308 0
-5733 272 -310 0
-5733 -274 -310 0
-5733 272 308 0
5733 -272 274 0
5733 -308 310 0
-5734 5735 5736 5737 5738 0
5734 -5738 0
5734 -5735 0
5734 -5737 0
5734 -5736 0
-5735 -265 5550 0
-5735 -9032 263 0
-5735 263 5550 0
-5735 -9032 -265 0
5735 -263 265 0
5735 9032 -5550 0
-5736 -198 254 0
-5736 178 -256 0
-5736 -198 -256 0
-5736 178 254 0
5736 -178 198 0
5736 -254 256 0
-5737 -301 5518 0
-5737 -9023 299 0
-5737 299 5518 0
-5737 -9023 -301 0
5737 -299 301 0
5737 9023 -5518 0
-5738 -9005 5422 0
-5738 -8996 5454 0
-5738 -8996 -9005 0
-5738 5422 5454 0
5738 9005 -5454 0
5738 8996 -5422 0
5739 -159 163 -5297 -5740 0
-5739 159 0
-5739 5740 0
-5739 5297 0
-5739 -163 0
-5740 5741 5742 5765 5766 0
5740 -5766 0
5740 -5741 0
5740 -5765 0
5740 -5742 0
-5741 308 5357 5486 5518 0
5741 -5518 0
5741 -5486 0
5741 -308 0
5741 -5357 0
-5742 290 5390 5454 5743 0
5742 -5743 0
5742 -5454 0
5742 -290 0
5742 -5390 0
-5743 5675 5685 5744 5745 0
5743 -5745 0
5743 -5675 0
5743 -5744 0
5743 -5685 0
-5744 207 225 243 0
5744 -207 0
5744 -225 0
5744 -243 0
-5745 5682 5683 5684 5746 0
5745 -5746 0
5745 -5682 0
5745 -5684 0
5745 -5683 0
-5746 5680 5681 5747 5749 0
5746 -5749 0
5746 -5680 0
5746 -5747 0
5746 -5681 0
-5747 266 284 311 5748 0
5747 -5748 0
5747 -266 0
5747 -311 0
5747 -284 0
-5748 286 295 297 302 0
5748 -302 0
5748 -286 0
5748 -297 0
5748 -295 0
-5749 5750 5751 5763 5764 0
5749 -5764 0
5749 -5750 0
5749 -5763 0
5749 -5751 0
-5750 261 288 293 306 0
5750 -306 0
5750 -261 0
5750 -293 0
5750 -288 0
-5751 275 304 5752 5761 0
5751 -5761 0
5751 -275 0
5751 -5752 0
5751 -304 0
-5752 5753 5757 5759 5760 0
5752 -5760 0
5752 -5753 0
5752 -5759 0
5752 -5757 0
-5753 5693 5754 5755 5756 0
5753 -5756 0
5753 -5693 0
5753 -5755 0
5753 -5754 0
-5754 8970 8999 9006 9028 0
5754 -9028 0
5754 -9006 0
5754 -8970 0
5754 -8999 0
-5755 8979 8992 9015 9037 0
5755 -9037 0
5755 -9015 0
5755 -8979 0
5755 -8992 0
-5756 9017 9019 9035 0
5756 -9017 0
5756 -9035 0
5756 -9019 0
-5757 8975 8988 5758 0
5757 -5758 0
5757 -8988 0
5757 -8975 0
-5758 8997 9001 9008 9026 0
5758 -9026 0
5758 -9008 0
5758 -8997 0
5758 -9001 0
-5759 8983 8990 9010 9024 0
5759 -9024 0
5759 -9010 0
5759 -8983 0
5759 -8990 0
-5760 8972 8974 8981 9033 0
5760 -9033 0
5760 -8981 0
5760 -8972 0
5760 -8974 0
-5761 5690 5691 5694 5762 0
5761 -5762 0
5761 -5690 0
5761 -5694 0
5761 -5691 0
-5762 5689 5692 0
5762 -5689 0
5762 -5692 0
-5763 257 259 268 279 0
5763 -279 0
5763 -257 0
5763 -268 0
5763 -259 0
-5764 270 277 313 315 0
5764 -315 0
5764 -270 0
5764 -313 0
5764 -277 0
-5765 178 263 5422 5550 0
5765 -5550 0
5765 -5422 0
5765 -178 0
5765 -263 0
-5766 254 272 281 299 0
5766 -299 0
5766 -281 0
5766 -254 0
5766 -272 0
-5767 3130 5768 0
5767 -3130 0
5767 -5768 0
5768 -4347 -4349 4354 4357 0
-5768 4347 0
-5768 -4357 0
-5768 -4354 0
-5768 4349 0
5769 -5770 5771 5775 5776 0
-5769 -5776 0
-5769 5770 0
-5769 -5775 0
-5769 -5771 0
5770 -69 70 0
-5770 69 0
-5770 -70 0
-5771 75 97 100 5772 0
5771 -5772 0
5771 -75 0
5771 -100 0
5771 -97 0
-5772 84 88 5773 5774 0
5772 -5774 0
5772 -84 0
5772 -5773 0
5772 -88 0
-5773 72 76 78 81 0
5773 -81 0
5773 -72 0
5773 -78 0
5773 -76 0
-5774 74 77 0
5774 -74 0
5774 -77 0
-5775 4 87 94 95 0
5775 -4 0
5775 -95 0
5775 -94 0
5775 -87 0
-5776 5777 5778 5779 5780 0
5776 -5780 0
5776 -5777 0
5776 -5779 0
5776 -5778 0
-5777 79 82 92 4541 0
5777 -4541 0
5777 -79 0
5777 -92 0
5777 -82 0
-5778 73 86 98 99 0
5778 -99 0
5778 -73 0
5778 -98 0
5778 -86 0
-5779 80 85 89 93 0
5779 -93 0
5779 -80 0
5779 -89 0
5779 -85 0
-5780 83 90 91 96 0
5780 -96 0
5780 -83 0
5780 -91 0
5780 -90 0
5781 5291 5293 5295 -5782 0
-5781 5782 0
-5781 -5291 0
-5781 -5295 0
-5781 -5293 0
5782 5285 5287 5289 -5783 0
-5782 5783 0
-5782 -5285 0
-5782 -5289 0
-5782 -5287 0
5783 5279 5281 5283 -5784 0
-5783 5784 0
-5783 -5279 0
-5783 -5283 0
-5783 -5281 0
5784 5273 5275 5277 -5785 0
-5784 5785 0
-5784 -5273 0
-5784 -5277 0
-5784 -5275 0
5785 5267 5269 5271 -5786 0
-5785 5786 0
-5785 -5267 0
-5785 -5271 0
-5785 -5269 0
5786 5261 5263 5265 -5787 0
-5786 5787 0
-5786 -5261 0
-5786 -5265 0
-5786 -5263 0
5787 5255 5257 5259 -5788 0
-5787 5788 0
-5787 -5255 0
-5787 -5259 0
-5787 -5257 0
5788 5249 5251 5253 -5789 0
-5788 5789 0
-5788 -5249 0
-5788 -5253 0
-5788 -5251 0
5789 5243 5245 5247 -5790 0
-5789 5790 0
-5789 -5243 0
-5789 -5247 0
-5789 -5245 0
5790 5236 5239 5241 -5791 0
-5790 5791 0
-5790 -5236 0
-5790 -5241 0
-5790 -5239 0
5791 -7 5234 0
-5791 7 0
-5791 -5234 0
5792 -5793 -5794 -5795 4363 0
-5792 -4363 0
-5792 5793 0
-5792 5795 0
-5792 5794 0
5793 -7565 -7567 0
5793 -7567 -3169 0
-5793 7567 0
-5793 7565 3169 0
5794 -6119 -7568 0
-5794 6119 0
-5794 7568 0
5795 -6120 -7568 -3169 -4338 0
-5795 4338 0
-5795 6120 0
-5795 3169 0
-5795 7568 0
-5796 -4346 5797 0
-5796 4332 5797 0
-5796 5768 5797 0
5796 -5797 0
5796 -4332 4346 -5768 0
-5797 5324 5798 0
-5797 -8963 -5324 0
-5797 -5323 -5324 0
5797 5324 -5798 0
5797 8963 5323 -5324 0
-5798 5799 5326 0
-5798 -8964 5799 0
5798 -5799 0
5798 8964 -5326 0
5799 -8963 -5323 0
-5799 8963 0
-5799 5323 0
-5800 5801 5806 5809 5810 0
5800 -5810 0
5800 -5801 0
5800 -5809 0
5800 -5806 0
-5801 5802 5803 5804 5805 0
5801 -5805 0
5801 -5802 0
5801 -5804 0
5801 -5803 0
-5802 104 108 114 120 0
5802 -120 0
5802 -104 0
5802 -114 0
5802 -108 0
-5803 122 123 131 133 0
5803 -133 0
5803 -122 0
5803 -131 0
5803 -123 0
-5804 115 124 126 128 0
5804 -128 0
5804 -115 0
5804 -126 0
5804 -124 0
-5805 102 111 112 117 0
5805 -117 0
5805 -102 0
5805 -112 0
5805 -111 0
-5806 107 134 5807 5808 0
5806 -5808 0
5806 -107 0
5806 -5807 0
5806 -134 0
-5807 110 129 130 132 0
5807 -132 0
5807 -110 0
5807 -130 0
5807 -129 0
-5808 7 5229 0
5808 -7 0
5808 -5229 0
-5809 113 121 125 127 0
5809 -127 0
5809 -113 0
5809 -125 0
5809 -121 0
-5810 109 116 118 119 0
5810 -119 0
5810 -109 0
5810 -118 0
5810 -116 0
-9050 0
-9040 0
7527 0
9050 0
9050 0
7540 0
9050 0
9041 0
9042 0
6206 0
6207 0
9050 0
7528 0
2 0
3 0
-4 0
4 0
7 0
-7 0
10 0
-10 0
58 0
-69 0
70 0
72 0
73 0
74 0
75 0
76 0
77 0
78 0
79 0
80 0
81 0
82 0
83 0
84 0
85 0
86 0
87 0
88 0
89 0
90 0
91 0
92 0
93 0
94 0
95 0
96 0
97 0
98 0
99 0
100 0
-101 0
102 0
104 0
-105 0
107 0
108 0
109 0
110 0
111 0
112 0
113 0
114 0
115 0
116 0
117 0
118 0
119 0
120 0
121 0
122 0
123 0
124 0
125 0
126 0
127 0
128 0
129 0
130 0
131 0
132 0
133 0
134 0
-9050 0
52 0
19 0
135 0
137 0
139 0
6130 0
141 0
144 0
7281 0
14 0
150 0
151 0
152 0
7558 0
7563 0
7574 0
50 0
7581 0
8360 0
158 0
55 0
46 0
159 0
62 0
61 0
161 0
164 0
170 0
178 0
190 0
191 0
198 0
200 0
207 0
209 0
216 0
218 0
225 0
227 0
234 0
236 0
243 0
245 0
252 0
254 0
256 0
257 0
258 0
259 0
260 0
261 0
262 0
263 0
265 0
266 0
267 0
268 0
269 0
270 0
271 0
272 0
274 0
275 0
276 0
277 0
278 0
279 0
280 0
281 0
283 0
284 0
285 0
286 0
287 0
288 0
289 0
290 0
292 0
293 0
294 0
295 0
296 0
297 0
298 0
299 0
301 0
302 0
303 0
304 0
305 0
306 0
307 0
308 0
310 0
311 0
312 0
313 0
314 0
315 0
316 0
9043 0
317 0
318 0
319 0
321 0
323 0
324 0
338 0
343 0
348 0
353 0
358 0
363 0
368 0
373 0
378 0
383 0
388 0
393 0
398 0
403 0
408 0
413 0
418 0
423 0
428 0
433 0
438 0
443 0
448 0
453 0
458 0
463 0
468 0
473 0
478 0
483 0
488 0
493 0
498 0
503 0
508 0
513 0
518 0
523 0
528 0
533 0
538 0
543 0
548 0
553 0
558 0
563 0
568 0
573 0
578 0
580 0
581 0
596 0
598 0
601 0
604 0
606 0
608 0
610 0
612 0
614 0
616 0
618 0
620 0
622 0
624 0
626 0
628 0
630 0
632 0
634 0
636 0
638 0
640 0
642 0
644 0
646 0
648 0
650 0
652 0
654 0
656 0
658 0
660 0
662 0
666 0
669 0
671 0
675 0
678 0
680 0
683 0
686 0
688 0
690 0
692 0
693 0
694 0
695 0
696 0
697 0
698 0
699 0
700 0
701 0
702 0
703 0
704 0
705 0
706 0
707 0
708 0
709 0
710 0
711 0
712 0
713 0
714 0
715 0
716 0
717 0
718 0
719 0
720 0
721 0
722 0
723 0
724 0
725 0
726 0
727 0
728 0
729 0
730 0
731 0
732 0
733 0
734 0
735 0
736 0
737 0
738 0
739 0
740 0
741 0
742 0
743 0
744 0
745 0
746 0
747 0
748 0
749 0
750 0
751 0
752 0
753 0
754 0
755 0
756 0
757 0
758 0
759 0
760 0
761 0
762 0
763 0
764 0
765 0
766 0
767 0
768 0
769 0
770 0
771 0
772 0
773 0
774 0
775 0
776 0
777 0
778 0
779 0
780 0
781 0
782 0
783 0
784 0
785 0
786 0
787 0
788 0
789 0
790 0
791 0
792 0
793 0
794 0
795 0
796 0
797 0
798 0
799 0
800 0
801 0
802 0
803 0
804 0
805 0
806 0
807 0
808 0
809 0
810 0
811 0
812 0
813 0
814 0
815 0
816 0
817 0
818 0
819 0
820 0
821 0
822 0
823 0
824 0
825 0
826 0
827 0
828 0
829 0
830 0
831 0
832 0
833 0
834 0
835 0
836 0
837 0
838 0
839 0
840 0
841 0
842 0
843 0
844 0
845 0
846 0
847 0
848 0
849 0
850 0
851 0
852 0
853 0
854 0
855 0
856 0
857 0
858 0
859 0
860 0
861 0
862 0
863 0
864 0
865 0
866 0
867 0
868 0
869 0
870 0
871 0
872 0
873 0
874 0
875 0
876 0
877 0
878 0
879 0
880 0
881 0
882 0
883 0
884 0
885 0
886 0
887 0
888 0
889 0
890 0
891 0
892 0
893 0
894 0
895 0
896 0
897 0
898 0
899 0
900 0
901 0
902 0
903 0
904 0
905 0
906 0
907 0
908 0
909 0
910 0
911 0
912 0
913 0
914 0
915 0
916 0
917 0
918 0
919 0
920 0
921 0
922 0
923 0
924 0
925 0
926 0
927 0
928 0
929 0
930 0
931 0
932 0
933 0
934 0
935 0
936 0
937 0
938 0
939 0
940 0
941 0
942 0
943 0
944 0
945 0
946 0
947 0
948 0
949 0
950 0
951 0
952 0
953 0
954 0
955 0
956 0
957 0
958 0
959 0
960 0
961 0
962 0
963 0
964 0
965 0
966 0
967 0
968 0
969 0
970 0
971 0
972 0
973 0
974 0
975 0
976 0
977 0
978 0
979 0
980 0
981 0
982 0
983 0
984 0
985 0
986 0
987 0
988 0
989 0
990 0
991 0
992 0
993 0
994 0
995 0
996 0
997 0
998 0
999 0
1000 0
1001 0
1002 0
1003 0
1004 0
1005 0
1006 0
1007 0
1008 0
1009 0
1010 0
1011 0
1012 0
1013 0
1014 0
1015 0
1016 0
1017 0
1018 0
1019 0
1020 0
1021 0
1022 0
1023 0
1024 0
1025 0
1026 0
1027 0
1028 0
1029 0
1030 0
1031 0
1032 0
1033 0
1034 0
1035 0
1036 0
1037 0
1038 0
1039 0
1040 0
1041 0
1042 0
1043 0
1044 0
1045 0
1046 0
1047 0
1048 0
1049 0
1050 0
1051 0
1052 0
1053 0
1054 0
1055 0
1056 0
1057 0
1058 0
1059 0
1060 0
1061 0
1062 0
1063 0
1064 0
1065 0
1066 0
1067 0
1068 0
1069 0
1070 0
1071 0
1072 0
1073 0
1074 0
1075 0
1076 0
1077 0
1079 0
1081 0
1084 0
1086 0
1089 0
1091 0
1093 0
1095 0
1097 0
1099 0
1101 0
1102 0
1103 0
1104 0
1105 0
1106 0
1107 0
1108 0
1110 0
1111 0
1112 0
1113 0
1114 0
1115 0
1116 0
1117 0
1119 0
1120 0
1121 0
1122 0
1123 0
1124 0
1125 0
1126 0
1128 0
1129 0
1130 0
1131 0
1132 0
1133 0
1134 0
1135 0
1137 0
1138 0
1139 0
1140 0
1141 0
1142 0
1143 0
1144 0
1146 0
1147 0
1148 0
1149 0
1150 0
1151 0
1152 0
1153 0
1155 0
1156 0
1157 0
1158 0
1159 0
1160 0
1161 0
1162 0
1163 0
1164 0
1165 0
1166 0
1167 0
1168 0
1169 0
1170 0
1171 0
1172 0
1173 0
1174 0
1175 0
1176 0
1177 0
1178 0
1179 0
1180 0
1181 0
1182 0
1183 0
1184 0
1185 0
1186 0
1187 0
1188 0
1189 0
1190 0
1191 0
1192 0
1193 0
1194 0
1195 0
1196 0
1197 0
1198 0
1199 0
1200 0
1201 0
1202 0
1203 0
1204 0
1205 0
1206 0
1207 0
1208 0
1209 0
1210 0
1211 0
1212 0
1213 0
1214 0
1215 0
1216 0
1217 0
1218 0
1219 0
1220 0
1221 0
1222 0
1223 0
1224 0
1225 0
1226 0
1227 0
1228 0
1230 0
1231 0
1232 0
1233 0
1234 0
1235 0
1236 0
1237 0
1239 0
1240 0
1241 0
1242 0
1243 0
1244 0
1245 0
-1246 0
1253 0
1255 0
1256 0
1257 0
1258 0
1259 0
1260 0
1261 0
-1262 0
1268 0
1270 0
1271 0
1272 0
1273 0
1274 0
1275 0
1276 0
-1277 0
1283 0
1285 0
1286 0
1287 0
1288 0
1289 0
1290 0
1291 0
-1292 0
1298 0
1300 0
1301 0
1302 0
1303 0
1304 0
1305 0
1306 0
-1307 0
1313 0
1315 0
1316 0
1317 0
1318 0
1319 0
1320 0
1321 0
-1322 0
1328 0
1330 0
1331 0
1332 0
1333 0
1334 0
1335 0
1336 0
-1337 0
-1343 0
-1349 0
-1355 0
-1361 0
-1367 0
-1373 0
-1379 0
-1385 0
-1391 0
-1397 0
-1403 0
-1409 0
-1415 0
-1421 0
-1427 0
-1433 0
-1439 0
-1445 0
-1451 0
-1457 0
-1463 0
-1469 0
-1475 0
-1481 0
-1487 0
-1493 0
-1499 0
-1505 0
-1511 0
-1517 0
-1523 0
-1529 0
-1535 0
-1541 0
-1547 0
-1553 0
-1559 0
-1565 0
-1571 0
-1577 0
-1583 0
-1589 0
-1595 0
-1601 0
-1607 0
-1613 0
-1619 0
-1625 0
-1631 0
-1637 0
-1643 0
-1649 0
-1655 0
-1661 0
-1667 0
1673 0
1674 0
1675 0
1676 0
1677 0
1678 0
1679 0
1680 0
1681 0
1682 0
1683 0
1684 0
1685 0
1686 0
1687 0
1688 0
1689 0
1690 0
1691 0
1692 0
1693 0
1694 0
1695 0
1696 0
1697 0
1698 0
1699 0
1700 0
1701 0
1702 0
1703 0
1704 0
1705 0
1706 0
1707 0
1708 0
1709 0
1710 0
1711 0
1712 0
1713 0
1714 0
1715 0
1716 0
1717 0
1718 0
1719 0
1720 0
1721 0
1722 0
1723 0
1724 0
1725 0
1726 0
1727 0
1728 0
1729 0
1730 0
1731 0
1732 0
1733 0
1734 0
1735 0
1739 0
1740 0
1741 0
1742 0
1743 0
1744 0
1745 0
1746 0
1750 0
1751 0
1752 0
1753 0
1754 0
1755 0
1756 0
1757 0
1761 0
1762 0
1763 0
1764 0
1765 0
1766 0
1767 0
1768 0
1772 0
1773 0
1774 0
1775 0
1776 0
1777 0
1778 0
1779 0
1783 0
1784 0
1785 0
1786 0
1787 0
1788 0
1789 0
1790 0
1794 0
1795 0
1796 0
1797 0
1798 0
1799 0
1800 0
1801 0
1805 0
1806 0
1807 0
1808 0
1809 0
1810 0
1811 0
1812 0
1816 0
1817 0
1818 0
1819 0
1820 0
1821 0
1822 0
1823 0
1827 0
1828 0
1829 0
1830 0
1831 0
1832 0
1833 0
1834 0
1838 0
1839 0
1840 0
1841 0
1842 0
1843 0
1844 0
1845 0
1849 0
1850 0
1851 0
1852 0
1853 0
1854 0
1855 0
1856 0
1860 0
1861 0
1862 0
1863 0
1864 0
1865 0
1866 0
1867 0
1871 0
1872 0
1873 0
1874 0
1875 0
1876 0
1877 0
1878 0
1882 0
1883 0
1884 0
1885 0
1886 0
1887 0
1888 0
1889 0
1893 0
1894 0
1895 0
1896 0
1897 0
1898 0
1899 0
1900 0
1904 0
1905 0
1906 0
1907 0
1908 0
1909 0
1910 0
1911 0
1915 0
1916 0
1917 0
1918 0
1919 0
1920 0
1921 0
1922 0
1926 0
1927 0
1928 0
1929 0
1930 0
1931 0
1932 0
1933 0
1937 0
1938 0
1939 0
1940 0
1941 0
1942 0
1943 0
1944 0
1948 0
1949 0
1950 0
1951 0
1952 0
1953 0
1954 0
1955 0
1959 0
1960 0
1961 0
1962 0
1963 0
1964 0
1965 0
1966 0
1970 0
1971 0
1972 0
1973 0
1974 0
1975 0
1976 0
1977 0
1981 0
1982 0
1983 0
1984 0
1985 0
1986 0
1987 0
1988 0
1992 0
1993 0
1994 0
1995 0
1996 0
1997 0
1998 0
1999 0
2003 0
2004 0
2005 0
2006 0
2007 0
2008 0
2009 0
2010 0
2014 0
2015 0
2016 0
2017 0
2018 0
2019 0
2020 0
2021 0
2025 0
2026 0
2027 0
2028 0
2029 0
2030 0
2031 0
2032 0
2036 0
2037 0
2038 0
2039 0
2040 0
2041 0
2042 0
2043 0
2047 0
2048 0
2049 0
2050 0
2051 0
2052 0
2053 0
2054 0
2058 0
2059 0
2060 0
2061 0
2062 0
2063 0
2064 0
2065 0
2069 0
2070 0
2071 0
2072 0
2073 0
2074 0
2075 0
2076 0
2080 0
2081 0
2082 0
2083 0
2084 0
2085 0
2086 0
2087 0
2091 0
2092 0
2093 0
2094 0
2095 0
2096 0
2097 0
5 0
2098 0
51 0
13 0
12 0
11 0
-60 0
2099 0
2101 0
2105 0
2107 0
2109 0
2111 0
2114 0
2116 0
2118 0
2119 0
2121 0
2127 0
2129 0
2131 0
2132 0
2135 0
2137 0
2141 0
2142 0
2143 0
2144 0
2145 0
2146 0
2149 0
2150 0
2155 0
2156 0
2157 0
2622 0
2651 0
2652 0
2653 0
2654 0
2655 0
2656 0
2657 0
2658 0
2659 0
2660 0
2661 0
2662 0
2663 0
2664 0
2665 0
2666 0
2667 0
2668 0
2669 0
2670 0
2671 0
2672 0
2673 0
2674 0
2675 0
2676 0
2677 0
2678 0
2680 0
2681 0
2682 0
2683 0
2684 0
2685 0
2686 0
2687 0
2688 0
2689 0
2690 0
2691 0
2692 0
2693 0
2694 0
2695 0
2696 0
2697 0
2698 0
2700 0
2701 0
2702 0
2703 0
2704 0
2705 0
2706 0
2707 0
2708 0
2739 0
2741 0
2743 0
2744 0
2745 0
2746 0
2753 0
2782 0
2783 0
2784 0
2785 0
2786 0
2787 0
2788 0
2789 0
2790 0
2791 0
2792 0
2793 0
2794 0
2795 0
2796 0
2797 0
2798 0
2799 0
2800 0
2801 0
2802 0
2803 0
2804 0
2805 0
2806 0
2807 0
2808 0
2809 0
2811 0
2812 0
2813 0
2817 0
2818 0
2819 0
2824 0
2828 0
2829 0
2832 0
2833 0
2834 0
2835 0
2836 0
2837 0
2838 0
2839 0
2840 0
2841 0
2842 0
2843 0
2844 0
2845 0
2846 0
2847 0
2848 0
2849 0
2850 0
2851 0
2852 0
2853 0
2854 0
2855 0
2856 0
2857 0
2858 0
2859 0
2860 0
2861 0
2862 0
2863 0
2864 0
2865 0
2866 0
2867 0
2868 0
2869 0
2870 0
2871 0
2872 0
2873 0
2874 0
2875 0
2876 0
2877 0
2878 0
2879 0
2880 0
2881 0
-58 0
2882 0
2883 0
2884 0
2885 0
2886 0
2887 0
2888 0
2889 0
2890 0
2891 0
2892 0
2893 0
2894 0
2895 0
2896 0
2897 0
2898 0
2899 0
2900 0
2901 0
2902 0
2903 0
2904 0
2905 0
2906 0
2907 0
2908 0
2909 0
2910 0
2911 0
2912 0
2913 0
2914 0
2915 0
2916 0
2917 0
2918 0
2919 0
2920 0
2921 0
2922 0
2923 0
2924 0
2925 0
2926 0
2927 0
2928 0
2929 0
2930 0
2931 0
2932 0
2933 0
2934 0
2935 0
2936 0
2937 0
2938 0
2939 0
2940 0
2941 0
2942 0
2943 0
2944 0
2945 0
2946 0
2947 0
2948 0
2949 0
2950 0
3002 0
3010 0
3030 0
3032 0
3038 0
3045 0
3058 0
3065 0
3069 0
3077 0
3079 0
3097 0
3099 0
3103 0
3104 0
3106 0
3107 0
3108 0
3109 0
3110 0
3111 0
3112 0
3113 0
3114 0
3132 0
3137 0
3141 0
3142 0
-3143 0
3145 0
3148 0
3149 0
3151 0
3152 0
3174 0
3183 0
3188 0
3190 0
3191 0
3192 0
3204 0
3210 0
3211 0
3215 0
3221 0
3222 0
3223 0
3227 0
3228 0
3231 0
3236 0
3237 0
3238 0
3239 0
3240 0
3241 0
3242 0
3243 0
3244 0
3245 0
3246 0
3247 0
3248 0
3249 0
3250 0
3251 0
3252 0
3253 0
3254 0
3255 0
3256 0
3257 0
3258 0
3259 0
3260 0
3261 0
3262 0
3263 0
3264 0
3265 0
3266 0
3267 0
3268 0
3269 0
3270 0
3271 0
3272 0
3273 0
3274 0
3275 0
3276 0
3277 0
3278 0
3279 0
3280 0
3281 0
3282 0
3283 0
3284 0
3285 0
3286 0
3287 0
3288 0
3289 0
3290 0
3291 0
3292 0
3293 0
3294 0
3295 0
3296 0
3297 0
3298 0
3299 0
3300 0
3301 0
3302 0
3303 0
3304 0
3305 0
3306 0
3307 0
3308 0
3309 0
3310 0
3312 0
3313 0
3314 0
3315 0
3316 0
3317 0
3318 0
3319 0
3321 0
3322 0
3323 0
3324 0
3325 0
3326 0
3327 0
3328 0
3329 0
3330 0
3332 0
3333 0
3334 0
3335 0
3336 0
3337 0
3338 0
3339 0
3340 0
3342 0
3343 0
3344 0
3345 0
3346 0
3347 0
3348 0
3349 0
3350 0
3352 0
3353 0
3354 0
3355 0
3356 0
3357 0
3358 0
3359 0
3360 0
3362 0
3363 0
3364 0
3365 0
3366 0
3367 0
3368 0
3369 0
3370 0
3372 0
3373 0
3374 0
3375 0
3376 0
3377 0
3378 0
3379 0
3380 0
3382 0
3383 0
3384 0
3385 0
3386 0
3387 0
3388 0
3389 0
3390 0
3392 0
3393 0
3394 0
3395 0
3396 0
3397 0
3398 0
3399 0
3401 0
3402 0
3403 0
3404 0
3405 0
3406 0
3407 0
3408 0
3410 0
3411 0
3412 0
3413 0
3414 0
3415 0
3416 0
3417 0
3419 0
3420 0
3421 0
3422 0
3423 0
3424 0
3425 0
3426 0
3428 0
3429 0
3430 0
3431 0
3432 0
3433 0
3434 0
3435 0
3437 0
3438 0
3439 0
3440 0
3441 0
3442 0
3443 0
3444 0
3446 0
3447 0
3448 0
3449 0
3450 0
3451 0
3452 0
3453 0
3455 0
3456 0
3457 0
3458 0
3459 0
3460 0
3461 0
3462 0
3464 0
3465 0
3466 0
3467 0
3468 0
3469 0
3470 0
3471 0
3473 0
3474 0
3475 0
3476 0
3477 0
3478 0
3479 0
3480 0
3482 0
3483 0
3484 0
3485 0
3486 0
3487 0
3488 0
3489 0
3491 0
3492 0
3493 0
3494 0
3495 0
3496 0
3497 0
3498 0
3500 0
3501 0
3502 0
3503 0
3504 0
3505 0
3506 0
3507 0
3509 0
3510 0
3511 0
3512 0
3513 0
3514 0
3515 0
3516 0
3518 0
3519 0
3520 0
3521 0
3522 0
3523 0
3524 0
3525 0
3527 0
3528 0
3529 0
3530 0
3531 0
3532 0
3533 0
3534 0
3536 0
3537 0
3538 0
3539 0
3540 0
3541 0
3542 0
3543 0
3545 0
3546 0
3547 0
3548 0
3549 0
3550 0
3551 0
3552 0
3554 0
3555 0
3556 0
3557 0
3558 0
3559 0
3560 0
3561 0
3563 0
3564 0
3565 0
3566 0
3567 0
3568 0
3569 0
3570 0
3572 0
3573 0
3574 0
3575 0
3576 0
3577 0
3578 0
3579 0
3581 0
3582 0
3583 0
3584 0
3585 0
3586 0
3587 0
3588 0
3590 0
3591 0
3592 0
3593 0
3594 0
3595 0
3596 0
3597 0
3599 0
3600 0
3601 0
3602 0
3603 0
3604 0
3605 0
3606 0
3608 0
3609 0
3610 0
3611 0
3612 0
3613 0
3614 0
3615 0
3617 0
3618 0
3619 0
3620 0
3621 0
3622 0
3623 0
3624 0
3626 0
3627 0
3628 0
3629 0
3630 0
3631 0
3632 0
3633 0
3635 0
3636 0
3637 0
3638 0
3639 0
3640 0
3641 0
3642 0
3644 0
3645 0
3646 0
3647 0
3648 0
3649 0
3650 0
3651 0
3653 0
3654 0
3655 0
3656 0
3657 0
3658 0
3659 0
3660 0
3662 0
3663 0
3664 0
3665 0
3666 0
3667 0
3668 0
3669 0
3671 0
3672 0
3673 0
3674 0
3675 0
3676 0
3677 0
3678 0
3680 0
3681 0
3682 0
3683 0
3684 0
3685 0
3686 0
3687 0
3689 0
3690 0
3691 0
3692 0
3693 0
3694 0
3695 0
3696 0
3698 0
3699 0
3700 0
3701 0
3702 0
3703 0
3704 0
3705 0
3707 0
3708 0
3709 0
3710 0
3711 0
3712 0
3713 0
3714 0
3716 0
3717 0
3718 0
3719 0
3720 0
3721 0
3722 0
3723 0
3725 0
3726 0
3727 0
3728 0
3729 0
3730 0
3731 0
3732 0
3734 0
3735 0
3736 0
3737 0
3738 0
3739 0
3740 0
3741 0
3743 0
3744 0
3745 0
3746 0
3747 0
3748 0
3749 0
3750 0
3752 0
3753 0
3754 0
3755 0
3756 0
3757 0
3758 0
3759 0
3761 0
3762 0
3763 0
3764 0
3765 0
3766 0
3767 0
3768 0
3770 0
3771 0
3772 0
3773 0
3774 0
3775 0
3776 0
3777 0
3779 0
3780 0
3781 0
3782 0
3783 0
3784 0
3785 0
3786 0
3788 0
3789 0
3790 0
3791 0
3792 0
3793 0
3794 0
3795 0
3797 0
3798 0
3799 0
3800 0
3801 0
3802 0
3803 0
3804 0
3806 0
3807 0
3808 0
3809 0
3810 0
3811 0
3812 0
3813 0
3815 0
3816 0
3817 0
3818 0
3819 0
3820 0
3821 0
3822 0
3824 0
3825 0
3826 0
3827 0
3828 0
3829 0
3830 0
3831 0
3833 0
3834 0
3835 0
3836 0
3837 0
3838 0
3839 0
3840 0
3842 0
3843 0
3844 0
3845 0
3846 0
3847 0
3848 0
3849 0
3851 0
3852 0
3853 0
3854 0
3855 0
3856 0
3857 0
3858 0
3860 0
3861 0
3862 0
3863 0
3864 0
3865 0
3866 0
3867 0
3869 0
3870 0
3871 0
3872 0
3873 0
3874 0
3875 0
3876 0
3878 0
3879 0
3880 0
3881 0
3882 0
3883 0
3884 0
3885 0
3887 0
3888 0
3889 0
3890 0
3891 0
3892 0
3893 0
3894 0
3895 0
3896 0
3897 0
3898 0
3899 0
3900 0
3901 0
3902 0
3903 0
3904 0
3905 0
3906 0
3907 0
3908 0
3909 0
3910 0
3911 0
3912 0
3913 0
3914 0
3915 0
3916 0
3917 0
3918 0
3919 0
3920 0
3921 0
3922 0
3923 0
3924 0
3925 0
3926 0
3927 0
3929 0
3972 0
3982 0
3992 0
4002 0
4012 0
4022 0
4032 0
4042 0
4052 0
4062 0
4072 0
4082 0
4092 0
4102 0
4112 0
4122 0
4132 0
4142 0
4152 0
4162 0
4172 0
4182 0
4192 0
4202 0
4212 0
4222 0
4232 0
4242 0
4252 0
4262 0
4272 0
4282 0
4292 0
4293 0
4294 0
4318 0
4324 0
-4337 0
4338 0
4339 0
4340 0
4346 0
4347 0
4349 0
4354 0
4357 0
4360 0
4362 0
4363 0
4364 0
4365 0
4367 0
4369 0
4370 0
4372 0
4376 0
4378 0
4382 0
4384 0
4426 0
4427 0
4428 0
4429 0
4431 0
4433 0
4434 0
4435 0
4436 0
4438 0
4440 0
4441 0
4442 0
4443 0
4445 0
4447 0
4448 0
4449 0
4450 0
4452 0
4454 0
4455 0
4456 0
4457 0
4458 0
4459 0
4460 0
4463 0
4464 0
4466 0
4473 0
4476 0
-4482 0
-4483 0
-4485 0
-4487 0
-4489 0
-4491 0
-4493 0
-4495 0
-4497 0
-4499 0
-4501 0
-4503 0
-4505 0
-4507 0
-4509 0
-4511 0
-4513 0
-4515 0
-4517 0
-4519 0
-4521 0
-4523 0
-4525 0
-4527 0
-4529 0
-4531 0
-4533 0
-4535 0
-4537 0
-4539 0
4541 0
-4542 0
4544 0
4545 0
4547 0
4548 0
4549 0
4552 0
4560 0
4562 0
4564 0
4565 0
4567 0
4568 0
4576 0
4578 0
4580 0
4581 0
4583 0
4585 0
4586 0
4592 0
4594 0
4605 0
4608 0
4609 0
4610 0
4612 0
4614 0
4616 0
4618 0
4620 0
4622 0
4624 0
4626 0
4629 0
4631 0
4634 0
4636 0
4639 0
4641 0
4643 0
4645 0
4647 0
4648 0
4650 0
4652 0
4654 0
4656 0
4658 0
4660 0
4662 0
4663 0
4664 0
4665 0
4666 0
4667 0
4668 0
4669 0
4670 0
4671 0
4672 0
4673 0
4674 0
4675 0
4676 0
4677 0
4678 0
4679 0
4680 0
4681 0
4682 0
4683 0
4684 0
4685 0
4686 0
4687 0
4688 0
4689 0
4690 0
4691 0
4692 0
4693 0
4694 0
4695 0
4696 0
4697 0
4698 0
4699 0
4700 0
4701 0
4702 0
4703 0
4704 0
4705 0
4706 0
4707 0
4708 0
4709 0
4710 0
4711 0
4712 0
4713 0
4714 0
4715 0
4716 0
4717 0
4718 0
4719 0
4720 0
4721 0
4722 0
4723 0
4724 0
4725 0
4726 0
4727 0
4728 0
4729 0
4730 0
4731 0
4732 0
4733 0
4734 0
4735 0
4736 0
4737 0
4738 0
4739 0
4740 0
4741 0
4742 0
4743 0
4744 0
4745 0
4746 0
4747 0
4748 0
4749 0
4750 0
4751 0
4752 0
4753 0
4754 0
4755 0
4756 0
4757 0
4758 0
4759 0
4760 0
4761 0
4762 0
4763 0
4764 0
4765 0
4766 0
4767 0
4768 0
4769 0
4770 0
4771 0
4772 0
4773 0
4774 0
4775 0
4776 0
4777 0
4778 0
4779 0
4780 0
4781 0
4782 0
4783 0
4784 0
4785 0
4786 0
4787 0
4788 0
4789 0
4790 0
4791 0
4792 0
4793 0
4794 0
4795 0
4796 0
4797 0
4798 0
4799 0
4800 0
4801 0
4802 0
4803 0
4804 0
4805 0
4806 0
4807 0
4808 0
4809 0
4810 0
4811 0
4812 0
4813 0
4814 0
4815 0
4816 0
4817 0
4818 0
4819 0
4820 0
4821 0
4822 0
4823 0
4824 0
4825 0
4826 0
4827 0
4828 0
4829 0
4830 0
4831 0
4832 0
4833 0
4834 0
4835 0
4836 0
4837 0
4838 0
4839 0
4840 0
4841 0
4842 0
4843 0
4844 0
4845 0
4846 0
4847 0
4848 0
4849 0
4850 0
4851 0
4852 0
4853 0
4854 0
4855 0
4856 0
4857 0
4858 0
4859 0
4860 0
4861 0
4862 0
4863 0
4864 0
4865 0
4866 0
4867 0
4868 0
4869 0
4870 0
4871 0
4872 0
4873 0
4874 0
4875 0
4876 0
4877 0
4878 0
4879 0
4880 0
4881 0
4882 0
4883 0
4884 0
4885 0
4886 0
4887 0
4888 0
4889 0
4890 0
4891 0
4892 0
4893 0
4894 0
4895 0
4896 0
4897 0
4898 0
4899 0
4900 0
4901 0
4902 0
4903 0
4904 0
4905 0
4906 0
4907 0
4908 0
4909 0
4910 0
4911 0
4912 0
4913 0
4914 0
4915 0
4916 0
4917 0
4918 0
4919 0
4920 0
4921 0
4922 0
4923 0
4924 0
4925 0
4926 0
4927 0
4928 0
4929 0
4930 0
4931 0
4932 0
4933 0
4934 0
4935 0
4936 0
4937 0
4938 0
4939 0
4940 0
4941 0
4942 0
4943 0
4944 0
4945 0
4946 0
4947 0
4948 0
4949 0
4950 0
4951 0
4952 0
4953 0
4954 0
4955 0
4956 0
4957 0
4958 0
4959 0
4960 0
4961 0
4962 0
4963 0
4964 0
4965 0
4966 0
4967 0
4968 0
4969 0
4970 0
4971 0
4972 0
4973 0
4974 0
4975 0
4976 0
4977 0
4978 0
4979 0
4980 0
4981 0
4982 0
4983 0
4984 0
4985 0
4986 0
4987 0
4988 0
4989 0
4990 0
4991 0
4992 0
4993 0
4994 0
4995 0
4996 0
4997 0
4998 0
4999 0
5000 0
5001 0
5002 0
5003 0
5004 0
5005 0
5006 0
5007 0
5008 0
5009 0
5010 0
5011 0
5012 0
5013 0
5014 0
5015 0
5016 0
5017 0
5018 0
5019 0
5020 0
5021 0
5022 0
5023 0
5024 0
5025 0
5026 0
5027 0
5028 0
5029 0
5030 0
5031 0
5032 0
5033 0
5034 0
5035 0
5036 0
5037 0
5038 0
5039 0
5040 0
5041 0
5042 0
5043 0
5044 0
5045 0
5046 0
5047 0
5048 0
5049 0
5050 0
5051 0
5052 0
5053 0
5054 0
5055 0
5056 0
5057 0
5058 0
5059 0
5060 0
5061 0
5062 0
5063 0
5064 0
5065 0
5066 0
5067 0
5068 0
5069 0
5070 0
5071 0
5072 0
5073 0
5074 0
5075 0
5076 0
5077 0
5078 0
5079 0
5080 0
5081 0
5082 0
5083 0
5084 0
5085 0
5086 0
5087 0
5088 0
5089 0
5090 0
5091 0
5092 0
5093 0
5094 0
5095 0
5096 0
5097 0
5098 0
5099 0
5100 0
5101 0
5102 0
5103 0
5104 0
5105 0
5106 0
5107 0
5108 0
5109 0
5110 0
5111 0
5112 0
5113 0
5114 0
5115 0
5116 0
5117 0
5118 0
5119 0
5120 0
5121 0
5122 0
5123 0
5124 0
5125 0
5126 0
5127 0
5128 0
5129 0
5130 0
5131 0
5132 0
5133 0
5134 0
5135 0
5136 0
5137 0
5138 0
5139 0
5140 0
5141 0
5142 0
5143 0
5144 0
5145 0
5146 0
5147 0
5148 0
5149 0
5150 0
5151 0
5152 0
5153 0
5154 0
5155 0
5156 0
5157 0
5158 0
5159 0
5160 0
5163 0
5166 0
5167 0
5170 0
-5172 0
-5173 0
-5175 0
-5177 0
-5179 0
-5181 0
-5183 0
-5185 0
-5187 0
-5189 0
-5191 0
-5193 0
-5195 0
-5197 0
-5199 0
-5201 0
-5203 0
-5205 0
-5207 0
-5209 0
-5211 0
-5213 0
-5215 0
-5217 0
-5219 0
-5221 0
-5223 0
-5225 0
-5227 0
5229 0
-5230 0
5232 0
5233 0
5234 0
5236 0
5239 0
5241 0
5243 0
5245 0
5247 0
5249 0
5251 0
5253 0
5255 0
5257 0
5259 0
5261 0
5263 0
5265 0
5267 0
5269 0
5271 0
5273 0
5275 0
5277 0
5279 0
5281 0
5283 0
5285 0
5287 0
5289 0
5291 0
5293 0
5295 0
5297 0
5298 0
5300 0
5302 0
5303 0
5304 0
5315 0
5316 0
5317 0
5318 0
5319 0
5320 0
5321 0
5322 0
5325 0
5327 0
5328 0
5329 0
5330 0
-5331 0
5332 0
5336 0
5340 0
5344 0
5348 0
5352 0
5356 0
-5359 0
5361 0
5365 0
5369 0
5373 0
5377 0
5381 0
5385 0
5389 0
-5391 0
5393 0
5397 0
5401 0
5405 0
5409 0
5413 0
5417 0
5421 0
-5423 0
5425 0
5429 0
5433 0
5437 0
5441 0
5445 0
5449 0
5453 0
-5455 0
5457 0
5461 0
5465 0
5469 0
5473 0
5477 0
5481 0
5485 0
-5487 0
5489 0
5493 0
5497 0
5501 0
5505 0
5509 0
5513 0
5517 0
-5519 0
5521 0
5525 0
5529 0
5533 0
5537 0
5541 0
5545 0
5549 0
-5551 0
5553 0
5557 0
5561 0
5565 0
5569 0
5573 0
5577 0
-5581 0
5582 0
5666 0
5668 0
5669 0
5767 0
5769 0
5781 0
5792 0
5796 0
-5800 0

