c Result of efficient AIG-to-CNF conversion using package CNF
p cnf 1355 4211
2 -1212 -3 0
-2 1212 0
-2 3 0
3 1191 -1329 1331 0
-3 -1191 0
-3 1329 0
-3 -1331 0
-4 5 0
4 -5 0
5 -1212 -3 0
-5 1212 0
-5 3 0
6 -1157 -7 0
-6 1157 0
-6 7 0
-7 3 8 0
-7 1240 9 0
-7 3 9 0
-7 1240 8 0
7 -1240 -3 0
7 -8 -9 0
-8 1212 1241 0
8 -1212 0
8 -1241 0
9 -1348 3 48 0
9 3 -10 48 0
-9 -48 0
-9 -3 0
-9 1348 10 0
10 1233 1240 -8 11 0
-10 -11 0
-10 8 0
-10 -1233 0
-10 -1240 0
11 -12 32 -39 41 0
-11 -41 0
-11 39 0
-11 12 0
-11 -32 0
12 15 -19 0
12 13 -19 0
12 -16 -19 0
-12 19 0
-12 -13 -15 16 0
13 -1353 14 0
13 -1068 14 0
-13 -14 0
-13 1068 1353 0
-14 -1130 1132 0
-14 -1350 1352 0
-14 1132 1352 0
-14 -1130 -1350 0
14 -1132 1350 0
14 1130 -1352 0
15 1068 -1069 1351 0
15 -1069 1351 1353 0
-15 1069 0
-15 -1351 0
-15 -1068 -1353 0
-16 1131 1349 17 18 0
-16 -1131 -1349 17 18 0
16 -17 0
16 -1131 1349 0
16 -18 0
16 1131 -1349 0
17 -1130 1352 0
-17 1130 0
-17 -1352 0
18 1132 -1350 0
-18 -1132 0
-18 1350 0
19 22 -26 0
19 -23 -26 0
19 20 -26 0
-19 26 0
-19 -20 -22 23 0
20 -1353 21 0
20 -1075 21 0
-20 -21 0
-20 1075 1353 0
-21 -1127 1129 0
-21 -1350 1352 0
-21 1129 1352 0
-21 -1127 -1350 0
21 -1129 1350 0
21 1127 -1352 0
22 1075 -1076 1351 0
22 -1076 1351 1353 0
-22 1076 0
-22 -1351 0
-22 -1075 -1353 0
-23 1128 1349 24 25 0
-23 -1128 -1349 24 25 0
23 -24 0
23 -1128 1349 0
23 -25 0
23 1128 -1349 0
24 -1127 1352 0
-24 1127 0
-24 -1352 0
25 1129 -1350 0
-25 -1129 0
-25 1350 0
-26 975 27 30 31 0
26 -975 0
26 -31 0
26 -30 0
26 -27 0
-27 977 28 29 0
-27 -1072 28 29 0
27 -29 0
27 -28 0
27 -977 1072 0
28 979 -1074 0
28 -979 1074 0
-28 -979 -1074 0
-28 979 1074 0
-29 -978 -1071 0
-29 976 1073 0
-29 976 -978 0
-29 -1071 1073 0
29 -976 1071 0
29 978 -1073 0
-30 -977 -1073 0
-30 978 1072 0
-30 1072 -1073 0
-30 -977 978 0
30 -978 1073 0
30 977 -1072 0
31 976 -1071 0
-31 -976 0
-31 1071 0
32 -1075 33 -34 0
32 -1354 33 -34 0
-32 34 0
-32 -33 0
-32 1075 1354 0
-33 -1127 1129 0
-33 -1134 1136 0
-33 1129 1136 0
-33 -1127 -1134 0
33 -1129 1134 0
33 1127 -1136 0
34 1075 -35 36 0
34 1354 -35 36 0
-34 -36 0
-34 35 0
-34 -1075 -1354 0
35 -1076 1135 0
-35 1076 0
-35 -1135 0
-36 1128 1133 37 38 0
-36 -1128 -1133 37 38 0
36 -37 0
36 -1128 1133 0
36 -38 0
36 1128 -1133 0
37 -1127 1136 0
-37 1127 0
-37 -1136 0
38 1129 -1134 0
-38 -1129 0
-38 1134 0
-39 27 30 31 40 0
39 -40 0
39 -27 0
39 -30 0
39 -31 0
-40 -975 -1070 0
-40 975 1070 0
40 975 -1070 0
40 -975 1070 0
41 -1068 42 -43 0
41 -1354 42 -43 0
-41 43 0
-41 -42 0
-41 1068 1354 0
-42 -1130 1132 0
-42 -1134 1136 0
-42 1132 1136 0
-42 -1130 -1134 0
42 -1132 1134 0
42 1130 -1136 0
43 1068 -44 45 0
43 1354 -44 45 0
-43 -45 0
-43 44 0
-43 -1068 -1354 0
44 -1069 1135 0
-44 1069 0
-44 -1135 0
-45 1131 1133 46 47 0
-45 -1131 -1133 46 47 0
45 -46 0
45 -1131 1133 0
45 -47 0
45 1131 -1133 0
46 -1130 1136 0
-46 1130 0
-46 -1136 0
47 1132 -1134 0
-47 -1132 0
-47 1134 0
48 1242 1243 -1348 0
-48 1348 0
-48 -1243 0
-48 -1242 0
49 -1212 -50 0
-49 1212 0
-49 50 0
50 1156 -51 0
-50 -1156 0
-50 51 0
-51 1234 1329 0
51 -1234 0
51 -1329 0
-52 53 0
52 -53 0
53 -1236 -54 0
53 -1233 -54 0
-53 54 0
-53 1233 1236 0
54 1240 -1241 0
-54 -1240 0
-54 1241 0
-55 56 0
55 -56 0
56 -1236 -1293 0
56 -1233 -1293 0
-56 1293 0
-56 1233 1236 0
-57 58 0
57 -58 0
58 1320 -59 0
-58 -1320 0
-58 59 0
59 1143 -1291 0
59 -1291 -1308 0
-59 1291 0
-59 -1143 1308 0
60 1143 -1253 -1288 0
60 -1253 -1288 -1307 0
-60 1288 0
-60 1253 0
-60 -1143 1307 0
61 -1253 -1288 -1304 0
-61 1253 0
-61 1288 0
-61 1304 0
-62 63 0
62 -63 0
63 1320 -64 0
-63 -1320 0
-63 64 0
64 -1291 -1306 0
-64 1291 0
-64 1306 0
65 -1253 -1288 -1301 0
-65 1253 0
-65 1288 0
-65 1301 0
-66 67 0
66 -67 0
67 1320 -68 0
-67 -1320 0
-67 68 0
68 -1291 -1303 0
-68 1291 0
-68 1303 0
69 -1106 -1253 -1288 0
-69 1106 0
-69 1253 0
-69 1288 0
-70 71 0
70 -71 0
71 1320 -72 0
-71 -1320 0
-71 72 0
72 -1291 -1300 0
-72 1291 0
-72 1300 0
73 -1105 -1253 -1288 0
-73 1105 0
-73 1253 0
-73 1288 0
-74 75 0
74 -75 0
75 1320 -76 0
-75 -1320 0
-75 76 0
76 -1291 -1299 0
-76 1291 0
-76 1299 0
77 -1103 -1253 -1288 0
-77 1103 0
-77 1253 0
-77 1288 0
-78 79 0
78 -79 0
79 1320 -80 0
-79 -1320 0
-79 80 0
80 -1291 -1297 0
-80 1291 0
-80 1297 0
81 -1102 -1253 -1288 0
-81 1102 0
-81 1253 0
-81 1288 0
-82 83 0
82 -83 0
83 1320 -84 0
-83 -1320 0
-83 84 0
84 -1291 -1296 0
-84 1291 0
-84 1296 0
85 -1099 -1253 -1288 0
-85 1099 0
-85 1253 0
-85 1288 0
-86 87 0
86 -87 0
87 1320 -88 0
-87 -1320 0
-87 88 0
88 -1291 -1292 0
-88 1291 0
-88 1292 0
-89 90 0
89 -90 0
90 -91 -92 0
-90 91 0
-90 92 0
91 1196 1329 -1330 0
91 -1193 1196 -1329 0
-91 -1196 0
-91 1329 1330 0
-91 1193 -1329 0
-92 1212 3 0
-92 1212 1232 0
92 -1212 0
92 -1232 -3 0
93 -91 -94 -109 -120 0
-93 120 0
-93 109 0
-93 91 0
-93 94 0
-94 95 97 0
-94 1195 97 0
94 -97 0
94 -1195 -95 0
-95 1329 96 0
95 -1329 0
95 -96 0
96 -1173 -1199 0
96 1192 -1199 0
-96 1199 0
-96 1173 -1192 0
97 1278 -1312 95 0
97 -1278 95 -98 0
-97 -95 0
-97 -1278 98 0
-97 1278 1312 0
-98 99 102 105 107 0
98 -107 0
98 -99 0
98 -105 0
98 -102 0
-99 100 -101 0
-99 1315 1319 0
-99 1319 -101 0
-99 1315 100 0
99 -1319 -100 0
99 -1315 101 0
100 1309 -1310 -1311 0
-100 1311 0
-100 1310 0
-100 -1309 0
-101 1309 1310 1311 0
101 -1309 0
101 -1311 0
101 -1310 0
-102 103 104 0
-102 1312 1316 0
-102 1316 104 0
-102 1312 103 0
102 -1316 -103 0
102 -1312 -104 0
103 -1309 1310 1311 0
-103 1309 0
-103 -1311 0
-103 -1310 0
104 -1309 -1310 -1311 0
-104 1309 0
-104 1310 0
-104 1311 0
-105 106 0
-105 -1309 1314 0
-105 1309 1318 0
105 -1309 -1314 -106 0
105 1309 -1318 -106 0
106 -1310 1311 0
-106 1310 0
-106 -1311 0
-107 108 0
-107 -1309 1313 0
-107 1309 1317 0
107 -1309 -1313 -108 0
107 1309 -1317 -108 0
108 1310 -1311 0
-108 -1310 0
-108 1311 0
-109 95 110 0
-109 1227 110 0
109 -110 0
109 -1227 -95 0
110 1278 -1279 95 0
110 -1278 95 -111 0
-110 -95 0
-110 -1278 111 0
-110 1278 1279 0
-111 112 114 115 117 0
111 -117 0
111 -112 0
111 -115 0
111 -114 0
-112 1343 100 0
-112 1340 113 0
-112 100 113 0
-112 1340 1343 0
112 -1340 -100 0
112 -1343 -113 0
113 -1309 1310 -1311 0
-113 1309 0
-113 -1310 0
-113 1311 0
-114 103 104 0
-114 1279 1337 0
-114 1337 104 0
-114 1279 103 0
114 -1337 -103 0
114 -1279 -104 0
-115 -101 116 0
-115 1341 1342 0
-115 1342 116 0
-115 1341 -101 0
115 -1342 101 0
115 -1341 -116 0
116 -1309 -1310 1311 0
-116 1309 0
-116 1310 0
-116 -1311 0
-117 118 119 0
-117 1338 1339 0
-117 1339 119 0
-117 1338 118 0
117 -1339 -118 0
117 -1338 -119 0
118 1309 -1310 1311 0
-118 -1309 0
-118 1310 0
-118 -1311 0
119 1309 1310 -1311 0
-119 1311 0
-119 -1310 0
-119 -1309 0
120 121 -122 0
120 -1193 -1329 121 0
-120 -121 0
-120 1329 122 0
-120 1193 122 0
-121 1157 1161 0
121 -1157 0
121 -1161 0
122 1232 -1239 -1278 123 0
-122 -1232 0
-122 -123 0
-122 1278 0
-122 1239 0
-123 1212 124 0
123 -1212 0
123 -124 0
-124 51 96 0
124 -51 0
124 -96 0
125 -1156 -1212 0
-125 1156 0
-125 1212 0
126 8 -127 0
126 -8 127 0
-126 -8 -127 0
-126 8 127 0
127 1233 -128 0
-127 -1233 0
-127 128 0
-128 1212 1234 0
128 -1212 0
128 -1234 0
129 -1236 -130 0
-129 1236 0
-129 130 0
-130 3 128 0
130 -3 0
130 -128 0
-131 132 0
131 -132 0
132 -1159 -133 0
-132 1159 0
-132 133 0
133 -1147 -1245 121 134 0
-133 -121 0
-133 -134 0
-133 1147 0
-133 1245 0
134 1161 -1213 0
134 1161 -1229 0
-134 -1161 0
-134 1213 1229 0
135 1225 -1226 136 -137 0
-135 1226 0
-135 -136 0
-135 -1225 0
-135 137 0
136 1173 -1192 0
-136 -1173 0
-136 1192 0
137 1154 -138 0
-137 -1154 0
-137 138 0
138 1155 1164 -1179 0
-138 1179 0
-138 -1164 0
-138 -1155 0
139 1157 -1171 -140 0
-139 140 0
-139 1171 0
-139 -1157 0
140 -1174 1256 0
-140 1174 0
-140 -1256 0
141 -1187 -1232 0
141 -1187 -1331 0
141 -1187 -1329 0
-141 1187 0
-141 1232 1329 1331 0
142 -1197 -1198 143 0
-142 1197 0
-142 1198 0
-142 -143 0
-143 1232 1329 1331 0
143 -1232 0
143 -1331 0
143 -1329 0
144 1329 -1344 0
144 -997 -1329 0
144 -1198 -1329 0
-144 1329 1344 0
-144 997 1198 -1329 0
145 121 -146 0
145 -1198 -51 121 0
-145 -121 0
-145 51 146 0
-145 1198 146 0
146 124 -147 0
-146 -124 0
-146 147 0
147 -1239 -1253 0
-147 1239 0
-147 1253 0
148 121 -149 152 153 0
-148 -153 0
-148 -121 0
-148 -152 0
-148 149 0
149 -974 996 150 -151 0
149 974 -996 150 -151 0
-149 151 0
-149 974 996 0
-149 -150 0
-149 -974 -996 0
150 972 -991 0
150 -972 991 0
-150 -972 -991 0
-150 972 991 0
151 -1154 1178 -1201 0
-151 1154 0
-151 -1178 0
-151 1201 0
-152 -968 -994 0
-152 970 990 0
-152 990 -994 0
-152 -968 970 0
152 -970 994 0
152 968 -990 0
-153 971 993 154 157 0
-153 -971 -993 154 157 0
153 -157 0
153 -971 993 0
153 -154 0
153 971 -993 0
-154 -992 155 156 0
-154 969 155 156 0
154 -155 0
154 -156 0
154 -969 992 0
-155 -970 -990 0
-155 968 994 0
-155 968 -970 0
-155 -990 994 0
155 -968 990 0
155 970 -994 0
156 -973 995 0
-156 973 0
-156 -995 0
-157 -973 992 0
-157 -969 995 0
-157 -969 -973 0
-157 992 995 0
157 973 -995 0
157 969 -992 0
-158 159 161 0
-158 -159 160 0
-158 -1157 -159 0
158 159 -161 0
158 1157 -159 -160 0
159 1156 -124 0
-159 -1156 0
-159 124 0
160 1190 -1200 0
160 -1200 140 0
-160 1200 0
-160 -1190 -140 0
161 1171 -1179 162 0
-161 -162 0
-161 1179 0
-161 -1171 0
-162 1178 1255 1270 1346 0
162 -1346 0
162 -1270 0
162 -1178 0
162 -1255 0
-163 164 229 0
-163 -164 165 0
-163 164 167 0
163 -164 -165 0
163 164 -167 -229 0
164 1191 -1199 0
164 1191 -51 0
-164 -1191 0
-164 1199 51 0
165 1178 -166 0
165 984 -166 0
-165 166 0
-165 -984 -1178 0
166 -1201 1230 1255 1270 0
-166 -1270 0
-166 -1255 0
-166 1201 0
-166 -1230 0
-167 -168 221 222 0
-167 215 221 222 0
167 -221 0
167 -222 0
167 168 -215 0
168 -169 208 209 0
168 -170 208 209 0
-168 -209 0
-168 -208 0
-168 169 170 0
169 1203 1204 -1205 0
-169 1205 0
-169 -1204 0
-169 -1203 0
170 171 -172 0
170 -171 -205 0
170 -171 -202 0
-170 171 172 0
-170 -171 202 205 0
171 1203 -1204 -1205 0
-171 1205 0
-171 1204 0
-171 -1203 0
172 173 -174 0
172 -173 -199 0
172 -173 -196 0
-172 173 174 0
-172 -173 196 199 0
173 -1203 1204 1205 0
-173 1203 0
-173 -1205 0
-173 -1204 0
174 175 -176 0
174 -175 -193 0
174 -175 -190 0
-174 175 176 0
-174 -175 190 193 0
175 -1203 -1204 1205 0
-175 1203 0
-175 1204 0
-175 -1205 0
176 178 -187 0
176 -177 178 0
176 178 -184 0
-176 -178 0
-176 177 184 187 0
177 -1203 1204 -1205 0
-177 1203 0
-177 -1204 0
-177 1205 0
178 179 -177 182 183 0
-178 -183 0
-178 -179 0
-178 -182 0
-178 177 0
-179 1206 180 181 0
-179 1042 180 181 0
179 -181 0
179 -180 0
179 -1042 -1206 0
180 -987 -1046 0
-180 987 0
-180 1046 0
-181 986 -1207 0
-181 1043 1044 0
-181 1043 -1207 0
-181 986 1044 0
181 -986 -1043 0
181 -1044 1207 0
-182 1048 1208 0
-182 1045 1210 0
-182 1208 1210 0
-182 1045 1048 0
182 -1045 -1208 0
182 -1048 -1210 0
-183 1041 1047 0
-183 985 1209 0
-183 1041 1209 0
-183 985 1047 0
183 -985 -1041 0
183 -1047 -1209 0
-184 1206 185 186 0
-184 1050 185 186 0
184 -185 0
184 -186 0
184 -1050 -1206 0
-185 1049 1055 0
-185 985 1209 0
-185 1049 1209 0
-185 985 1055 0
185 -985 -1049 0
185 -1055 -1209 0
186 -1052 1207 0
-186 1052 0
-186 -1207 0
-187 1208 188 189 0
-187 1053 188 189 0
187 -188 0
187 -189 0
187 -1053 -1208 0
-188 1051 1056 0
-188 986 1210 0
-188 1051 1210 0
-188 986 1056 0
188 -986 -1051 0
188 -1056 -1210 0
189 -987 -1054 0
-189 987 0
-189 1054 0
-190 1206 191 192 0
-190 1034 191 192 0
190 -191 0
190 -192 0
190 -1034 -1206 0
-191 986 -1207 0
-191 1035 1036 0
-191 1035 -1207 0
-191 986 1036 0
191 -986 -1035 0
191 -1036 1207 0
192 -987 -1038 0
-192 987 0
-192 1038 0
-193 1208 194 195 0
-193 1037 194 195 0
193 -195 0
193 -194 0
193 -1037 -1208 0
194 -1039 -1209 0
-194 1039 0
-194 1209 0
-195 1033 1040 0
-195 985 1210 0
-195 1033 1210 0
-195 985 1040 0
195 -985 -1033 0
195 -1040 -1210 0
-196 1208 197 198 0
-196 1029 197 198 0
196 -197 0
196 -198 0
196 -1029 -1208 0
-197 1031 1206 0
-197 1026 1209 0
-197 1206 1209 0
-197 1026 1031 0
197 -1026 -1206 0
197 -1031 -1209 0
198 -987 -1030 0
-198 987 0
-198 1030 0
-199 1210 200 201 0
-199 1032 200 201 0
199 -201 0
199 -200 0
199 -1032 -1210 0
200 -985 -1025 0
-200 985 0
-200 1025 0
-201 986 -1207 0
-201 1027 1028 0
-201 1027 -1207 0
-201 986 1028 0
201 -986 -1027 0
201 -1028 1207 0
-202 1209 203 204 0
-202 1023 203 204 0
202 -203 0
202 -204 0
202 -1023 -1209 0
-203 1017 1018 0
-203 985 1206 0
-203 1017 1206 0
-203 985 1018 0
203 -985 -1017 0
203 -1018 -1206 0
204 -987 -1022 0
-204 987 0
-204 1022 0
-205 1210 206 207 0
-205 1024 206 207 0
205 -206 0
205 -207 0
205 -1024 -1210 0
-206 1020 1021 0
-206 -1207 1208 0
-206 1021 -1207 0
-206 1020 1208 0
206 -1020 1207 0
206 -1021 -1208 0
207 -986 -1019 0
-207 986 0
-207 1019 0
208 1203 -1204 1205 0
-208 -1203 0
-208 1204 0
-208 -1205 0
209 -169 210 213 214 0
-209 -214 0
-209 169 0
-209 -213 0
-209 -210 0
-210 1208 211 212 0
-210 1013 211 212 0
210 -211 0
210 -212 0
210 -1013 -1208 0
-211 1015 1206 0
-211 1010 1209 0
-211 1206 1209 0
-211 1010 1015 0
211 -1010 -1206 0
211 -1015 -1209 0
212 -987 -1014 0
-212 987 0
-212 1014 0
-213 1009 1016 0
-213 985 1210 0
-213 1009 1210 0
-213 985 1016 0
213 -985 -1009 0
213 -1016 -1210 0
-214 986 -1207 0
-214 1011 1012 0
-214 1011 -1207 0
-214 986 1012 0
214 -986 -1011 0
214 -1012 1207 0
215 -1203 0
215 -1205 0
215 -1204 216 0
-215 1203 1205 -216 0
-215 1203 1204 1205 0
-216 217 218 219 220 0
216 -220 0
216 -217 0
216 -219 0
216 -218 0
-217 1008 1206 0
-217 1005 1210 0
-217 1206 1210 0
-217 1005 1008 0
217 -1005 -1206 0
217 -1008 -1210 0
-218 1006 -1207 0
-218 1208 1218 0
-218 -1207 1208 0
-218 1006 1218 0
218 1207 -1218 0
218 -1006 -1208 0
-219 1209 1216 0
-219 985 1007 0
-219 1007 1216 0
-219 985 1209 0
219 -1007 -1209 0
219 -985 -1216 0
-220 987 1217 0
-220 986 1219 0
-220 1217 1219 0
-220 986 987 0
220 -986 -1217 0
220 -987 -1219 0
-221 -1202 -1214 0
-221 1202 1214 0
221 1202 -1214 0
221 -1202 1214 0
222 223 224 -227 228 0
-222 -228 0
-222 -223 0
-222 227 0
-222 -224 0
-223 1203 1204 1205 0
223 -1203 0
223 -1205 0
223 -1204 0
-224 1206 225 226 0
-224 999 225 226 0
224 -225 0
224 -226 0
224 -999 -1206 0
-225 1001 1002 0
-225 987 1208 0
-225 1002 1208 0
-225 987 1001 0
225 -987 -1002 0
225 -1001 -1208 0
226 -985 -998 0
-226 985 0
-226 998 0
227 986 -1215 0
227 1000 -1207 0
227 1000 -1215 0
227 986 -1207 0
-227 -986 -1000 0
-227 1207 1215 0
-228 1004 1209 0
-228 1003 1210 0
-228 1209 1210 0
-228 1003 1004 0
228 -1003 -1209 0
228 -1004 -1210 0
-229 1203 1222 230 231 0
-229 -1203 -1222 230 231 0
229 -231 0
229 -1203 1222 0
229 -230 0
229 1203 -1222 0
-230 -1211 -1224 221 0
-230 1211 1224 221 0
230 -221 0
230 -1211 1224 0
230 1211 -1224 0
-231 1204 1220 232 234 0
-231 -1204 -1220 232 234 0
231 -234 0
231 -1204 1220 0
231 -232 0
231 1204 -1220 0
-232 -989 -1223 233 0
-232 989 1223 233 0
232 -233 0
232 -989 1223 0
232 989 -1223 0
-233 -988 1057 0
-233 -1205 1221 0
-233 1057 1221 0
-233 -988 -1205 0
233 -1057 1205 0
233 988 -1221 0
-234 988 1205 0
-234 -1057 -1221 0
-234 988 -1057 0
-234 1205 -1221 0
234 -988 1221 0
234 1057 -1205 0
235 236 -240 0
235 1202 -236 -254 0
235 -1202 -236 254 0
-235 236 240 0
-235 -1202 -236 -254 0
-235 1202 -236 254 0
236 164 -167 237 0
-236 -237 0
-236 167 0
-236 -164 0
-237 238 239 0
237 -238 0
237 -239 0
-238 -1157 1161 0
-238 1161 1199 1270 0
238 -1161 0
238 1157 -1270 0
238 1157 -1199 0
239 -135 164 0
-239 135 0
-239 -164 0
-240 238 -241 0
-240 980 -238 0
-240 238 253 0
240 -980 -238 0
240 238 241 -253 0
241 -239 242 252 0
241 -239 -242 -252 0
-241 239 0
-241 -242 252 0
-241 242 -252 0
242 -243 -244 0
-242 243 0
-242 244 0
243 -1170 -138 0
243 -966 138 0
-243 966 138 0
-243 1170 -138 0
244 -245 -251 0
-244 245 0
-244 251 0
245 -246 -250 0
-245 246 0
-245 250 0
246 -247 -249 0
-246 247 0
-246 249 0
-247 138 248 0
-247 1166 -138 0
-247 1165 -138 0
247 138 -248 0
247 -1165 -1166 -138 0
248 -964 -965 0
-248 964 0
-248 965 0
249 -1167 -138 0
249 -963 138 0
-249 963 138 0
-249 1167 -138 0
250 -1168 -138 0
250 -962 138 0
-250 962 138 0
-250 1168 -138 0
251 -1169 -138 0
251 -961 138 0
-251 961 138 0
-251 1169 -138 0
252 -967 138 0
252 -960 -138 0
-252 967 138 0
-252 960 -138 0
-253 1202 239 0
253 -1202 0
253 -239 0
254 -988 -255 0
-254 988 0
-254 255 0
255 -1211 -256 0
-255 1211 0
-255 256 0
256 -989 -1203 -1204 -1205 0
-256 1205 0
-256 989 0
-256 1204 0
-256 1203 0
257 236 -259 0
257 1203 -258 -236 0
257 -1203 258 -236 0
-257 236 259 0
-257 -1203 -258 -236 0
-257 1203 258 -236 0
258 -1204 -1205 0
-258 1204 0
-258 1205 0
259 238 -260 0
259 -981 -238 0
259 238 -261 0
-259 981 -238 0
-259 238 260 261 0
260 -239 -247 249 0
260 -239 247 -249 0
-260 239 0
-260 247 249 0
-260 -247 -249 0
261 -1203 239 0
-261 1203 0
-261 -239 0
-262 -1204 -236 0
-262 236 264 0
-262 236 -263 0
262 1204 -236 0
262 236 263 -264 0
263 982 -238 0
-263 -982 0
-263 238 0
-264 1204 238 239 0
-264 238 -239 -265 0
264 -238 0
264 -1204 239 0
264 -239 265 0
265 -1165 -138 0
-265 1165 0
-265 138 0
266 236 -267 0
266 1204 -1205 -236 0
266 -1204 1205 -236 0
-266 236 267 0
-266 -1204 -1205 -236 0
-266 1204 1205 -236 0
267 238 -268 0
267 -983 -238 0
267 238 -269 0
-267 983 -238 0
-267 238 268 269 0
268 -1165 -239 247 0
268 -1166 -239 247 0
-268 -247 0
-268 239 0
-268 1165 1166 0
269 -1205 239 0
-269 1205 0
-269 -239 0
-270 236 271 0
-270 -236 282 0
-270 -236 281 0
270 236 -271 0
270 -236 -281 -282 0
-271 273 278 0
-271 272 278 0
271 -278 0
271 -272 -273 0
272 238 -239 0
-272 -238 0
-272 239 0
-273 1206 274 0
-273 -138 275 0
-273 -138 274 0
-273 1206 275 0
273 -1206 138 0
273 -274 -275 0
274 245 -251 0
274 -245 251 0
-274 -245 -251 0
-274 245 251 0
275 -138 -276 277 0
-275 138 0
-275 276 0
-275 -277 0
276 243 -244 0
276 -243 244 0
-276 -243 -244 0
-276 243 244 0
277 246 -250 0
277 -246 250 0
-277 -246 -250 0
-277 246 250 0
-278 1206 238 0
-278 -238 279 0
-278 238 -239 0
278 -238 -279 0
278 -1206 238 239 0
-279 1138 280 0
-279 -1140 280 0
-279 1137 280 0
279 -280 0
279 -1137 -1138 1140 0
280 -957 -958 -959 1161 0
-280 959 0
-280 -1161 0
-280 957 0
-280 958 0
281 1211 -256 0
281 -1211 256 0
-281 -1211 -256 0
-281 1211 256 0
282 -283 284 0
-282 283 0
-282 -284 0
283 988 -255 0
283 -988 255 0
-283 -988 -255 0
-283 988 255 0
284 989 -285 0
284 -989 285 0
-284 -989 -285 0
-284 989 285 0
285 -1203 -1204 -1205 0
-285 1203 0
-285 1204 0
-285 1205 0
286 -236 -283 0
286 236 -288 0
286 -236 -287 0
-286 236 288 0
-286 -236 283 287 0
-287 -989 -1211 -285 0
-287 989 1211 285 0
287 -1211 285 0
287 989 -285 0
287 -989 1211 0
288 238 -289 0
288 -238 293 0
288 -238 -292 0
-288 238 289 0
-288 -238 292 -293 0
289 -1207 290 0
289 -239 290 0
-289 -290 0
-289 1207 239 0
290 276 277 -291 0
-290 291 0
-290 -277 0
-290 -276 0
291 -239 274 0
-291 239 0
-291 -274 0
292 1140 -1161 0
292 1138 -1161 0
292 1141 -1161 0
-292 1161 0
-292 -1138 -1140 -1141 0
-293 959 1161 0
-293 -957 1161 0
-293 -958 1161 0
293 -1161 0
293 957 958 -959 0
-294 236 295 0
-294 -236 283 0
-294 -236 -287 0
294 236 -295 0
294 -236 -283 287 0
-295 296 297 0
-295 272 297 0
295 -297 0
295 -272 -296 0
-296 -138 275 0
-296 1208 -274 0
-296 -138 -274 0
-296 1208 275 0
296 274 -275 0
296 -1208 138 0
-297 1208 238 0
-297 -238 298 0
-297 238 -239 0
297 -238 -298 0
297 -1208 238 239 0
-298 1139 299 0
-298 1141 299 0
-298 1138 299 0
298 -299 0
298 -1138 -1139 -1141 0
299 957 -958 -959 1161 0
-299 -957 0
-299 -1161 0
-299 959 0
-299 958 0
-300 -236 -283 0
-300 236 301 0
-300 -236 308 0
300 236 -301 0
300 -236 283 -308 0
-301 302 304 0
-301 272 304 0
301 -304 0
301 -272 -302 0
-302 -1169 1209 0
-302 -138 303 0
-302 1209 303 0
-302 -1169 -138 0
302 -1209 138 0
302 1169 -303 0
303 1170 -138 -277 0
-303 277 0
-303 138 0
-303 -1170 0
-304 1209 238 0
-304 -238 -305 0
-304 238 -239 0
304 -238 305 0
304 -1209 238 239 0
305 1161 -307 0
305 -1138 -307 0
305 306 -307 0
-305 307 0
-305 1138 -1161 -306 0
306 -1140 -1141 0
-306 1140 0
-306 1141 0
-307 957 958 959 1161 0
307 -1161 0
307 -959 0
307 -957 0
307 -958 0
308 -989 1211 285 0
308 989 1211 -285 0
-308 -1211 0
-308 -989 -285 0
-308 989 285 0
-309 -236 -283 0
-309 236 310 0
-309 -236 315 0
309 236 -310 0
309 -236 283 -315 0
-310 311 312 0
-310 272 312 0
310 -312 0
310 -272 -311 0
-311 1210 251 0
-311 -138 303 0
-311 -138 251 0
-311 1210 303 0
311 -1210 138 0
311 -251 -303 0
-312 1210 238 0
-312 -238 313 0
-312 238 -239 0
312 -238 -313 0
312 -1210 238 239 0
-313 1140 314 0
-313 -1138 314 0
-313 1137 314 0
313 -314 0
313 -1137 1138 -1140 0
314 -957 958 959 1161 0
-314 -1161 0
-314 -959 0
-314 957 0
-314 -958 0
315 -1211 -284 0
-315 1211 0
-315 284 0
-316 236 319 0
-316 -236 281 0
-316 236 -317 0
316 -236 -281 0
316 236 317 -319 0
317 1137 -1161 0
317 957 1137 -318 0
-317 -1137 0
-317 -957 1161 0
-317 1161 318 0
318 1157 -1199 0
318 1157 -1270 0
-318 -1157 0
-318 1199 1270 0
-319 1211 238 239 0
-319 238 -239 274 0
319 -238 0
319 -1211 239 0
319 -239 -274 0
-320 1058 -1171 0
-320 1171 1214 321 0
-320 1171 -1214 -321 0
320 -1058 -1171 0
320 1171 1214 -321 0
320 1171 -1214 321 0
321 -137 -322 0
-321 137 0
-321 322 0
322 -1221 -323 0
-322 1221 0
-322 323 0
323 -1224 -324 0
-323 1224 0
-323 324 0
-324 325 -328 0
-324 325 329 0
324 -325 0
324 328 -329 0
325 -1223 326 0
-325 1223 0
-325 -326 0
-326 948 327 0
326 -948 0
326 -327 0
-327 947 1146 0
327 -947 0
327 -1146 0
328 1223 -326 0
-328 -1223 0
-328 326 0
-329 330 332 0
329 -330 0
329 -332 0
330 -1222 -331 0
-330 1222 0
-330 331 0
-331 948 327 0
-331 -948 -327 0
331 -948 327 0
331 948 -327 0
332 -333 -334 0
-332 333 0
-332 334 0
333 -1222 331 0
333 1222 -331 0
-333 1222 331 0
-333 -1222 -331 0
-334 947 1146 0
-334 -947 -1146 1220 0
-334 1057 1220 0
-334 -947 1057 0
334 947 -1057 -1146 0
334 -947 -1057 1146 0
334 -947 -1057 -1220 0
334 947 -1146 -1220 0
-335 364 382 0
-335 -336 -337 382 0
335 -382 0
335 337 -364 0
335 336 -364 0
336 -947 -948 -1146 0
-336 947 0
-336 948 0
-336 1146 0
337 1012 1041 1218 -338 0
-337 338 0
-337 -1218 0
-337 -1012 0
-337 -1041 0
338 -339 349 356 -359 0
-338 359 0
-338 339 0
-338 -356 0
-338 -349 0
339 -340 343 345 347 0
-339 -347 0
-339 340 0
-339 -345 0
-339 -343 0
340 1019 1027 341 -342 0
-340 -1019 0
-340 342 0
-340 -341 0
-340 -1027 0
-341 999 1035 1043 1051 0
341 -1051 0
341 -1043 0
341 -999 0
341 -1035 0
342 1005 1055 -1215 0
-342 1215 0
-342 -1055 0
-342 -1005 0
-343 1039 1047 344 0
343 -344 0
343 -1047 0
343 -1039 0
-344 1015 1023 1031 0
344 -1015 0
344 -1031 0
344 -1023 0
-345 1014 1030 1219 346 0
345 -346 0
345 -1219 0
345 -1014 0
345 -1030 0
-346 1002 1022 0
346 -1002 0
346 -1022 0
-347 1020 1028 1036 348 0
347 -348 0
347 -1036 0
347 -1020 0
347 -1028 0
-348 1003 1007 1044 1052 0
348 -1052 0
348 -1044 0
348 -1003 0
348 -1007 0
-349 350 352 353 354 0
349 -354 0
349 -350 0
349 -353 0
349 -352 0
-350 1016 1024 1054 351 0
350 -351 0
350 -1054 0
350 -1016 0
350 -1024 0
-351 1004 1008 1038 1046 0
351 -1046 0
351 -1038 0
351 -1004 0
351 -1008 0
-352 998 1032 1048 1216 0
352 -1216 0
352 -1048 0
352 -998 0
352 -1032 0
-353 1034 1040 1042 1056 0
353 -1056 0
353 -1042 0
353 -1034 0
353 -1040 0
-354 1018 1026 355 0
354 -355 0
354 -1026 0
354 -1018 0
-355 1001 1006 0
355 -1001 0
355 -1006 0
-356 1029 357 0
356 -1029 0
356 -357 0
-357 1011 1037 1217 358 0
357 -358 0
357 -1217 0
357 -1011 0
357 -1037 0
-358 1000 1045 1053 0
358 -1000 0
358 -1053 0
358 -1045 0
359 -326 360 363 0
359 -326 -362 363 0
-359 326 0
-359 -363 0
-359 -360 362 0
360 -1221 -1223 -1224 -361 0
-360 1224 0
-360 361 0
-360 1221 0
-360 1223 0
-361 1057 1222 0
361 -1057 0
361 -1222 0
362 -1057 -1222 0
-362 1057 0
-362 1222 0
-363 1010 1013 1021 1050 0
363 -1050 0
363 -1021 0
363 -1010 0
363 -1013 0
364 366 -367 0
364 365 -367 0
-364 367 0
-364 -365 -366 0
365 -947 -948 1146 0
-365 947 0
-365 948 0
-365 -1146 0
366 -1041 -338 0
-366 1041 0
-366 338 0
367 1223 377 -381 0
367 368 377 -381 0
-367 381 0
-367 -377 0
-367 -1223 -368 0
-368 -326 369 374 0
-368 998 369 374 0
368 -374 0
368 -369 0
368 -998 326 0
369 -947 -370 371 -372 0
-369 372 0
-369 947 0
-369 370 0
-369 -371 0
370 -1221 -1224 0
-370 1221 0
-370 1224 0
371 1146 -1220 0
371 -1146 1220 0
-371 -1146 -1220 0
-371 1146 1220 0
372 948 -373 0
-372 -948 0
-372 373 0
373 -1057 1222 0
-373 1057 0
-373 -1222 0
-374 1216 375 0
-374 1025 376 0
-374 375 376 0
-374 1025 1216 0
374 -1025 -375 0
374 -1216 -376 0
375 -948 327 0
-375 948 0
-375 -327 0
376 947 948 -1146 0
-376 1146 0
-376 -948 0
-376 -947 0
377 1025 -378 -379 -380 0
-377 -1025 0
-377 380 0
-377 379 0
-377 378 0
378 1017 -1220 -360 0
378 1017 -360 373 0
-378 -1017 0
-378 360 0
-378 1220 -373 0
379 947 -948 -1146 0
-379 1146 0
-379 948 0
-379 -947 0
380 1057 -1220 -1222 0
-380 1222 0
-380 1220 0
-380 -1057 0
381 1154 1171 -138 0
-381 138 0
-381 -1171 0
-381 -1154 0
-382 -383 384 385 0
-382 1215 384 385 0
382 -385 0
382 -384 0
382 -1215 383 0
-383 1171 137 0
383 -1171 0
383 -137 0
384 -1060 -1171 0
384 -1061 -1171 0
384 -1062 -1171 0
-384 1171 0
-384 1060 1061 1062 0
-385 1171 0
-385 1059 1063 -1064 0
385 1064 -1171 0
385 -1063 -1171 0
385 -1059 -1171 0
-386 1216 387 438 0
-386 -383 387 438 0
386 -438 0
386 -387 0
386 -1216 383 0
387 -381 -417 0
387 -381 -388 -413 0
-387 381 0
-387 388 417 0
-387 413 417 0
-388 -389 412 0
-388 390 400 412 0
388 -412 0
388 389 -400 0
388 389 -390 0
-389 1005 1010 1018 1026 0
389 -1026 0
389 -1018 0
389 -1005 0
389 -1010 0
390 -391 -393 -396 -399 0
-390 399 0
-390 391 0
-390 396 0
-390 393 0
391 345 -392 0
-391 -345 0
-391 392 0
392 1012 -1215 1218 0
-392 -1012 0
-392 1215 0
-392 -1218 0
393 394 350 -380 -395 0
-393 -394 0
-393 395 0
-393 380 0
-393 -350 0
394 948 -327 0
-394 -948 0
-394 327 0
395 1032 -1224 0
-395 -1032 0
-395 1224 0
396 -375 397 0
-396 375 0
-396 -397 0
-397 1036 398 0
397 -1036 0
397 -398 0
-398 344 348 0
398 -344 0
398 -348 0
399 -328 343 345 0
-399 328 0
-399 -343 0
-399 -345 0
400 -401 -410 0
400 -403 -408 -410 0
-400 410 0
-400 401 403 0
-400 401 408 0
401 -1215 -328 -379 -402 0
-401 402 0
-401 1215 0
-401 379 0
-401 328 0
402 1032 1220 350 -362 0
-402 -1032 0
-402 362 0
-402 -350 0
-402 -1220 0
-403 404 405 0
-403 328 407 0
-403 404 407 0
-403 328 405 0
403 -328 -404 0
403 -405 -407 0
404 -1220 -362 -365 0
-404 1220 0
-404 362 0
-404 365 0
405 1050 -406 0
-405 -1050 0
-405 406 0
406 -1223 -326 0
-406 1223 0
-406 326 0
407 1220 -336 361 0
-407 -361 0
-407 336 0
-407 -1220 0
408 1042 -1215 1218 -409 0
-408 1215 0
-408 -1218 0
-408 -1042 0
-408 409 0
409 -947 -948 0
-409 947 0
-409 948 0
410 1034 -1224 398 411 0
-410 -1034 0
-410 -411 0
-410 -398 0
-410 1224 0
-411 1039 345 0
411 -1039 0
411 -345 0
412 -1220 1223 326 361 0
-412 -361 0
-412 1220 0
-412 -326 0
-412 -1223 0
413 341 414 357 -415 0
-413 415 0
-413 -341 0
-413 -357 0
-413 -414 0
-414 1019 1027 0
414 -1019 0
414 -1027 0
415 1029 -1221 355 416 0
-415 -1029 0
-415 -416 0
-415 -355 0
-415 1221 0
-416 1013 1021 0
416 -1013 0
416 -1021 0
-417 418 -437 0
-417 418 429 0
-417 376 418 0
417 -418 0
417 -376 -429 437 0
418 -391 -419 425 -426 0
-418 426 0
-418 391 0
-418 -425 0
-418 419 0
-419 420 422 0
-419 -356 423 0
-419 420 423 0
-419 -356 422 0
419 356 -420 0
419 -422 -423 0
420 948 1057 -1222 -421 0
-420 -948 0
-420 421 0
-420 1222 0
-420 -1057 0
421 -947 -1146 1220 0
-421 947 0
-421 1146 0
-421 -1220 0
-422 1223 1224 0
422 -1223 0
422 -1224 0
423 948 -1220 -424 -373 0
-423 -948 0
-423 373 0
-423 424 0
-423 1220 0
424 -947 1146 0
-424 947 0
-424 -1146 0
-425 1047 1055 411 0
425 -411 0
425 -1055 0
425 -1047 0
426 -328 427 398 -428 0
-426 428 0
-426 328 0
-426 -398 0
-426 -427 0
-427 999 1035 1043 0
427 -999 0
427 -1043 0
427 -1035 0
428 1005 1010 355 -370 0
-428 -1005 0
-428 370 0
-428 -355 0
-428 -1010 0
429 -339 -413 -430 435 0
-429 -435 0
-429 339 0
-429 430 0
-429 413 0
430 344 431 -432 -433 0
-430 433 0
-430 -344 0
-430 432 0
-430 -431 0
-431 1013 1021 1029 0
431 -1013 0
431 -1029 0
431 -1021 0
432 1047 1055 -373 0
-432 373 0
-432 -1055 0
-432 -1047 0
433 350 358 -434 0
-433 -350 0
-433 -358 0
-433 434 0
434 1032 1037 1040 -1224 0
-434 1224 0
-434 -1040 0
-434 -1032 0
-434 -1037 0
-435 411 436 0
435 -411 0
435 -436 0
-436 1012 1220 347 0
436 -347 0
436 -1220 0
436 -1012 0
-437 1005 1223 355 0
437 -355 0
437 -1223 0
437 -1005 0
438 -1059 1063 -439 -440 0
-438 440 0
-438 1059 0
-438 439 0
-438 -1063 0
439 1064 -1171 0
-439 -1064 0
-439 1171 0
440 1060 -1061 -1062 -1171 0
-440 -1060 0
-440 1171 0
-440 1062 0
-440 1061 0
-441 1217 442 456 0
-441 -383 442 456 0
441 -456 0
441 -442 0
441 -1217 383 0
442 -381 -443 0
442 -381 -452 0
442 -381 -449 0
-442 381 0
-442 443 449 452 0
443 -1215 436 -447 0
443 -1215 436 -444 0
-443 1215 0
-443 -436 0
-443 444 447 0
444 344 -379 -445 -446 0
-444 446 0
-444 -344 0
-444 445 0
-444 379 0
445 1224 -328 -415 425 0
-445 -1224 0
-445 -425 0
-445 415 0
-445 328 0
446 1037 -362 0
-446 -1037 0
-446 362 0
447 -376 -399 -432 -448 0
-447 448 0
-447 376 0
-447 432 0
-447 399 0
448 -1221 1224 355 0
-448 1221 0
-448 -1224 0
-448 -355 0
449 -448 -450 0
449 -1223 -407 -448 0
-449 448 0
-449 407 450 0
-449 1223 450 0
450 416 -451 0
450 -328 416 -420 0
-450 -416 0
-450 420 451 0
-450 328 451 0
451 -1221 1223 1224 -404 0
-451 404 0
-451 -1224 0
-451 1221 0
-451 -1223 0
-452 454 455 0
-452 445 453 0
-452 445 455 0
-452 453 454 0
452 -445 -454 0
452 -453 -455 0
453 -1221 1223 1224 0
-453 1221 0
-453 -1224 0
-453 -1223 0
454 -380 -396 0
-454 380 0
-454 396 0
-455 412 423 0
-455 -355 412 0
-455 -1013 412 0
455 -412 0
455 1013 355 -423 0
456 1059 1063 -439 -440 0
-456 -1059 0
-456 440 0
-456 439 0
-456 -1063 0
-457 1218 458 467 0
-457 -383 458 467 0
457 -467 0
457 -458 0
457 -1218 383 0
458 -381 -459 0
458 -337 -365 -381 0
-458 381 0
-458 337 459 0
-458 365 459 0
-459 379 460 462 0
-459 366 460 462 0
459 -462 0
459 -460 0
459 -366 -379 0
460 349 -405 -429 -461 0
-460 461 0
-460 -349 0
-460 429 0
-460 405 0
461 1034 -376 389 0
-461 -389 0
-461 376 0
-461 -1034 0
-462 406 464 465 0
-462 463 464 465 0
462 -465 0
462 -464 0
462 -406 -463 0
-463 375 378 0
-463 1033 420 0
-463 375 420 0
-463 1033 378 0
463 -1033 -375 0
463 -378 -420 0
464 1221 1224 -328 -407 0
-464 -1221 0
-464 407 0
-464 328 0
-464 -1224 0
-465 1216 466 0
-465 325 466 0
465 -466 0
465 -1216 -325 0
466 948 -1017 -1223 -424 0
-466 -948 0
-466 424 0
-466 1223 0
-466 1017 0
467 385 -468 0
-467 -385 0
-467 468 0
468 1060 1061 -1062 -1171 0
-468 -1060 0
-468 1171 0
-468 1062 0
-468 -1061 0
-469 1219 470 489 0
-469 -383 470 489 0
469 -489 0
469 -470 0
469 -1219 383 0
470 -381 -471 0
470 -381 -484 0
470 -381 -477 0
-470 381 0
-470 471 477 484 0
471 -472 -475 0
471 -325 -472 -473 0
-471 472 0
-471 473 475 0
-471 325 475 0
472 1221 -392 0
-472 -1221 0
-472 392 0
473 1036 1044 -1220 474 0
-473 -1036 0
-473 -474 0
-473 1220 0
-473 -1044 0
-474 1003 1052 1224 361 0
474 -361 0
474 -1224 0
474 -1003 0
474 -1052 0
475 -1224 -407 -476 0
-475 1224 0
-475 407 0
-475 476 0
476 -328 329 0
-476 328 0
-476 -329 0
477 -406 -478 0
477 397 -406 -482 0
-477 406 0
-477 478 482 0
-477 -397 478 0
478 -454 481 0
478 -479 -480 481 0
-478 -481 0
-478 454 479 0
-478 454 480 0
-479 -1023 423 0
-479 420 423 0
479 -423 0
479 1023 -420 0
480 1015 1020 1028 -392 0
-480 392 0
-480 -1028 0
-480 -1015 0
-480 -1020 0
-481 1003 1007 1221 1224 0
481 -1224 0
481 -1221 0
481 -1003 0
481 -1007 0
482 1224 483 -404 -472 0
-482 -1224 0
-482 472 0
-482 404 0
-482 -483 0
-483 1039 1047 0
483 -1039 0
483 -1047 0
484 436 -487 0
484 -485 -486 436 0
-484 -436 0
-484 486 487 0
-484 485 487 0
485 -1215 -379 0
-485 1215 0
-485 379 0
-486 1047 1055 0
486 -1047 0
486 -1055 0
487 -1223 -373 -376 -488 0
-487 488 0
-487 1223 0
-487 376 0
-487 373 0
488 1012 -1215 1221 1224 0
-488 1215 0
-488 -1224 0
-488 -1012 0
-488 -1221 0
489 1063 -1064 -490 -468 0
-489 -1063 0
-489 468 0
-489 490 0
-489 1064 0
490 -1059 -1171 0
-490 1059 0
-490 1171 0
-491 1220 492 493 0
-491 -383 492 493 0
491 -493 0
491 -492 0
491 -1220 383 0
492 -1062 -1171 0
-492 1062 0
-492 1171 0
493 1146 -1220 -381 0
493 -1146 1220 -381 0
-493 381 0
-493 1146 1220 0
-493 -1146 -1220 0
-494 381 495 0
-494 -1221 -323 495 0
-494 1221 323 495 0
494 -495 0
494 1221 -323 -381 0
494 -1221 323 -381 0
-495 1061 -1171 0
-495 1171 -137 0
-495 1171 1221 0
495 -1061 -1171 0
495 1171 -1221 137 0
-496 1222 497 498 0
-496 -383 497 498 0
496 -498 0
496 -497 0
496 -1222 383 0
497 -1063 -1171 0
-497 1063 0
-497 1171 0
498 -333 334 -381 0
498 333 -334 -381 0
-498 381 0
-498 -333 -334 0
-498 333 334 0
-499 1223 439 500 0
-499 -383 439 500 0
499 -500 0
499 -439 0
499 -1223 383 0
500 325 -328 -329 -381 0
500 325 328 329 -381 0
-500 381 0
-500 -328 329 0
-500 -325 0
-500 328 -329 0
-501 1224 490 502 0
-501 -383 490 502 0
501 -502 0
501 -490 0
501 -1224 383 0
502 -1224 324 -381 0
502 1224 -324 -381 0
-502 381 0
-502 -1224 -324 0
-502 1224 324 0
503 -137 336 0
503 135 -229 0
503 -229 336 0
503 -137 135 0
-503 -135 -336 0
-503 137 229 0
-504 1161 1213 0
504 -1161 0
504 -1213 0
505 1278 -1280 95 0
505 -1278 95 -506 0
-505 -95 0
-505 -1278 506 0
-505 1278 1280 0
-506 507 508 509 510 0
506 -510 0
506 -507 0
506 -509 0
506 -508 0
-507 100 -101 0
-507 1283 1287 0
-507 1287 -101 0
-507 1283 100 0
507 -1287 -100 0
507 -1283 101 0
-508 103 104 0
-508 1280 1284 0
-508 1284 104 0
-508 1280 103 0
508 -1284 -103 0
508 -1280 -104 0
-509 106 0
-509 1286 1309 0
-509 1282 -1309 0
509 -1286 1309 -106 0
509 -1282 -1309 -106 0
-510 108 0
-510 1285 1309 0
-510 1281 -1309 0
510 -1285 1309 -108 0
510 -1281 -1309 -108 0
-511 1231 512 0
-511 -121 512 0
511 -512 0
511 -1231 121 0
512 -506 -519 0
512 -111 -513 -519 0
-512 519 0
-512 506 513 0
-512 111 506 0
-513 98 514 517 518 0
513 -518 0
513 -98 0
513 -517 0
513 -514 0
-514 100 515 516 0
-514 1115 515 516 0
514 -515 0
514 -516 0
514 -1115 -100 0
-515 116 113 0
-515 1114 1118 0
-515 1118 113 0
-515 1114 116 0
515 -1118 -116 0
515 -1114 -113 0
516 -1120 -118 0
-516 1120 0
-516 118 0
-517 -101 104 0
-517 1113 1117 0
-517 1117 104 0
-517 1113 -101 0
517 -1117 101 0
517 -1113 -104 0
-518 1119 103 0
-518 1116 119 0
-518 103 119 0
-518 1116 1119 0
518 -1116 -103 0
518 -1119 -119 0
519 1157 -146 0
-519 -1157 0
-519 146 0
-520 1161 96 148 521 0
520 -521 0
520 -148 0
520 -1161 0
520 -96 0
521 1157 -1255 0
-521 -1157 0
-521 1255 0
522 -506 -513 -519 0
-522 519 0
-522 513 0
-522 506 0
523 121 -524 0
523 -1233 -3 121 0
-523 -121 0
-523 3 524 0
-523 1233 524 0
524 130 -147 525 526 0
-524 -526 0
-524 -130 0
-524 -525 0
-524 147 0
-525 1157 96 0
525 -1157 0
525 -96 0
-526 1236 1238 0
-526 -930 1236 0
526 -1236 0
526 930 -1238 0
527 121 -528 0
527 3 121 -523 0
-527 -121 0
-527 -3 528 0
-527 523 528 0
-528 1212 1234 0
-528 1212 -529 0
528 -1212 0
528 -1234 529 0
529 -1240 3 0
-529 1240 0
-529 -3 0
530 -1233 3 0
-530 1233 0
-530 -3 0
531 -1065 -1157 0
531 -1157 -1238 0
-531 1157 0
-531 1065 1238 0
532 -1150 -1229 0
-532 1150 0
-532 1229 0
533 1236 -1238 0
533 -1150 -1229 1236 0
-533 -1236 0
-533 1229 1238 0
-533 1150 1238 0
534 1157 -536 0
534 1157 -50 -535 0
-534 -1157 0
-534 50 536 0
-534 535 536 0
535 -1239 96 0
-535 1239 0
-535 -96 0
536 159 -537 539 0
-536 -159 0
-536 -539 0
-536 537 0
-537 160 538 0
-537 1201 -538 0
537 -160 538 0
537 -1201 -538 0
538 -1345 140 0
-538 1345 0
-538 -140 0
539 -538 -540 0
-539 538 0
-539 540 0
-540 1199 1347 162 0
540 -162 0
540 -1347 0
540 -1199 0
541 -1212 121 0
541 121 -530 0
541 121 -542 0
-541 -121 0
-541 1212 530 542 0
542 -1241 529 0
-542 1241 0
-542 -529 0
543 -956 -1229 0
543 1229 -1242 0
-543 956 -1229 0
-543 1229 1242 0
544 -949 -1229 0
544 1229 -1243 0
-544 949 -1229 0
-544 1229 1243 0
-545 1241 3 0
-545 1244 -3 0
-545 1066 3 0
545 -1244 -3 0
545 -1066 -1241 3 0
-546 1157 1246 0
546 -1157 0
546 -1246 0
-547 1157 1247 0
547 -1157 0
547 -1247 0
-548 1157 1248 0
548 -1157 0
548 -1248 0
-549 1157 1173 0
549 -1157 0
549 -1173 0
550 -931 -142 0
-550 931 0
-550 142 0
-551 -3 552 0
-551 1244 1251 552 0
551 -552 0
551 -1251 3 0
551 -1244 3 0
552 -1175 530 0
-552 1175 0
-552 -530 0
-553 1241 3 0
-553 1251 -3 0
-553 1067 3 0
553 -1251 -3 0
553 -1067 -1241 3 0
554 -1077 -1237 0
554 1237 -1252 0
-554 1077 -1237 0
-554 1237 1252 0
555 -1253 -159 0
555 159 -556 0
-555 1253 -159 0
-555 159 556 0
556 -1254 -537 0
556 932 -537 0
-556 537 0
-556 -932 1254 0
-557 1161 1254 0
-557 1161 525 -558 0
557 -1161 0
557 -1254 -525 0
557 -1254 558 0
558 -1201 51 0
-558 1201 0
-558 -51 0
559 1157 -1270 0
-559 -1157 0
-559 1270 0
560 -933 -561 -564 0
560 -933 561 564 0
-560 933 0
-560 561 -564 0
-560 -561 564 0
-561 -1081 -562 0
-561 1081 562 0
561 1081 -562 0
561 -1081 562 0
562 -1263 -563 0
-562 1263 0
-562 563 0
563 -1261 -1262 0
-563 1261 0
-563 1262 0
564 -1080 565 0
564 1080 -565 0
-564 1080 565 0
-564 -1080 -565 0
-565 1079 -566 0
-565 -566 567 0
-565 1079 567 0
565 566 -567 0
565 -1079 566 0
565 -1079 -567 0
566 1263 -563 0
566 -1263 563 0
-566 -1263 -563 0
-566 1263 563 0
-567 1142 -568 0
-567 1078 1142 0
-567 1078 -568 0
567 -1078 -1142 0
567 -1142 568 0
567 -1078 568 0
568 1261 -1262 0
568 -1261 1262 0
-568 -1261 -1262 0
-568 1261 1262 0
-569 955 -1154 0
-569 1154 1258 570 0
-569 1154 -1258 -570 0
569 -955 -1154 0
569 1154 1258 -570 0
569 1154 -1258 570 0
570 -1144 -560 0
-570 1144 0
-570 560 0
571 -954 -572 0
571 1154 -572 0
-571 572 0
-571 954 -1154 0
-572 1154 573 577 0
-572 1154 -573 -575 0
572 -1154 0
572 -573 575 0
572 573 -577 0
573 -946 -574 0
-573 946 0
-573 574 0
574 -945 -560 0
-574 945 0
-574 560 0
-575 -1144 -576 0
-575 1144 1259 0
575 1144 -1259 0
575 -1144 576 0
576 1258 -1259 0
576 -1258 1259 0
-576 -1258 -1259 0
-576 1258 1259 0
-577 578 581 0
-577 1258 -1259 -578 0
-577 -1258 1259 -578 0
577 578 -581 0
577 -1258 -1259 -578 0
577 1258 1259 -578 0
578 -1144 -579 0
-578 1144 0
-578 579 0
579 -946 -580 0
-579 946 0
-579 580 0
580 945 -560 0
-580 -945 0
-580 560 0
-581 -575 583 0
-581 582 583 0
581 -583 0
581 575 -582 0
582 946 -574 0
-582 -946 0
-582 574 0
583 576 582 -584 0
583 -1259 582 584 0
-583 -582 0
-583 -576 -584 0
-583 1259 584 0
584 -1144 -585 0
-584 1144 0
-584 585 0
585 946 -580 0
-585 -946 0
-585 580 0
-586 953 -1154 0
-586 1154 -601 0
-586 1154 587 0
586 -953 -1154 0
586 1154 -587 601 0
-587 573 589 0
-587 1144 588 589 0
587 -589 0
587 -573 -588 0
587 -1144 -573 0
588 1259 -1260 0
588 -1259 1260 0
-588 -1259 -1260 0
-588 1259 1260 0
589 573 578 -592 0
589 573 -578 -590 0
-589 -573 0
-589 -578 590 0
-589 578 592 0
590 -1260 591 0
590 1260 -591 0
-590 1260 591 0
-590 -1260 -591 0
-591 1258 1259 0
591 -1258 0
591 -1259 0
592 1260 -593 0
592 593 594 -598 0
-592 -1260 -593 0
-592 593 598 0
-592 593 -594 0
593 1144 -579 0
-593 -1144 0
-593 579 0
594 -595 -597 0
-594 595 0
-594 597 0
595 1260 -596 0
595 -1260 596 0
-595 -1260 -596 0
-595 1260 596 0
596 -1258 -1259 0
-596 1258 0
-596 1259 0
597 -1144 -582 0
-597 1144 0
-597 582 0
-598 582 599 0
-598 1144 -588 599 0
598 -599 0
598 -582 588 0
598 -1144 -582 0
599 -1260 -591 600 0
599 -1260 584 600 0
599 1260 591 -584 600 0
-599 1260 584 0
-599 1260 -591 0
-599 -600 0
-599 -1260 591 -584 0
600 1144 -582 0
-600 -1144 0
-600 582 0
601 595 -602 0
-601 -595 0
-601 602 0
602 -1144 -573 0
-602 1144 0
-602 573 0
603 -952 -1154 0
603 1154 -616 0
603 1154 -604 0
-603 952 -1154 0
-603 1154 604 616 0
604 -605 -606 0
604 573 -606 0
-604 606 0
-604 -573 605 0
605 1144 1259 -1261 0
605 1144 1260 -1261 0
605 1144 -1259 -1260 1261 0
-605 1259 1261 0
-605 1260 1261 0
-605 -1144 0
-605 -1259 -1260 -1261 0
-606 -607 614 615 0
-606 608 614 615 0
606 -615 0
606 -614 0
606 607 -608 0
607 -1144 -579 0
607 1260 1261 -579 0
607 -1260 -1261 -579 0
-607 579 0
-607 1144 1260 -1261 0
-607 1144 -1260 1261 0
-608 -582 610 0
-608 1261 609 610 0
-608 -1261 -609 610 0
608 -610 0
608 1261 582 -609 0
608 -1261 582 609 0
609 1144 -585 0
609 -1260 -585 0
609 -591 -585 0
-609 585 0
-609 -1144 1260 591 0
-610 600 612 0
-610 1261 611 612 0
-610 -1261 -611 612 0
610 -612 0
610 1261 -611 -600 0
610 -1261 611 -600 0
-611 1259 1260 0
611 -1259 0
611 -1260 0
-612 593 613 0
-612 593 597 0
612 -593 0
612 -597 -613 0
613 -1260 1261 0
613 1261 -596 0
613 1260 -1261 596 0
-613 -1260 -1261 0
-613 -1261 -596 0
-613 1260 1261 596 0
614 1260 -1261 -578 0
614 -1261 -578 591 0
614 -1260 1261 -578 -591 0
-614 1261 591 0
-614 1260 1261 0
-614 578 0
-614 -1260 -1261 -591 0
615 1144 -573 0
-615 -1144 0
-615 573 0
616 -1261 -602 618 0
616 -617 -602 618 0
-616 602 0
-616 -618 0
-616 1261 617 0
617 -1260 -596 0
-617 1260 0
-617 596 0
618 -1258 -1259 -619 0
-618 1258 0
-618 1259 0
-618 619 0
619 -1260 -1261 0
-619 1260 0
-619 1261 0
620 -951 -621 0
620 1154 -621 0
-620 621 0
-620 951 -1154 0
-621 1154 -602 637 0
-621 1154 602 622 0
621 -1154 0
621 -602 -637 0
621 602 -622 0
-622 623 -635 0
-622 -615 623 0
-622 623 625 0
622 -623 0
622 615 -625 635 0
623 -1262 -573 624 0
623 -568 -573 -624 0
-623 573 0
-623 568 -624 0
-623 1262 624 0
624 -1259 -1260 0
-624 1259 0
-624 1260 0
-625 579 626 0
-625 1144 626 633 0
625 -626 0
625 -579 -633 0
625 -1144 -579 0
626 593 -627 630 0
626 593 -628 630 0
-626 -593 0
-626 -630 0
-626 627 628 0
627 -1262 600 609 0
627 -568 600 -609 0
-627 -600 0
-627 568 -609 0
-627 1262 609 0
-628 582 0
-628 1144 -1262 -629 0
-628 1144 1262 629 0
628 -1144 -582 0
628 1262 -582 -629 0
628 -1262 -582 629 0
629 -1260 -1261 0
629 -1259 -1261 0
-629 1261 0
-629 1259 1260 0
630 1262 -597 631 0
630 -1262 -597 -631 0
-630 597 0
-630 -1262 631 0
-630 1262 -631 0
631 -1261 -632 0
-631 1261 0
-631 632 0
-632 1260 596 0
632 -1260 0
632 -596 0
633 -1262 634 0
633 -619 634 0
-633 -634 0
-633 1262 619 0
634 -1260 -563 0
-634 1260 0
-634 563 0
635 568 -578 -636 0
635 1262 -578 636 0
-635 578 0
-635 -1262 636 0
-635 -568 -636 0
636 -1260 -591 0
-636 1260 0
-636 591 0
637 -568 -617 0
637 -1262 617 0
-637 1262 617 0
-637 568 -617 0
-638 950 -1154 0
-638 1154 639 647 0
638 -950 -1154 0
638 1154 -647 0
638 1154 -639 0
-639 -1144 -573 0
-639 573 641 0
-639 -573 640 0
639 573 -641 0
639 1144 -573 -640 0
640 -566 -624 0
640 -1263 624 0
-640 1263 624 0
-640 566 -624 0
-641 -579 642 0
-641 579 -645 0
-641 579 644 0
641 -579 -642 0
641 579 -644 645 0
-642 -1144 643 0
-642 1263 634 643 0
-642 -1263 -634 643 0
642 -643 0
642 1144 1263 -634 0
642 1144 -1263 634 0
643 -1144 -1263 636 0
643 -1144 -566 -636 0
-643 1144 0
-643 1263 636 0
-643 566 -636 0
-644 566 582 -609 0
-644 1263 582 609 0
644 -582 0
644 -1263 609 0
644 -566 -609 0
645 1263 -582 646 0
645 566 -582 -646 0
-645 582 0
-645 -566 -646 0
-645 -1263 646 0
-646 1259 1260 0
-646 -1144 1258 1260 0
646 -1260 0
646 -1258 -1259 0
646 1144 -1259 0
647 -1263 -602 648 0
647 -617 -602 648 0
-647 602 0
-647 -648 0
-647 1263 617 0
648 -1258 -649 0
-648 1258 0
-648 649 0
649 566 -624 0
-649 -566 0
-649 624 0
650 -935 -560 0
-650 935 0
-650 560 0
651 1186 1265 652 -650 0
-651 -1186 0
-651 650 0
-651 -652 0
-651 -1265 0
-652 1154 1171 0
652 -1154 0
652 -1171 0
653 -936 -1272 0
-653 936 0
-653 1272 0
-654 1189 1267 0
-654 -936 1189 -1272 0
654 -1189 0
654 -1267 1272 0
654 936 -1267 0
655 653 -654 656 -657 0
-655 -653 0
-655 657 0
-655 -656 0
-655 654 0
-656 1172 1188 1268 0
656 -1172 0
656 -1268 0
656 -1188 0
657 -937 1266 0
-657 937 0
-657 -1266 0
658 121 -550 656 659 0
-658 -659 0
-658 -121 0
-658 -656 0
-658 550 0
-659 1082 1158 1159 1160 0
659 -1160 0
659 -1159 0
659 -1082 0
659 -1158 0
660 1157 -1178 0
-660 -1157 0
-660 1178 0
-661 1157 1272 0
-661 -936 1157 0
-661 1157 -1160 0
661 -1157 0
661 936 1160 -1272 0
662 -1085 -1237 0
662 1237 -1273 0
-662 1085 -1237 0
-662 1237 1273 0
663 -1087 -1237 0
663 1237 -1274 0
-663 1087 -1237 0
-663 1237 1274 0
664 -1089 -1237 0
664 1237 -1275 0
-664 1089 -1237 0
-664 1237 1275 0
665 -1092 -1237 0
665 1237 -1276 0
-665 1092 -1237 0
-665 1237 1276 0
-666 -1085 -1237 0
-666 1237 1277 0
666 1085 -1237 0
666 1237 -1277 0
-667 1278 668 0
-667 159 668 0
667 -668 0
667 -1278 -159 0
668 -537 -669 0
-668 537 0
-668 669 0
669 -932 1254 159 0
-669 932 0
-669 -159 0
-669 -1254 0
670 -1280 671 674 0
-670 1280 0
-670 -671 0
-670 -674 0
671 -672 96 0
671 96 -673 0
671 -59 96 0
-671 -96 0
-671 59 672 673 0
672 1143 -1288 0
672 -1288 -1307 0
-672 1288 0
-672 -1143 1307 0
673 -1108 -1289 0
673 1143 -1289 0
-673 1289 0
-673 1108 -1143 0
-674 1157 3 0
674 -1157 0
674 -3 0
-675 1280 676 0
-675 3 676 0
675 -676 0
675 -1280 -3 0
676 -671 674 0
-676 671 0
-676 -674 0
-677 1281 678 0
-677 3 678 0
677 -678 0
677 -1281 -3 0
678 674 -679 0
-678 -674 0
-678 679 0
679 -64 96 0
679 96 -681 0
679 -680 96 0
-679 -96 0
-679 680 64 681 0
680 -1288 -1304 0
-680 1288 0
-680 1304 0
681 -1289 -1305 0
-681 1289 0
-681 1305 0
-682 1282 683 0
-682 3 683 0
682 -683 0
682 -1282 -3 0
683 674 -684 0
-683 -674 0
-683 684 0
684 -68 96 0
684 96 -686 0
684 -685 96 0
-684 -96 0
-684 685 68 686 0
685 -1288 -1301 0
-685 1288 0
-685 1301 0
686 -1289 -1302 0
-686 1289 0
-686 1302 0
-687 1283 688 0
-687 3 688 0
687 -688 0
687 -1283 -3 0
688 674 -689 0
-688 -674 0
-688 689 0
689 -72 96 0
689 96 -691 0
689 -690 96 0
-689 -96 0
-689 690 72 691 0
690 -1106 -1288 0
-690 1106 0
-690 1288 0
691 -1107 -1289 0
-691 1107 0
-691 1289 0
-692 1284 693 0
-692 3 693 0
692 -693 0
692 -1284 -3 0
693 674 -694 0
-693 -674 0
-693 694 0
694 -76 96 0
694 96 -696 0
694 -695 96 0
-694 -96 0
-694 695 76 696 0
695 -1105 -1288 0
-695 1105 0
-695 1288 0
696 -1289 -1298 0
-696 1289 0
-696 1298 0
-697 1285 698 0
-697 3 698 0
697 -698 0
697 -1285 -3 0
698 674 -699 0
-698 -674 0
-698 699 0
699 -80 96 0
699 96 -701 0
699 -700 96 0
-699 -96 0
-699 700 80 701 0
700 -1103 -1288 0
-700 1103 0
-700 1288 0
701 -1104 -1289 0
-701 1104 0
-701 1289 0
-702 1286 703 0
-702 3 703 0
702 -703 0
702 -1286 -3 0
703 674 -704 0
-703 -674 0
-703 704 0
704 -84 96 0
704 96 -706 0
704 -705 96 0
-704 -96 0
-704 705 84 706 0
705 -1102 -1288 0
-705 1102 0
-705 1288 0
706 -1289 -1295 0
-706 1289 0
-706 1295 0
-707 1287 708 0
-707 3 708 0
707 -708 0
707 -1287 -3 0
708 674 -709 0
-708 -674 0
-708 709 0
709 -88 96 0
709 96 -711 0
709 -710 96 0
-709 -96 0
-709 710 88 711 0
710 -1099 -1288 0
-710 1099 0
-710 1288 0
711 -1289 -1290 0
-711 1289 0
-711 1290 0
712 1157 -715 0
712 1157 -159 -713 0
-712 -1157 0
-712 159 715 0
-712 713 715 0
-713 529 -714 0
-713 1294 -529 0
-713 1288 529 0
713 -1294 -529 0
713 -1288 529 714 0
714 1192 -1199 0
-714 -1192 0
-714 1199 0
715 147 -716 0
-715 -147 0
-715 716 0
716 -717 -669 0
716 -669 718 -719 0
-716 669 0
-716 717 719 0
-716 717 -718 0
717 1190 -1200 -140 0
717 -1200 1345 140 0
-717 1200 0
-717 -1190 -140 0
-717 -1345 140 0
718 -1101 1156 0
718 1156 -140 0
-718 -1156 0
-718 1101 140 0
719 -1201 540 0
-719 1201 0
-719 -540 0
-720 721 723 0
-720 12 -54 723 0
720 -723 0
720 -12 -721 0
720 54 -721 0
721 1348 -722 0
721 1243 -722 0
-721 722 0
-721 -1243 -1348 0
722 -1293 3 0
-722 1293 0
-722 -3 0
723 -1289 724 -725 727 0
-723 725 0
-723 -727 0
-723 1289 0
-723 -724 0
-724 -1192 529 0
-724 1199 529 0
724 -529 0
724 1192 -1199 0
725 1157 -726 722 0
-725 -1157 0
-725 -722 0
-725 726 0
-726 1212 159 0
726 -1212 0
726 -159 0
727 -1100 -3 0
-727 1100 0
-727 3 0
-728 729 731 0
-728 1290 734 0
-728 729 734 0
-728 1290 731 0
728 -1290 -729 0
728 -731 -734 0
729 -726 730 0
-729 726 0
-729 -730 0
-730 -3 0
-730 1240 1293 0
730 -1240 3 0
730 -1293 3 0
731 732 -733 0
-731 -732 0
-731 733 0
-732 -1240 0
-732 1135 1354 0
732 -1135 1240 0
732 1240 -1354 0
733 -1133 1134 1136 1240 0
-733 -1240 0
-733 -1136 0
-733 1133 0
-733 -1134 0
734 735 -736 751 0
734 733 -736 751 0
-734 736 0
-734 -751 0
-734 -733 -735 0
735 1135 1240 -1354 0
-735 1354 0
-735 -1240 0
-735 -1135 0
736 -1240 -745 746 0
736 737 -745 746 0
-736 -746 0
-736 745 0
-736 1240 -737 0
-737 -738 739 0
-737 739 -744 0
-737 1136 739 0
737 -739 0
737 -1136 738 744 0
738 -1133 1134 0
-738 1133 0
-738 -1134 0
739 -1135 -741 0
739 -1135 1136 740 0
-739 1135 0
-739 -1136 741 0
-739 -740 741 0
740 -1133 -1134 0
-740 1133 0
-740 1134 0
741 -1354 -743 0
741 -1136 742 -743 0
741 1136 -742 -743 0
-741 743 0
-741 1136 1354 742 0
-741 -1136 1354 -742 0
-742 1133 1134 0
742 -1133 0
742 -1134 0
-743 -1133 -1136 0
-743 1133 1136 0
-743 -1240 0
-743 -1133 1134 0
743 1133 -1136 1240 0
743 -1133 -1134 1136 1240 0
744 1133 -1135 0
744 -1135 1354 0
-744 1135 0
-744 -1133 -1354 0
745 -726 -730 0
-745 726 0
-745 730 0
-746 747 748 750 0
-746 748 735 750 0
746 -750 0
746 -748 0
746 -747 -735 0
747 -1133 -1134 1136 1240 0
-747 1134 0
-747 -1240 0
-747 1133 0
-747 -1136 0
748 1133 -1134 -1136 -749 0
748 -1133 1134 -1136 -749 0
-748 749 0
-748 1133 1134 0
-748 1136 0
-748 -1133 -1134 0
749 -1135 1240 1354 0
-749 1135 0
-749 -1354 0
-749 -1240 0
750 1135 -1136 1240 -738 0
-750 1136 0
-750 -1240 0
-750 -1135 0
-750 738 0
751 732 -747 0
-751 -732 0
-751 747 0
-752 722 725 0
-752 1291 722 0
-752 -724 722 0
752 -722 0
752 -1291 724 -725 0
-753 729 754 0
-753 1292 757 0
-753 729 757 0
-753 1292 754 0
753 -1292 -729 0
753 -754 -757 0
754 755 -756 0
-754 -755 0
-754 756 0
-755 -1240 0
-755 1351 1353 0
755 1240 -1351 0
755 1240 -1353 0
756 1240 -1349 1350 1352 0
-756 1349 0
-756 -1352 0
-756 -1240 0
-756 -1350 0
757 -758 776 0
-757 758 0
-757 -776 0
758 -759 775 0
-758 759 0
-758 -775 0
759 760 -763 0
-759 -760 0
-759 763 0
760 -761 -762 0
-760 761 0
-760 762 0
761 1240 -1349 -1350 1352 0
-761 -1240 0
-761 -1352 0
-761 1350 0
-761 1349 0
762 1240 1351 -1353 0
-762 1353 0
-762 -1351 0
-762 -1240 0
763 -1240 -745 773 0
763 -745 764 773 0
-763 745 0
-763 -773 0
-763 1240 -764 0
-764 1353 765 771 0
-764 765 770 771 0
764 -771 0
764 -765 0
764 -1353 -770 0
765 -1351 -768 0
765 -1351 1353 766 0
-765 1351 0
-765 -1353 768 0
-765 -766 768 0
766 761 -767 0
766 -1240 -1352 761 0
-766 -761 0
-766 1240 767 0
-766 1352 767 0
-767 1349 1350 0
767 -1349 0
767 -1350 0
-768 756 769 0
768 -756 0
768 -769 0
769 -1240 -1350 0
769 1349 -1350 1352 0
-769 1350 0
-769 1240 -1352 0
-769 1240 -1349 0
-770 -1349 1351 0
-770 1351 1352 0
-770 -1349 1350 0
-770 1349 -1350 1352 0
770 1349 -1352 0
770 -1349 -1350 -1351 0
770 1349 1350 -1351 0
771 -1352 -767 772 0
-771 1352 0
-771 -772 0
-771 767 0
772 -1349 -1351 -1353 0
772 -1349 -1350 -1351 0
-772 1349 0
-772 1351 0
-772 1350 1353 0
773 755 -774 0
-773 -755 0
-773 774 0
774 1240 -1352 767 0
-774 -767 0
-774 1352 0
-774 -1240 0
775 755 -761 0
-775 -755 0
-775 761 0
776 -756 -762 0
-776 756 0
-776 762 0
777 121 -778 0
777 -1293 9 121 0
-777 -121 0
-777 1293 778 0
-777 -9 778 0
-778 1094 530 0
-778 1236 530 0
778 -530 0
778 -1094 -1236 0
-779 147 780 0
-779 716 780 0
779 -780 0
779 -147 -716 0
780 -1192 -1294 -159 0
780 1199 -1294 -159 0
-780 159 0
-780 1294 0
-780 1192 -1199 0
-781 729 736 0
-781 1295 751 0
-781 729 751 0
-781 1295 736 0
781 -1295 -729 0
781 -736 -751 0
-782 729 759 0
-782 1296 775 0
-782 729 775 0
-782 1296 759 0
782 -1296 -729 0
782 -759 -775 0
-783 729 758 0
-783 1297 776 0
-783 729 776 0
-783 1297 758 0
783 -1297 -729 0
783 -758 -776 0
-784 729 785 0
-784 1298 786 0
-784 729 786 0
-784 1298 785 0
784 -1298 -729 0
784 -785 -786 0
785 731 -734 0
-785 -731 0
-785 734 0
786 -735 -787 0
-786 735 0
-786 787 0
787 1133 -1134 1136 1240 0
-787 1134 0
-787 -1240 0
-787 -1133 0
-787 -1136 0
-788 729 789 0
-788 1299 790 0
-788 729 790 0
-788 1299 789 0
788 -1299 -729 0
788 -789 -790 0
789 754 -757 0
-789 -754 0
-789 757 0
790 -762 -769 0
-790 762 0
-790 769 0
-791 729 760 0
-791 1300 763 0
-791 729 763 0
-791 1300 760 0
791 -1300 -729 0
791 -760 -763 0
-792 159 794 0
-792 1301 -159 0
-792 159 793 0
792 -1301 -159 0
792 159 -793 -794 0
-793 938 1254 0
-793 1086 -1254 0
793 -1086 -1254 0
793 -938 1254 0
794 940 1254 -795 0
794 1093 -1254 -795 0
-794 795 0
-794 -1093 -1254 0
-794 -940 1254 0
-795 939 1254 0
-795 1090 -1254 0
795 -1090 -1254 0
795 -939 1254 0
-796 1302 797 0
-796 729 797 0
796 -797 0
796 -1302 -729 0
797 732 -787 -798 0
-797 -732 0
-797 787 0
-797 798 0
798 -785 786 0
-798 785 0
-798 -786 0
-799 729 800 0
-799 1303 801 0
-799 729 801 0
-799 1303 800 0
799 -1303 -729 0
799 -800 -801 0
800 -789 790 0
-800 789 0
-800 -790 0
801 1240 1351 1353 -769 0
-801 769 0
-801 -1353 0
-801 -1240 0
-801 -1351 0
-802 159 803 0
-802 1304 -159 0
-802 159 -793 0
802 -1304 -159 0
802 159 793 -803 0
803 -940 1254 -795 0
803 -1093 -1254 -795 0
-803 795 0
-803 940 1254 0
-803 1093 -1254 0
-804 1305 805 0
-804 729 805 0
804 -805 0
804 -1305 -729 0
805 806 -735 -798 0
-805 -806 0
-805 735 0
-805 798 0
-806 1133 1134 1136 0
806 -1133 0
806 -1136 0
806 -1134 0
-807 729 808 0
-807 1306 809 0
-807 729 809 0
-807 1306 808 0
807 -1306 -729 0
807 -808 -809 0
808 -800 801 0
-808 800 0
-808 -801 0
809 1352 -762 767 0
-809 -767 0
-809 762 0
-809 -1352 0
-810 159 803 0
-810 -811 -159 0
-810 159 793 0
810 811 -159 0
810 159 -793 -803 0
811 -1143 1307 0
-811 1143 0
-811 -1307 0
812 -813 -726 814 0
812 -726 -730 814 0
-812 -814 0
-812 726 0
-812 813 730 0
813 -1143 1308 0
-813 1143 0
-813 -1308 0
814 -764 -808 809 0
814 815 -808 809 0
-814 808 0
-814 -809 0
-814 -815 764 0
815 1240 -1351 0
-815 -1240 0
-815 1351 0
816 -1309 -124 0
816 124 -817 0
816 1143 -124 0
-816 124 817 0
-816 -1143 1309 -124 0
-817 943 1254 0
-817 1097 -1254 0
817 -1097 -1254 0
817 -943 1254 0
818 -1310 -124 0
818 124 -819 0
818 1143 -124 0
-818 124 819 0
-818 -1143 1310 -124 0
-819 941 1254 0
-819 1095 -1254 0
819 -1095 -1254 0
819 -941 1254 0
820 -1311 -124 0
820 124 -821 0
820 1143 -124 0
-820 124 821 0
-820 -1143 1311 -124 0
-821 942 1254 0
-821 1096 -1254 0
821 -1096 -1254 0
821 -942 1254 0
-822 -676 823 0
-822 1312 823 0
822 -823 0
822 -1312 676 0
823 -59 824 0
-823 59 0
-823 -824 0
-824 3 525 0
824 -3 0
824 -525 0
-825 -678 826 0
-825 1313 826 0
825 -826 0
825 -1313 678 0
826 -64 824 0
-826 64 0
-826 -824 0
-827 -683 828 0
-827 1314 828 0
827 -828 0
827 -1314 683 0
828 -68 824 0
-828 68 0
-828 -824 0
-829 -688 830 0
-829 1315 830 0
829 -830 0
829 -1315 688 0
830 -72 824 0
-830 72 0
-830 -824 0
-831 -693 832 0
-831 1316 832 0
831 -832 0
831 -1316 693 0
832 -76 824 0
-832 76 0
-832 -824 0
-833 -698 834 0
-833 1317 834 0
833 -834 0
833 -1317 698 0
834 -80 824 0
-834 80 0
-834 -824 0
-835 -703 836 0
-835 1318 836 0
835 -836 0
835 -1318 703 0
836 -84 824 0
-836 84 0
-836 -824 0
-837 -708 838 0
-837 1319 838 0
837 -838 0
837 -1319 708 0
838 -88 824 0
-838 88 0
-838 -824 0
-839 1293 3 0
-839 1293 1320 0
839 -1293 0
839 -1320 -3 0
-840 673 823 842 0
-840 823 841 842 0
840 -842 0
840 -823 0
840 -673 -841 0
841 -1320 824 0
-841 1320 0
-841 -824 0
842 -1113 -1280 -824 0
842 -1280 -1312 -824 0
-842 1280 0
-842 824 0
-842 1113 1312 0
-843 1305 844 0
-843 1289 844 0
-843 841 844 0
843 -844 0
843 -1289 -1305 -841 0
-844 1322 -824 0
-844 64 824 0
-844 1281 -824 0
844 -64 824 0
844 -1281 -1322 -824 0
-845 1302 846 0
-845 1289 846 0
-845 841 846 0
845 -846 0
845 -1289 -1302 -841 0
-846 1323 -824 0
-846 68 824 0
-846 1282 -824 0
846 -68 824 0
846 -1282 -1323 -824 0
-847 1289 848 0
-847 1107 848 0
-847 841 848 0
847 -848 0
847 -1107 -1289 -841 0
-848 1324 -824 0
-848 72 824 0
-848 1283 -824 0
848 -72 824 0
848 -1283 -1324 -824 0
-849 1298 850 0
-849 1289 850 0
-849 841 850 0
849 -850 0
849 -1289 -1298 -841 0
-850 1325 -824 0
-850 76 824 0
-850 1284 -824 0
850 -76 824 0
850 -1284 -1325 -824 0
-851 1289 852 0
-851 1104 852 0
-851 841 852 0
851 -852 0
851 -1104 -1289 -841 0
-852 1326 -824 0
-852 80 824 0
-852 1285 -824 0
852 -80 824 0
852 -1285 -1326 -824 0
-853 1295 854 0
-853 1289 854 0
-853 841 854 0
853 -854 0
853 -1289 -1295 -841 0
-854 1327 -824 0
-854 84 824 0
-854 1286 -824 0
854 -84 824 0
854 -1286 -1327 -824 0
-855 1290 856 0
-855 1289 856 0
-855 841 856 0
855 -856 0
855 -1289 -1290 -841 0
-856 1328 -824 0
-856 88 824 0
-856 1287 -824 0
856 -88 824 0
856 -1287 -1328 -824 0
-857 1278 872 0
-857 858 872 0
-857 871 872 0
857 -872 0
857 -1278 -858 -871 0
-858 859 865 867 868 0
858 -859 0
858 -868 0
858 -867 0
858 -865 0
859 1111 -862 0
859 -860 -862 0
859 -861 -862 0
-859 862 0
-859 -1111 860 861 0
860 1110 1112 -1327 0
860 -1110 1112 -1323 0
-860 -1112 0
-860 -1110 1323 0
-860 1110 1327 0
861 1110 -1112 -1328 0
861 -1110 -1112 -1321 0
-861 1112 0
-861 -1110 1321 0
-861 1110 1328 0
862 -1083 -1111 0
862 -1083 -864 0
862 -1083 -863 0
-862 1083 0
-862 1111 863 864 0
863 1110 -1112 -1326 0
863 -1110 -1112 -1322 0
-863 1112 0
-863 -1110 1322 0
-863 1110 1326 0
864 -1110 1112 -1325 0
864 1110 1112 -1324 0
-864 -1112 0
-864 -1110 1325 0
-864 1110 1324 0
-865 -866 0
-865 -1309 1325 0
-865 1309 1324 0
865 1309 -1324 866 0
865 -1309 -1325 866 0
-866 1310 1311 0
866 -1310 0
866 -1311 0
-867 108 0
-867 -1309 1322 0
-867 1309 1326 0
867 -1309 -1322 -108 0
867 1309 -1326 -108 0
-868 100 869 870 0
-868 1328 869 870 0
868 -869 0
868 -870 0
868 -1328 -100 0
-869 1323 104 0
-869 1321 116 0
-869 104 116 0
-869 1321 1323 0
869 -1321 -104 0
869 -1323 -116 0
870 -1327 -118 0
-870 1327 0
-870 118 0
871 -1239 51 96 0
-871 1239 0
-871 -51 0
-871 -96 0
-872 141 146 879 0
-872 141 -873 879 0
872 -141 0
872 -879 0
872 -146 873 0
873 874 875 -877 878 0
-873 -878 0
-873 -874 0
-873 877 0
-873 -875 0
-874 -1122 103 0
-874 -1332 119 0
-874 -1122 -1332 0
-874 103 119 0
874 1122 -119 0
874 1332 -103 0
-875 876 0
-875 1309 -1333 0
-875 -1109 -1309 0
875 1309 1333 -876 0
875 1109 -1309 -876 0
876 -1310 -1311 0
-876 1310 0
-876 1311 0
877 -1126 -101 0
877 -1125 113 0
877 -1125 -1126 0
877 -101 113 0
-877 1126 -113 0
-877 1125 101 0
-878 106 0
-878 -1124 -1309 0
-878 -1123 1309 0
878 1123 1309 -106 0
878 1124 -1309 -106 0
-879 944 881 0
-879 -1191 881 0
-879 880 881 0
879 -881 0
879 -944 1191 -880 0
-880 1234 1239 1335 1336 0
880 -1336 0
880 -1335 0
880 -1234 0
880 -1239 0
-881 1194 1228 882 0
-881 1194 1228 -1266 0
881 -1194 0
881 -1228 0
881 1266 -882 0
882 1161 -1334 0
-882 -1161 0
-882 1334 0
-883 668 884 0
-883 885 -887 0
-883 884 -887 0
-883 668 885 0
883 -668 887 0
883 -884 -885 0
884 1157 -726 0
-884 -1157 0
-884 726 0
-885 1240 1330 0
-885 1121 -886 0
-885 1240 -886 0
-885 1121 1330 0
885 -1121 -1240 0
885 -1330 886 0
-886 1234 1240 96 0
886 -1234 0
886 -96 0
886 -1240 0
-887 1157 726 539 0
887 -1157 0
887 -726 0
887 -539 0
888 -1234 -1235 0
888 -1234 -530 0
-888 1234 0
-888 1235 530 0
-889 1284 693 841 890 0
889 -890 0
889 -841 0
889 -1284 0
889 -693 0
890 -1316 -1337 0
890 -1116 -1337 0
-890 1337 0
-890 1116 1316 0
-891 1287 708 841 892 0
891 -892 0
891 -841 0
891 -1287 0
891 -708 0
892 -1319 -1340 0
892 -1115 -1340 0
-892 1340 0
-892 1115 1319 0
893 -1156 1266 0
893 1161 1266 -1334 0
-893 -1266 0
-893 1156 -1161 0
-893 1156 1334 0
894 121 -895 0
-894 -121 0
-894 895 0
-895 1335 -51 0
-895 51 535 0
-895 1083 51 0
895 -1335 -51 0
895 -1083 51 -535 0
896 1157 -1240 3 0
896 1157 -1336 -3 0
-896 -1157 0
-896 1240 3 0
-896 1336 -3 0
897 -1284 674 694 0
-897 1284 0
-897 -674 0
-897 -694 0
898 -1285 674 699 0
-898 1285 0
-898 -674 0
-898 -699 0
899 -1286 674 704 0
-899 1286 0
-899 -674 0
-899 -704 0
900 -1287 674 709 0
-900 1287 0
-900 -674 0
-900 -709 0
901 -1282 674 684 0
-901 1282 0
-901 -674 0
-901 -684 0
902 -1283 674 689 0
-902 1283 0
-902 -674 0
-902 -689 0
903 -1281 674 679 0
-903 1281 0
-903 -674 0
-903 -679 0
-904 556 905 0
-904 -887 905 0
904 -905 0
904 -556 887 0
905 -884 -906 0
905 -1344 -884 886 0
-905 884 0
-905 1344 906 0
-905 -886 906 0
-906 1240 8 0
-906 1098 8 0
906 -8 0
906 -1098 -1240 0
907 1157 -159 538 0
-907 -1157 0
-907 159 0
-907 -538 0
-908 1157 1236 0
-908 1065 1236 1238 0
908 -1236 0
908 -1157 -1238 0
908 -1065 -1157 0
-909 -1236 -1275 0
-909 1236 910 0
909 1236 -910 0
909 -1236 1275 0
-910 3 911 0
-910 -1233 1349 0
-910 1349 911 0
910 -1349 -3 0
910 1233 -911 0
910 -1349 -911 0
911 3 8 -913 0
911 3 912 -913 0
-911 -3 0
-911 913 0
-911 -8 -912 0
912 1349 -1350 0
912 -1349 1350 0
-912 -1349 -1350 0
-912 1349 1350 0
-913 -1088 128 0
-913 1143 128 0
913 -128 0
913 1088 -1143 0
914 -1236 1276 0
914 1236 -915 0
-914 -1236 -1276 0
-914 1236 915 0
915 -1350 -3 0
915 -1350 -916 0
915 1233 3 -916 0
-915 3 916 0
-915 1350 -3 0
-915 -1233 1350 0
916 8 -917 0
916 1350 -917 0
-916 917 0
-916 -1350 -8 0
-917 -1091 128 0
-917 1143 128 0
917 -128 0
917 1091 -1143 0
-918 130 919 0
-918 -1351 919 920 0
-918 1351 919 -920 0
918 -919 0
918 1351 -130 920 0
918 -1351 -130 -920 0
919 -1236 1252 0
-919 1236 0
-919 -1252 0
-920 1352 921 0
920 -1352 0
920 -921 0
-921 1233 3 767 0
921 -767 0
921 -3 0
921 -1233 0
-922 130 923 0
-922 -1352 921 923 0
-922 1352 -921 923 0
922 -923 0
922 1352 -130 921 0
922 -1352 -130 -921 0
923 -1236 1274 0
-923 1236 0
-923 -1274 0
924 -1236 1273 0
924 1236 -925 0
-924 -1236 -1273 0
-924 1236 925 0
925 -1353 -130 0
925 1084 -1143 130 0
-925 1143 130 0
-925 1353 -130 0
-925 -1084 130 0
926 -1236 1277 0
926 1236 -927 0
-926 -1236 -1277 0
-926 1236 927 0
927 1353 -530 -928 0
927 530 -928 929 0
-927 928 0
-927 530 -929 0
-927 -1353 -530 0
-928 -1084 130 0
-928 1143 130 0
928 -130 0
928 1084 -1143 0
929 1354 -130 0
-929 -1354 0
-929 130 0
-1355 0
-1355 0
-1355 0
-1355 0
-1355 0
-2 0
-4 0
-6 0
-49 0
-52 0
-55 0
-57 0
-60 0
-61 0
-62 0
-65 0
-66 0
-69 0
-70 0
-73 0
-74 0
-77 0
-78 0
-81 0
-82 0
-85 0
-86 0
-89 0
-93 0
-125 0
-126 0
-129 0
-131 0
-1355 0
934 0
1144 0
1145 0
1148 0
1149 0
1162 0
1151 0
1152 0
1153 0
1163 0
1171 0
1164 0
1157 0
1161 0
1172 0
1160 0
1158 0
1159 0
1176 0
1177 0
1154 0
1180 0
1181 0
1182 0
1183 0
1184 0
1185 0
1186 0
1188 0
1191 0
135 0
1234 0
1249 0
1250 0
139 0
1257 0
1258 0
1259 0
1260 0
1261 0
1262 0
1263 0
1265 0
1266 0
1268 0
1269 0
1271 0
121 0
51 0
120 0
141 0
94 0
142 0
144 0
145 0
148 0
158 0
163 0
235 0
257 0
262 0
266 0
270 0
286 0
294 0
300 0
309 0
316 0
1236 0
134 0
320 0
335 0
386 0
441 0
457 0
469 0
491 0
494 0
496 0
499 0
501 0
503 0
-504 0
505 0
511 0
133 0
520 0
522 0
92 0
523 0
527 0
530 0
531 0
532 0
533 0
534 0
7 0
541 0
543 0
544 0
545 0
-546 0
547 0
548 0
549 0
550 0
551 0
553 0
554 0
555 0
557 0
559 0
50 0
560 0
569 0
571 0
586 0
603 0
620 0
638 0
650 0
651 0
653 0
654 0
655 0
658 0
660 0
1264 0
661 0
662 0
663 0
664 0
665 0
666 0
667 0
670 0
675 0
677 0
682 0
687 0
692 0
697 0
702 0
707 0
712 0
720 0
728 0
752 0
753 0
777 0
779 0
781 0
782 0
783 0
784 0
788 0
791 0
792 0
796 0
799 0
802 0
804 0
807 0
810 0
-812 0
816 0
818 0
820 0
822 0
825 0
827 0
829 0
831 0
833 0
835 0
837 0
839 0
840 0
843 0
845 0
847 0
849 0
851 0
853 0
855 0
857 0
883 0
888 0
-889 0
-891 0
893 0
894 0
896 0
897 0
898 0
899 0
900 0
901 0
902 0
903 0
904 0
-907 0
96 0
521 0
908 0
909 0
914 0
918 0
922 0
924 0
926 0

