c Result of efficient AIG-to-CNF conversion using package CNF
p cnf 14201 46695
-2 3 -13 0
-2 9826 13 0
2 -9826 13 0
2 -3 -13 0
-3 7 9 0
-3 4 9 0
-3 8 9 0
3 -9 0
3 -4 -7 -8 0
-4 10116 5 6 0
4 -10116 0
4 -6 0
4 -5 0
5 -9612 9825 0
-5 9612 0
-5 -9825 0
6 -9611 9612 9825 0
-6 9611 0
-6 -9825 0
-6 -9612 0
7 -9609 9610 9825 0
-7 9609 0
-7 -9825 0
-7 -9610 0
8 10118 -10119 0
-8 -10118 0
-8 10119 0
9 -10116 -10 12 0
9 -6 -10 -12 0
-9 10 0
-9 6 -12 0
-9 10116 12 0
10 -7 -11 0
-10 7 0
-10 11 0
11 -9828 10117 0
-11 9828 0
-11 -10117 0
12 -10118 10119 0
-12 10118 0
-12 -10119 0
-13 12 14 30 0
-13 14 22 30 0
13 -30 0
13 -14 0
13 -12 -22 0
14 7 -8 -16 0
14 -7 -8 15 0
-14 8 0
-14 7 16 0
-14 -7 -15 0
15 10117 -4 0
15 6 -4 0
15 10116 -4 0
-15 4 0
-15 -10116 -10117 -6 0
-16 17 18 0
-16 6 18 20 0
16 -18 0
16 -17 -20 0
16 -6 -17 0
17 9828 -10117 0
-17 -9828 0
-17 10117 0
18 -10116 -19 0
18 -9826 9827 -19 0
-18 19 0
-18 -9827 10116 0
-18 9826 10116 0
19 -9828 -10117 0
-19 9828 0
-19 10117 0
20 -9826 -9827 21 0
-20 9826 0
-20 9827 0
-20 -21 0
-21 -9825 0
-21 9611 9612 0
21 -9611 9825 0
21 -9612 9825 0
-22 -6 -23 0
-22 6 26 27 0
22 6 -27 0
22 -6 23 0
22 6 -26 0
23 10116 -24 0
23 7 -24 0
23 9828 -24 0
-23 24 0
-23 -9828 -10116 -7 0
-24 10116 7 25 0
24 -10116 0
24 -25 0
24 -7 0
25 -9610 9825 0
-25 9610 0
-25 -9825 0
26 -10116 -19 0
26 9826 -9827 -19 0
-26 19 0
-26 -9826 10116 0
-26 9827 10116 0
27 -7 -11 0
27 -11 -28 0
-27 11 0
-27 7 28 0
28 -9826 -9827 29 0
-28 9826 0
-28 9827 0
-28 -29 0
-29 -9825 25 0
-29 9609 25 0
29 -25 0
29 -9609 9825 0
30 10116 -31 -39 0
30 -10116 35 -39 0
-30 39 0
-30 10116 31 0
-30 -10116 -35 0
-31 11 33 0
-31 7 32 33 0
31 -33 0
31 -11 -32 0
31 -7 -11 0
32 -9826 9827 29 0
-32 9826 0
-32 -9827 0
-32 -29 0
33 -6 -17 0
33 -17 -34 0
-33 17 0
-33 6 34 0
34 9826 -9827 21 0
-34 -21 0
-34 9827 0
-34 -9826 0
35 7 -38 0
35 36 -38 0
-35 38 0
-35 -7 -36 0
36 -6 19 -37 0
-36 6 0
-36 37 0
-36 -19 0
-37 9828 10117 0
37 -9828 0
37 -10117 0
-38 5 6 7 25 0
38 -25 0
38 -7 0
38 -5 0
38 -6 0
39 -10118 -10119 0
-39 10118 0
-39 10119 0
-40 9827 13 0
-40 -13 41 0
40 -9827 13 0
40 -13 -41 0
-41 7 -8 0
-41 8 43 0
-41 -8 42 0
41 8 -43 0
41 -7 -8 -42 0
42 -6 -17 0
-42 6 0
-42 17 0
-43 12 45 0
-43 -12 44 0
-43 10116 12 0
43 -12 -44 0
43 -10116 12 -45 0
44 -6 -24 0
-44 6 0
-44 24 0
45 10 -38 0
-45 -10 0
-45 38 0
-46 47 -56 0
-46 9828 56 0
46 -47 -56 0
46 -9828 56 0
47 -8 -48 0
47 8 -50 0
-47 -8 48 0
-47 8 50 0
-48 7 49 0
-48 -6 -7 0
-48 4 -7 0
48 7 -49 0
48 6 -4 -7 0
-49 9827 0
-49 10116 17 0
-49 6 -17 0
49 -9827 -10116 17 0
49 -9827 -6 -17 0
50 -12 -51 0
50 12 -54 0
-50 -12 51 0
-50 12 54 0
-51 -11 44 53 0
-51 11 44 52 0
51 -44 0
51 -11 -53 0
51 11 -52 0
52 -9827 -10116 0
-52 9827 0
-52 10116 0
53 -9827 -7 0
-53 9827 0
-53 7 0
54 -10116 -7 0
54 10116 -55 0
-54 10116 55 0
-54 -10116 7 0
55 -9827 -6 11 0
55 -9827 -7 -11 0
-55 9827 0
-55 6 11 0
-55 7 -11 0
-56 12 57 70 0
-56 57 65 70 0
56 -70 0
56 -57 0
56 -12 -65 0
57 7 -8 -62 0
57 -7 -8 58 0
-57 8 0
-57 7 62 0
-57 -7 -58 0
58 6 -4 60 0
58 -4 -59 60 0
-58 -60 0
-58 4 0
-58 -6 59 0
-59 10116 37 0
59 -10116 0
59 -37 0
60 -10116 61 0
-60 10116 0
-60 -61 0
-61 21 37 0
61 -21 0
61 -37 0
-62 19 63 0
-62 -9827 10116 63 0
62 -63 0
62 -10116 -19 0
62 9827 -19 0
63 -6 -17 0
63 -17 21 64 0
-63 17 0
-63 6 -64 0
-63 6 -21 0
64 9826 -9827 0
64 -9826 9827 0
-64 -9826 -9827 0
-64 9826 9827 0
-65 -6 -66 0
-65 6 68 0
65 6 -68 0
65 -6 66 0
66 7 -24 67 0
66 -24 -59 67 0
-66 -67 0
-66 24 0
-66 -7 59 0
67 -10116 29 37 0
-67 10116 0
-67 -29 0
-67 -37 0
-68 19 69 0
-68 -9826 10116 69 0
68 -69 0
68 -10116 -19 0
68 9826 -19 0
69 -7 -11 0
69 -11 29 64 0
-69 11 0
-69 7 -64 0
-69 7 -29 0
70 10116 -39 -71 0
70 -10116 -39 74 0
-70 39 0
-70 -10116 -74 0
-70 10116 71 0
-71 11 73 0
-71 7 -72 73 0
71 -73 0
71 -11 72 0
71 -7 -11 0
-72 9827 29 0
72 -9827 0
72 -29 0
73 -6 -17 0
73 9826 -17 21 0
-73 17 0
-73 -9826 6 0
-73 6 -21 0
74 7 -38 75 0
74 -38 -61 75 0
-74 -75 0
-74 38 0
-74 -7 61 0
75 -6 29 37 0
-75 6 0
-75 -29 0
-75 -37 0
-76 -39 -77 0
-76 9829 80 0
-76 9829 -39 0
-76 -77 80 0
76 39 -80 0
76 -9829 77 0
77 -39 78 0
-77 39 0
-77 -78 0
-78 10116 79 0
78 -10116 0
78 -79 0
79 -37 71 0
-79 37 0
-79 -71 0
-80 81 83 0
-80 -82 83 0
-80 -7 83 0
80 -83 0
80 7 -81 82 0
81 -10116 6 0
-81 10116 0
-81 -6 0
-82 10118 10119 0
82 -10118 0
82 -10119 0
-83 8 85 0
-83 84 85 0
-83 -7 85 0
83 -85 0
83 7 -8 -84 0
-84 10117 0
-84 -9828 10116 0
-84 9828 20 0
84 9828 -10117 -20 0
84 -9828 -10116 -10117 0
-85 77 86 0
-85 12 77 0
-85 -6 77 0
85 -77 0
85 6 -12 -86 0
-86 9828 0
-86 10117 28 0
-86 10116 -10117 0
86 -9828 10117 -28 0
86 -9828 -10116 -10117 0
-87 88 145 0
-87 9830 -145 0
87 -88 145 0
87 -9830 -145 0
88 -89 122 0
88 -122 -124 0
-88 89 122 0
-88 -122 124 0
-89 9830 120 0
-89 90 -120 0
89 -90 -120 0
89 -9830 120 0
90 -112 -119 0
90 -91 -119 0
-90 119 0
-90 91 112 0
91 92 -110 0
-91 -92 0
-91 110 0
-92 93 109 0
-92 -9601 9825 109 0
92 -109 0
92 -9825 -93 0
92 9601 -93 0
93 -94 -108 0
-93 94 0
-93 108 0
-94 95 105 107 0
-94 -104 105 107 0
94 -107 0
94 -105 0
94 -95 104 0
95 96 -98 -103 0
95 96 -98 -102 0
-95 -96 0
-95 98 0
-95 102 103 0
96 9608 -97 0
-96 -9608 0
-96 97 0
97 -9607 9825 0
-97 9607 0
-97 -9825 0
-98 99 101 0
98 -99 0
98 -101 0
99 96 -100 0
-99 -96 0
-99 100 0
100 -9606 9825 0
-100 9606 0
-100 -9825 0
101 -9605 9825 0
-101 9605 0
-101 -9825 0
102 -9608 9825 0
102 -9606 9607 9825 0
-102 -9825 0
-102 -9607 9608 0
-102 9606 9608 0
103 -9604 9825 0
-103 9604 0
-103 -9825 0
104 -9603 9825 0
-104 9603 0
-104 -9825 0
105 -103 -106 0
-105 103 0
-105 106 0
106 96 -100 0
106 96 -101 0
-106 -96 0
-106 100 101 0
107 -9602 9825 0
-107 9602 0
-107 -9825 0
-108 106 0
-108 103 -104 0
108 -103 -106 0
108 -106 104 0
109 -107 -108 0
-109 107 0
-109 108 0
110 -108 111 0
-110 108 0
-110 -111 0
111 -9601 9825 0
-111 9601 0
-111 -9825 0
112 -107 113 118 0
112 -111 113 118 0
-112 -113 0
-112 -118 0
-112 107 111 0
-113 -104 107 117 0
-113 107 114 117 0
113 -117 0
113 -107 0
113 104 -114 0
114 -99 116 0
114 -103 116 0
114 -115 116 0
-114 -116 0
-114 99 103 115 0
115 101 -102 0
-115 -101 0
-115 102 0
116 -96 0
116 100 -101 0
-116 96 -100 0
-116 96 101 0
117 -103 116 0
-117 103 0
-117 -116 0
118 -116 0
118 103 -104 0
-118 -103 116 0
-118 104 116 0
119 -9679 -9825 0
119 -9679 9680 0
-119 9679 0
-119 -9680 9825 0
120 9614 -121 0
-120 -9614 0
-120 121 0
121 -9613 9825 0
-121 9613 0
-121 -9825 0
-122 9872 123 0
122 -9872 0
122 -123 0
-123 9830 9863 0
123 -9830 0
123 -9863 0
124 -125 144 0
124 -143 144 0
-124 -144 0
-124 125 143 0
125 -126 141 142 0
125 -140 141 142 0
-125 -142 0
-125 -141 0
-125 126 140 0
-126 127 139 0
126 -127 0
126 -139 0
127 -9831 9832 128 0
-127 9831 0
-127 -9832 0
-127 -128 0
-128 9833 129 0
128 -9833 0
128 -129 0
-129 9834 9835 9836 130 0
129 -130 0
129 -9836 0
129 -9834 0
129 -9835 0
-130 9837 9838 9839 131 0
130 -131 0
130 -9839 0
130 -9837 0
130 -9838 0
-131 9840 9841 9842 132 0
131 -132 0
131 -9842 0
131 -9840 0
131 -9841 0
-132 9843 9844 9845 133 0
132 -133 0
132 -9845 0
132 -9843 0
132 -9844 0
-133 9846 9847 9848 134 0
133 -134 0
133 -9848 0
133 -9846 0
133 -9847 0
-134 9849 9850 9851 135 0
134 -135 0
134 -9851 0
134 -9849 0
134 -9850 0
-135 9852 9853 9854 136 0
135 -136 0
135 -9854 0
135 -9852 0
135 -9853 0
-136 9855 9856 9857 137 0
136 -137 0
136 -9857 0
136 -9855 0
136 -9856 0
-137 9858 9859 9860 138 0
137 -138 0
137 -9860 0
137 -9858 0
137 -9859 0
-138 9861 9862 0
138 -9861 0
138 -9862 0
139 -9832 128 0
-139 9832 0
-139 -128 0
140 9830 -9863 9872 0
-140 -9830 0
-140 9863 0
-140 -9872 0
141 -9830 9863 9872 0
-141 9830 0
-141 -9872 0
-141 -9863 0
142 -9830 -9863 9872 0
-142 9830 0
-142 9863 0
-142 -9872 0
143 -9830 9863 -9872 0
-143 9830 0
-143 -9863 0
-143 9872 0
144 -9872 123 0
-144 9872 0
-144 -123 0
145 -146 150 0
145 -122 150 0
-145 -150 0
-145 122 146 0
146 111 -119 -120 -147 0
-146 -111 0
-146 147 0
-146 120 0
-146 119 0
147 -104 107 148 0
-147 104 0
-147 -107 0
-147 -148 0
-148 101 103 149 0
148 -149 0
148 -103 0
148 -101 0
-149 -9825 0
-149 9606 9607 9608 0
149 -9606 9825 0
149 -9607 9825 0
149 -9608 9825 0
-150 142 144 151 156 0
150 -156 0
150 -151 0
150 -142 0
150 -144 0
151 -143 152 0
-151 143 0
-151 -152 0
152 -9871 -153 0
152 -9864 -153 0
-152 153 0
-152 9864 9871 0
153 -9865 154 0
153 -9870 154 0
-153 -154 0
-153 9865 9870 0
154 -155 0
154 -9866 9867 0
-154 -9867 155 0
-154 9866 155 0
155 -9868 9869 0
-155 9868 0
-155 -9869 0
-156 140 141 157 0
-156 141 -152 157 0
156 -157 0
156 -141 0
156 -140 152 0
157 -127 -159 0
157 -158 -159 0
-157 159 0
-157 127 158 0
-158 -9831 -9833 0
-158 9832 9833 0
-158 -129 0
-158 -9832 -9833 0
158 -9832 9833 129 0
158 9831 9832 -9833 129 0
159 -9830 -9863 -9872 0
-159 9830 0
-159 9863 0
-159 9872 0
-160 9831 161 0
-160 -9831 159 0
160 -9831 -159 0
160 9831 -161 0
161 -122 159 0
-161 122 0
-161 -159 0
162 -9832 -161 0
162 9831 -9832 -122 0
162 -9831 9832 -122 161 0
-162 9832 -161 0
-162 -9831 -9832 161 0
-162 9831 9832 0
-162 122 161 0
163 -9833 -161 0
163 -9833 -122 164 0
163 9833 -122 161 -164 0
-163 9833 -161 0
-163 -9833 161 -164 0
-163 122 161 0
-163 9833 164 0
164 -9831 -9832 0
-164 9831 0
-164 9832 0
165 -9834 -161 0
165 -9834 -122 166 0
165 9834 -122 161 -166 0
-165 9834 -161 0
-165 -9834 161 -166 0
-165 122 161 0
-165 9834 166 0
166 -9831 -9832 -9833 0
-166 9831 0
-166 9832 0
-166 9833 0
167 -9835 -161 0
167 -9835 -122 168 0
167 9835 -122 161 -168 0
-167 9835 -161 0
-167 -9835 161 -168 0
-167 122 161 0
-167 9835 168 0
168 -9834 -166 0
-168 9834 0
-168 166 0
169 -9836 -161 0
169 -9836 -122 170 0
169 9836 -122 161 -170 0
-169 9836 -161 0
-169 -9836 161 -170 0
-169 122 161 0
-169 9836 170 0
170 -9835 -168 0
-170 9835 0
-170 168 0
171 -9837 -161 0
171 -9837 -122 172 0
171 9837 -122 161 -172 0
-171 9837 -161 0
-171 -9837 161 -172 0
-171 122 161 0
-171 9837 172 0
172 -9836 -170 0
-172 9836 0
-172 170 0
173 -9838 -161 0
173 -9838 -122 174 0
173 9838 -122 161 -174 0
-173 9838 -161 0
-173 -9838 161 -174 0
-173 122 161 0
-173 9838 174 0
174 -9837 -172 0
-174 9837 0
-174 172 0
175 -9839 -161 0
175 -9839 -122 176 0
175 9839 -122 161 -176 0
-175 9839 -161 0
-175 -9839 161 -176 0
-175 122 161 0
-175 9839 176 0
176 -9838 -174 0
-176 9838 0
-176 174 0
177 -9840 -161 0
177 -9840 -122 178 0
177 9840 -122 161 -178 0
-177 9840 -161 0
-177 -9840 161 -178 0
-177 122 161 0
-177 9840 178 0
178 -9839 -176 0
-178 9839 0
-178 176 0
179 -9841 -161 0
179 -9841 -122 180 0
179 9841 -122 161 -180 0
-179 9841 -161 0
-179 -9841 161 -180 0
-179 122 161 0
-179 9841 180 0
180 -9840 -178 0
-180 9840 0
-180 178 0
181 -9842 -161 0
181 -9842 -122 182 0
181 9842 -122 161 -182 0
-181 9842 -161 0
-181 -9842 161 -182 0
-181 122 161 0
-181 9842 182 0
182 -9841 -180 0
-182 9841 0
-182 180 0
183 -9843 -161 0
183 -9843 -122 184 0
183 9843 -122 161 -184 0
-183 9843 -161 0
-183 -9843 161 -184 0
-183 122 161 0
-183 9843 184 0
184 -9842 -182 0
-184 9842 0
-184 182 0
185 -9844 -161 0
185 -9844 -122 186 0
185 9844 -122 161 -186 0
-185 9844 -161 0
-185 -9844 161 -186 0
-185 122 161 0
-185 9844 186 0
186 -9843 -184 0
-186 9843 0
-186 184 0
187 -9845 -161 0
187 -9845 -122 188 0
187 9845 -122 161 -188 0
-187 9845 -161 0
-187 -9845 161 -188 0
-187 122 161 0
-187 9845 188 0
188 -9844 -186 0
-188 9844 0
-188 186 0
189 -9846 -161 0
189 -9846 -122 190 0
189 9846 -122 161 -190 0
-189 9846 -161 0
-189 -9846 161 -190 0
-189 122 161 0
-189 9846 190 0
190 -9845 -188 0
-190 9845 0
-190 188 0
191 -9847 -161 0
191 -9847 -122 192 0
191 9847 -122 161 -192 0
-191 9847 -161 0
-191 -9847 161 -192 0
-191 122 161 0
-191 9847 192 0
192 -9846 -190 0
-192 9846 0
-192 190 0
193 -9848 -161 0
193 -9848 -122 194 0
193 9848 -122 161 -194 0
-193 9848 -161 0
-193 -9848 161 -194 0
-193 122 161 0
-193 9848 194 0
194 -9847 -192 0
-194 9847 0
-194 192 0
195 -9849 -161 0
195 -9849 -122 196 0
195 9849 -122 161 -196 0
-195 9849 -161 0
-195 -9849 161 -196 0
-195 122 161 0
-195 9849 196 0
196 -9848 -194 0
-196 9848 0
-196 194 0
197 -9850 -161 0
197 -9850 -122 198 0
197 9850 -122 161 -198 0
-197 9850 -161 0
-197 -9850 161 -198 0
-197 122 161 0
-197 9850 198 0
198 -9849 -196 0
-198 9849 0
-198 196 0
199 -9851 -161 0
199 -9851 -122 200 0
199 9851 -122 161 -200 0
-199 9851 -161 0
-199 -9851 161 -200 0
-199 122 161 0
-199 9851 200 0
200 -9850 -198 0
-200 9850 0
-200 198 0
201 -9852 -161 0
201 -9852 -122 202 0
201 9852 -122 161 -202 0
-201 9852 -161 0
-201 -9852 161 -202 0
-201 122 161 0
-201 9852 202 0
202 -9851 -200 0
-202 9851 0
-202 200 0
203 -9853 -161 0
203 -9853 -122 204 0
203 9853 -122 161 -204 0
-203 9853 -161 0
-203 -9853 161 -204 0
-203 122 161 0
-203 9853 204 0
204 -9852 -202 0
-204 9852 0
-204 202 0
205 -9854 -161 0
205 -9854 -122 206 0
205 9854 -122 161 -206 0
-205 9854 -161 0
-205 -9854 161 -206 0
-205 122 161 0
-205 9854 206 0
206 -9853 -204 0
-206 9853 0
-206 204 0
207 -9855 -161 0
207 -9855 -122 208 0
207 9855 -122 161 -208 0
-207 9855 -161 0
-207 -9855 161 -208 0
-207 122 161 0
-207 9855 208 0
208 -9854 -206 0
-208 9854 0
-208 206 0
209 -9856 -161 0
209 -9856 -122 210 0
209 9856 -122 161 -210 0
-209 9856 -161 0
-209 -9856 161 -210 0
-209 122 161 0
-209 9856 210 0
210 -9855 -208 0
-210 9855 0
-210 208 0
211 -9857 -161 0
211 -9857 -122 212 0
211 9857 -122 161 -212 0
-211 9857 -161 0
-211 -9857 161 -212 0
-211 122 161 0
-211 9857 212 0
212 -9856 -210 0
-212 9856 0
-212 210 0
213 -9858 -161 0
213 -9858 -122 214 0
213 9858 -122 161 -214 0
-213 9858 -161 0
-213 -9858 161 -214 0
-213 122 161 0
-213 9858 214 0
214 -9857 -212 0
-214 9857 0
-214 212 0
215 -9859 -161 0
215 -9859 -122 216 0
215 9859 -122 161 -216 0
-215 9859 -161 0
-215 -9859 161 -216 0
-215 122 161 0
-215 9859 216 0
216 -9858 -214 0
-216 9858 0
-216 214 0
217 -9860 -161 0
217 -9860 -122 218 0
217 9860 -122 161 -218 0
-217 9860 -161 0
-217 -9860 161 -218 0
-217 122 161 0
-217 9860 218 0
218 -9859 -216 0
-218 9859 0
-218 216 0
219 -9861 -161 0
219 -9861 -122 220 0
219 9861 -122 161 -220 0
-219 9861 -161 0
-219 -9861 161 -220 0
-219 122 161 0
-219 9861 220 0
220 -9860 -218 0
-220 9860 0
-220 218 0
221 -9862 -161 0
221 -9862 -122 222 0
221 9862 -122 161 -222 0
-221 9862 -161 0
-221 -9862 161 -222 0
-221 122 161 0
-221 9862 222 0
222 -9861 -220 0
-222 9861 0
-222 220 0
-223 9863 -145 0
-223 145 224 0
223 -9863 -145 0
223 145 -224 0
224 -122 -124 0
224 122 -225 0
-224 122 225 0
-224 -122 124 0
-225 -120 226 0
-225 9863 120 0
225 -120 -226 0
225 -9863 120 0
226 -119 -227 0
-226 119 0
-226 227 0
227 94 -228 0
-227 -94 0
-227 228 0
228 -107 -108 0
228 -108 -111 0
-228 108 0
-228 107 111 0
-229 9864 120 0
-229 111 -120 0
229 -111 -120 0
229 -9864 120 0
-230 9865 120 0
-230 104 -120 0
230 -104 -120 0
230 -9865 120 0
-231 9866 120 0
-231 101 -120 0
231 -101 -120 0
231 -9866 120 0
-232 9867 120 0
-232 100 -120 0
232 -100 -120 0
232 -9867 120 0
-233 9868 120 0
-233 97 -120 0
233 -97 -120 0
233 -9868 120 0
-234 9869 120 0
-234 235 -120 0
234 -235 -120 0
234 -9869 120 0
235 -9608 9825 0
-235 9608 0
-235 -9825 0
-236 9870 120 0
-236 103 -120 0
236 -103 -120 0
236 -9870 120 0
-237 9871 120 0
-237 107 -120 0
237 -107 -120 0
237 -9871 120 0
-238 9872 -145 0
-238 145 239 0
238 -9872 -145 0
238 145 -239 0
239 122 -240 0
239 -122 144 -242 0
-239 122 240 0
-239 -122 242 0
-239 -122 -144 0
-240 -120 241 0
-240 9872 120 0
240 -120 -241 0
240 -9872 120 0
241 104 107 -119 148 0
-241 -104 0
-241 -148 0
-241 119 0
-241 -107 0
242 -125 143 0
-242 125 0
-242 -143 0
-243 122 0
-243 9873 -123 141 0
243 123 -122 0
243 -122 -141 0
243 -9873 -122 0
-244 122 150 0
-244 9874 150 0
244 -150 0
244 -9874 -122 0
-245 -246 -249 0
-245 9875 249 0
245 -9875 249 0
245 246 -249 0
246 247 -248 0
246 -247 248 0
-246 -247 -248 0
-246 247 248 0
247 9875 -9880 0
247 -9875 9880 0
-247 -9875 -9880 0
-247 9875 9880 0
248 -9874 9981 0
-248 9874 0
-248 -9981 0
-249 -9874 -9981 0
-249 9874 9981 0
-249 9874 252 0
-249 -9874 -250 0
249 9874 -9981 -252 0
249 -9874 9981 250 0
250 9875 9876 9880 -251 0
-250 251 0
-250 -9880 0
-250 -9875 0
-250 -9876 0
251 -9877 9878 9879 0
-251 9877 0
-251 -9879 0
-251 -9878 0
-252 9875 9876 9880 253 0
252 -253 0
252 -9880 0
252 -9875 0
252 -9876 0
-253 9877 9878 9879 0
253 -9877 0
253 -9879 0
253 -9878 0
-254 9876 249 0
-254 -249 -255 0
254 -9876 249 0
254 -249 255 0
255 -248 257 0
255 -9876 256 248 0
255 9876 -256 248 0
-255 -248 -257 0
-255 9876 256 248 0
-255 -9876 -256 248 0
-256 9875 9880 0
256 -9875 0
256 -9880 0
257 9876 -258 0
257 -9876 258 0
-257 -9876 -258 0
-257 9876 258 0
258 -9875 -9880 0
-258 9875 0
-258 9880 0
-259 9877 249 0
-259 -249 -260 0
259 -9877 249 0
259 -249 260 0
260 -248 262 0
260 -9877 248 261 0
260 9877 248 -261 0
-260 -248 -262 0
-260 -9877 248 -261 0
-260 9877 248 261 0
-261 9875 9876 9880 0
261 -9875 0
261 -9880 0
261 -9876 0
262 9877 -263 0
262 -9877 263 0
-262 -9877 -263 0
-262 9877 263 0
263 -9875 -9876 -9880 0
-263 9875 0
-263 9876 0
-263 9880 0
-264 9878 249 0
-264 -249 -265 0
264 -9878 249 0
264 -249 265 0
265 -248 267 0
265 -9878 248 266 0
265 9878 248 -266 0
-265 -248 -267 0
-265 -9878 248 -266 0
-265 9878 248 266 0
-266 9877 261 0
266 -9877 0
266 -261 0
267 9878 -268 0
267 -9878 268 0
-267 -9878 -268 0
-267 9878 268 0
268 -9877 -263 0
-268 9877 0
-268 263 0
-269 9879 249 0
-269 -249 -270 0
269 -9879 249 0
269 -249 270 0
270 -248 271 0
270 248 -252 273 0
-270 248 -273 0
-270 -248 -271 0
-270 248 252 0
271 9879 -272 0
271 -9879 272 0
-271 -9879 -272 0
-271 9879 272 0
272 -9878 -268 0
-272 9878 0
-272 268 0
273 -9879 -274 0
-273 9879 0
-273 274 0
-274 9878 266 0
274 -9878 0
274 -266 0
-275 9880 249 0
-275 -9880 -249 0
275 -9880 249 0
275 9880 -249 0
-276 277 279 0
-276 9881 -279 0
276 -9881 -279 0
276 -277 279 0
-277 122 278 0
-277 -122 -139 142 0
277 122 -278 0
277 -122 139 0
277 -122 -142 0
-278 9873 252 0
278 -9873 0
278 -252 0
279 -122 142 280 0
-279 122 0
-279 -280 0
-279 -142 0
280 -158 -159 0
-280 158 0
-280 159 0
281 -9882 9981 0
281 9882 -9981 -9982 0
281 -9882 9982 0
-281 9882 9982 0
-281 9882 9981 0
-281 -9882 -9981 -9982 0
282 -9883 9981 0
282 9883 -9981 -283 0
282 -9883 283 0
-282 9883 283 0
-282 9883 9981 0
-282 -9883 -9981 -283 0
283 -9882 -9982 0
-283 9882 0
-283 9982 0
284 -9884 9981 0
284 -9884 285 286 0
284 9884 -9981 -285 286 0
-284 9884 285 0
-284 -9884 -9981 -285 0
-284 9884 9981 0
-284 -9981 -286 0
285 -9882 -9883 -9982 0
-285 9882 0
-285 9883 0
-285 9982 0
286 -9982 -287 0
-286 9982 0
-286 287 0
287 -9882 -9883 9884 9885 0
-287 9883 0
-287 -9885 0
-287 9882 0
-287 -9884 0
288 -9885 9981 0
288 9885 -9981 -289 0
288 -9885 289 0
-288 9885 289 0
-288 9885 9981 0
-288 -9885 -9981 -289 0
289 -9884 -285 0
-289 9884 0
-289 285 0
290 9874 -9886 0
290 -9874 9886 0
-290 -9874 -9886 0
-290 9874 9886 0
291 9874 -9887 0
291 -9874 -9886 9887 0
291 9886 -9887 0
-291 9874 9887 0
-291 9886 9887 0
-291 -9874 -9886 -9887 0
292 -9888 293 0
292 -9874 9888 -293 0
292 9874 -9888 0
-292 9888 293 0
-292 9874 9888 0
-292 -9874 -9888 -293 0
293 -9886 -9887 0
-293 9886 0
-293 9887 0
294 9874 -9889 0
294 -9889 295 296 0
294 -9874 9889 -295 296 0
-294 9889 295 0
-294 -9874 -9889 -295 0
-294 -9874 -296 0
-294 9874 9889 0
295 -9886 -9887 -9888 0
-295 9886 0
-295 9887 0
-295 9888 0
296 -9886 -297 0
-296 9886 0
-296 297 0
297 -9887 -9888 9889 9890 0
-297 9888 0
-297 -9890 0
-297 9887 0
-297 -9889 0
298 -9890 299 0
298 -9874 9890 -299 0
298 9874 -9890 0
-298 9890 299 0
-298 9874 9890 0
-298 -9874 -9890 -299 0
299 -9889 -295 0
-299 9889 0
-299 295 0
-300 122 0
-300 9891 150 0
-300 9871 -150 0
300 -9871 -122 -150 0
300 -9891 -122 150 0
-301 9892 302 0
-301 9891 -302 0
301 -9892 302 0
301 -9891 -302 0
302 -9874 -296 0
-302 9874 0
-302 296 0
-303 9893 304 0
-303 9891 -304 0
303 -9893 304 0
303 -9891 -304 0
304 -9874 9886 -297 0
-304 9874 0
-304 -9886 0
-304 297 0
-305 9894 306 0
-305 9891 -306 0
305 -9894 306 0
305 -9891 -306 0
306 -9874 -9886 -307 0
-306 9874 0
-306 9886 0
-306 307 0
307 9887 -9888 9889 9890 0
-307 9888 0
-307 -9890 0
-307 -9887 0
-307 -9889 0
-308 9895 309 0
-308 9891 -309 0
308 -9895 309 0
308 -9891 -309 0
309 -9874 9886 -307 0
-309 9874 0
-309 -9886 0
-309 307 0
-310 9896 311 0
-310 9891 -311 0
310 -9896 311 0
310 -9891 -311 0
311 -9874 -9886 -312 0
-311 9874 0
-311 9886 0
-311 312 0
312 -9887 9888 9889 9890 0
-312 -9890 0
-312 -9889 0
-312 9887 0
-312 -9888 0
-313 9897 314 0
-313 9891 -314 0
313 -9897 314 0
313 -9891 -314 0
314 -9874 9886 -312 0
-314 9874 0
-314 -9886 0
-314 312 0
-315 9898 316 0
-315 9891 -316 0
315 -9898 316 0
315 -9891 -316 0
316 -9874 -9886 317 0
-316 9874 0
-316 9886 0
-316 -317 0
-317 9887 9888 9889 9890 0
317 -9890 0
317 -9889 0
317 -9887 0
317 -9888 0
-318 9899 319 0
-318 9891 -319 0
318 -9899 319 0
318 -9891 -319 0
319 -9874 9886 317 0
-319 9874 0
-319 -9886 0
-319 -317 0
-320 9900 388 0
-320 -321 388 0
320 -388 0
320 -9900 321 0
-321 322 324 0
321 -322 0
321 -324 0
322 -9996 -323 0
-322 9996 0
-322 323 0
323 -9993 -9994 0
-323 9993 0
-323 9994 0
324 -325 383 386 0
-324 325 0
-324 -386 0
-324 -383 0
325 326 -364 0
325 -9996 326 0
-325 -326 0
-325 9996 364 0
326 -327 350 -363 0
326 349 350 -363 0
-326 -350 0
-326 363 0
-326 327 -349 0
327 328 -346 0
-327 -328 0
-327 346 0
-328 329 341 0
-328 339 -341 343 0
-328 329 343 0
328 -341 -343 0
328 -329 341 0
328 -329 -339 0
329 -330 -335 0
-329 330 0
-329 335 0
-330 9992 331 0
330 -9992 0
330 -331 0
331 -9900 -332 0
-331 9900 0
-331 332 0
-332 333 0
-332 -9910 9920 0
332 -9920 -333 0
332 9910 -333 0
333 -9930 334 0
333 -9940 334 0
-333 -334 0
-333 9930 9940 0
334 9950 -9960 0
-334 -9950 0
-334 9960 0
335 -332 -336 0
-335 332 0
-335 336 0
-336 9900 337 0
336 -9900 0
336 -337 0
-337 333 0
-337 -9910 9920 0
-337 9920 338 0
337 -9920 -333 0
337 9910 -333 -338 0
338 -9940 334 0
338 -9930 -9950 334 0
-338 -334 0
-338 9940 9950 0
-338 9930 9940 0
339 -340 0
339 -9910 9920 0
-339 -9920 340 0
-339 9910 340 0
340 -334 0
340 -9930 9940 0
-340 -9940 334 0
-340 9930 334 0
-341 9992 342 0
341 -9992 0
341 -342 0
342 -9900 339 0
-342 9900 0
-342 -339 0
343 339 -344 0
343 -9900 339 0
-343 -339 0
-343 9900 344 0
-344 -340 0
-344 -9910 9920 0
-344 9920 345 0
344 -9920 340 0
344 9910 340 -345 0
-345 -334 0
-345 -9930 9940 0
-345 9940 9950 0
345 -9940 334 0
345 9930 -9950 334 0
-346 347 348 0
346 -347 0
346 -348 0
347 -9900 339 0
347 -9992 339 0
-347 -339 0
-347 9900 9992 0
348 -9900 -332 0
348 -9992 -332 0
-348 332 0
-348 9900 9992 0
349 9993 9994 -9996 0
-349 9996 0
-349 -9994 0
-349 -9993 0
-350 351 -354 360 0
-350 351 359 360 0
350 -351 0
350 -360 0
350 354 -359 0
351 9961 -352 0
351 9979 9980 -352 0
-351 352 0
-351 -9961 -9980 0
-351 -9961 -9979 0
352 9996 -353 0
-352 -9996 0
-352 353 0
353 -9993 9994 0
-353 9993 0
-353 -9994 0
354 -9961 -9977 -355 -358 0
-354 355 0
-354 358 0
-354 9961 0
-354 9977 0
355 -9961 -9995 356 -357 0
-355 -356 0
-355 357 0
-355 9961 0
-355 9995 0
-356 331 335 0
-356 -9992 331 0
356 -331 0
356 9992 -335 0
-357 332 0
-357 9900 -9992 0
357 -9900 -332 0
357 9992 -332 0
-358 9978 9979 9980 0
358 -9978 0
358 -9980 0
358 -9979 0
359 -9996 -353 0
-359 9996 0
-359 353 0
-360 9994 0
-360 -9996 0
-360 9993 361 0
360 -9994 9996 -361 0
360 -9993 -9994 9996 0
361 356 -362 0
-361 -356 0
-361 362 0
362 9992 -332 0
-362 -9992 0
-362 332 0
-363 9993 9994 9996 0
363 -9993 0
363 -9996 0
363 -9994 0
-364 352 365 366 379 0
364 -352 0
364 -379 0
364 -366 0
364 -365 0
365 -9881 363 0
-365 9881 0
-365 -363 0
-366 367 368 374 0
-366 368 372 374 0
366 -368 0
366 -374 0
366 -367 -372 0
367 9993 -9994 9996 0
-367 -9993 0
-367 9994 0
-367 -9996 0
-368 9994 0
-368 9996 -369 0
-368 9993 9996 0
368 -9994 -9996 0
368 -9993 -9994 369 0
-369 370 371 0
369 -370 0
369 -371 0
370 -9817 9825 0
-370 9817 0
-370 -9825 0
371 -9818 9825 0
-371 9818 0
-371 -9825 0
372 9900 9910 9920 -373 0
-372 373 0
-372 -9920 0
-372 -9900 0
-372 -9910 0
373 -9930 9940 9950 9960 0
-373 -9960 0
-373 -9950 0
-373 9930 0
-373 -9940 0
374 -359 -375 0
374 -9977 -359 376 0
-374 359 0
-374 375 -376 0
-374 9977 375 0
375 9977 356 -357 358 0
-375 -356 0
-375 357 0
-375 -9977 0
-375 -358 0
376 -9992 354 0
376 354 -377 0
376 -9900 354 0
-376 -354 0
-376 9900 9992 377 0
-377 9910 9920 9930 378 0
377 -378 0
377 -9930 0
377 -9910 0
377 -9920 0
-378 9940 9950 9960 0
378 -9940 0
378 -9960 0
378 -9950 0
379 -327 -349 0
379 -349 380 0
-379 349 0
-379 327 -380 0
-380 381 382 0
-380 356 -357 382 0
380 -382 0
380 357 -381 0
380 -356 -381 0
381 -339 0
381 9900 -9992 0
-381 -9900 339 0
-381 9992 339 0
-382 342 343 0
-382 -9992 342 0
382 -342 0
382 9992 -343 0
383 -9994 364 0
383 -364 -384 0
-383 9994 364 0
-383 -364 384 0
-384 9993 9994 0
-384 -9993 -9994 -9996 0
-384 9993 9996 385 0
384 -9993 9996 0
384 9993 -9994 -9996 0
384 -9993 9994 0
384 9993 -9994 -385 0
385 358 -361 0
-385 -358 0
-385 361 0
386 -9993 364 0
386 -364 -387 0
-386 9993 364 0
-386 -364 387 0
-387 -9993 -9996 0
-387 9994 9996 0
-387 9993 9996 -385 0
387 9993 -9996 0
387 -9993 -9994 9996 0
387 9993 -9994 385 0
388 -9899 -324 391 0
388 -324 -389 391 0
-388 -391 0
-388 324 0
-388 9899 389 0
-389 9982 390 0
389 -9982 0
389 -390 0
-390 9882 9883 9884 9885 0
390 -9885 0
390 -9884 0
390 -9882 0
390 -9883 0
-391 392 394 396 0
-391 -9897 392 396 0
391 -396 0
391 -392 0
391 9897 -394 0
392 9898 -393 0
-392 -9898 0
-392 393 0
393 -9982 390 0
-393 9982 0
-393 -390 0
394 9982 -395 0
-394 -9982 0
-394 395 0
395 -9882 9883 9884 9885 0
-395 -9885 0
-395 -9884 0
-395 9882 0
-395 -9883 0
-396 397 399 401 0
-396 -9895 397 401 0
396 -401 0
396 -397 0
396 9895 -399 0
397 9896 -398 0
-397 -9896 0
-397 398 0
398 -9982 -395 0
-398 9982 0
-398 395 0
399 9982 -400 0
-399 -9982 0
-399 400 0
400 9882 -9883 9884 9885 0
-400 9883 0
-400 -9885 0
-400 -9882 0
-400 -9884 0
-401 -9894 403 0
-401 402 403 0
401 -403 0
401 9894 -402 0
402 -9982 -400 0
-402 9982 0
-402 400 0
-403 -9893 286 0
-403 -9892 404 0
-403 -9892 -9893 0
-403 286 404 0
403 9893 -404 0
403 9892 -286 0
404 9982 -287 0
-404 -9982 0
-404 287 0
-405 122 0
-405 9901 150 0
-405 9865 -150 0
405 -9865 -122 -150 0
405 -9901 -122 150 0
-406 9902 302 0
-406 9901 -302 0
406 -9902 302 0
406 -9901 -302 0
-407 9903 304 0
-407 9901 -304 0
407 -9903 304 0
407 -9901 -304 0
-408 9904 306 0
-408 9901 -306 0
408 -9904 306 0
408 -9901 -306 0
-409 9905 309 0
-409 9901 -309 0
409 -9905 309 0
409 -9901 -309 0
-410 9906 311 0
-410 9901 -311 0
410 -9906 311 0
410 -9901 -311 0
-411 9907 314 0
-411 9901 -314 0
411 -9907 314 0
411 -9901 -314 0
-412 9908 316 0
-412 9901 -316 0
412 -9908 316 0
412 -9901 -316 0
-413 9909 319 0
-413 9901 -319 0
413 -9909 319 0
413 -9901 -319 0
414 -9910 415 0
414 -321 415 0
-414 -415 0
-414 9910 321 0
415 -324 -416 0
415 9909 -324 389 0
-415 324 0
-415 -9909 416 0
-415 -389 416 0
-416 394 417 418 0
-416 -9907 417 418 0
416 -418 0
416 -417 0
416 9907 -394 0
417 9908 -393 0
-417 -9908 0
-417 393 0
-418 399 419 420 0
-418 -9905 419 420 0
418 -420 0
418 -419 0
418 9905 -399 0
419 9906 -398 0
-419 -9906 0
-419 398 0
-420 -9904 421 0
-420 402 421 0
420 -421 0
420 9904 -402 0
-421 -9903 286 0
-421 -9902 404 0
-421 -9902 -9903 0
-421 286 404 0
421 9903 -404 0
421 9902 -286 0
-422 122 0
-422 9911 150 0
-422 9870 -150 0
422 -9870 -122 -150 0
422 -9911 -122 150 0
-423 9912 302 0
-423 9911 -302 0
423 -9912 302 0
423 -9911 -302 0
-424 9913 304 0
-424 9911 -304 0
424 -9913 304 0
424 -9911 -304 0
-425 9914 306 0
-425 9911 -306 0
425 -9914 306 0
425 -9911 -306 0
-426 9915 309 0
-426 9911 -309 0
426 -9915 309 0
426 -9911 -309 0
-427 9916 311 0
-427 9911 -311 0
427 -9916 311 0
427 -9911 -311 0
-428 9917 314 0
-428 9911 -314 0
428 -9917 314 0
428 -9911 -314 0
-429 9918 316 0
-429 9911 -316 0
429 -9918 316 0
429 -9911 -316 0
-430 9919 319 0
-430 9911 -319 0
430 -9919 319 0
430 -9911 -319 0
-431 9920 432 0
-431 -321 432 0
431 -432 0
431 -9920 321 0
432 -9919 -324 433 0
432 -324 -389 433 0
-432 -433 0
-432 324 0
-432 9919 389 0
-433 394 434 435 0
-433 -9917 434 435 0
433 -435 0
433 -434 0
433 9917 -394 0
434 9918 -393 0
-434 -9918 0
-434 393 0
-435 399 436 437 0
-435 -9915 436 437 0
435 -437 0
435 -436 0
435 9915 -399 0
436 9916 -398 0
-436 -9916 0
-436 398 0
-437 -9914 438 0
-437 402 438 0
437 -438 0
437 9914 -402 0
-438 -9913 286 0
-438 -9912 404 0
-438 -9912 -9913 0
-438 286 404 0
438 9913 -404 0
438 9912 -286 0
-439 122 0
-439 9921 150 0
-439 9866 -150 0
439 -9866 -122 -150 0
439 -9921 -122 150 0
-440 9922 302 0
-440 9921 -302 0
440 -9922 302 0
440 -9921 -302 0
-441 9923 304 0
-441 9921 -304 0
441 -9923 304 0
441 -9921 -304 0
-442 9924 306 0
-442 9921 -306 0
442 -9924 306 0
442 -9921 -306 0
-443 9925 309 0
-443 9921 -309 0
443 -9925 309 0
443 -9921 -309 0
-444 9926 311 0
-444 9921 -311 0
444 -9926 311 0
444 -9921 -311 0
-445 9927 314 0
-445 9921 -314 0
445 -9927 314 0
445 -9921 -314 0
-446 9928 316 0
-446 9921 -316 0
446 -9928 316 0
446 -9921 -316 0
-447 9929 319 0
-447 9921 -319 0
447 -9929 319 0
447 -9921 -319 0
448 -9930 449 0
448 -321 449 0
-448 -449 0
-448 9930 321 0
449 -324 -450 0
449 9929 -324 389 0
-449 324 0
-449 -9929 450 0
-449 -389 450 0
-450 394 451 452 0
-450 -9927 451 452 0
450 -452 0
450 -451 0
450 9927 -394 0
451 9928 -393 0
-451 -9928 0
-451 393 0
-452 399 453 454 0
-452 -9925 453 454 0
452 -454 0
452 -453 0
452 9925 -399 0
453 9926 -398 0
-453 -9926 0
-453 398 0
-454 -9924 455 0
-454 402 455 0
454 -455 0
454 9924 -402 0
-455 -9923 286 0
-455 -9922 404 0
-455 -9922 -9923 0
-455 286 404 0
455 9923 -404 0
455 9922 -286 0
-456 122 0
-456 9931 150 0
-456 9867 -150 0
456 -9867 -122 -150 0
456 -9931 -122 150 0
-457 9932 302 0
-457 9931 -302 0
457 -9932 302 0
457 -9931 -302 0
-458 9933 304 0
-458 9931 -304 0
458 -9933 304 0
458 -9931 -304 0
-459 9934 306 0
-459 9931 -306 0
459 -9934 306 0
459 -9931 -306 0
-460 9935 309 0
-460 9931 -309 0
460 -9935 309 0
460 -9931 -309 0
-461 9936 311 0
-461 9931 -311 0
461 -9936 311 0
461 -9931 -311 0
-462 9937 314 0
-462 9931 -314 0
462 -9937 314 0
462 -9931 -314 0
-463 9938 316 0
-463 9931 -316 0
463 -9938 316 0
463 -9931 -316 0
-464 9939 319 0
-464 9931 -319 0
464 -9939 319 0
464 -9931 -319 0
-465 9940 466 0
-465 -321 466 0
465 -466 0
465 -9940 321 0
466 -9939 -324 467 0
466 -324 -389 467 0
-466 -467 0
-466 324 0
-466 9939 389 0
-467 394 468 469 0
-467 -9937 468 469 0
467 -469 0
467 -468 0
467 9937 -394 0
468 9938 -393 0
-468 -9938 0
-468 393 0
-469 399 470 471 0
-469 -9935 470 471 0
469 -471 0
469 -470 0
469 9935 -399 0
470 9936 -398 0
-470 -9936 0
-470 398 0
-471 -9934 472 0
-471 402 472 0
471 -472 0
471 9934 -402 0
-472 -9933 286 0
-472 -9932 404 0
-472 -9932 -9933 0
-472 286 404 0
472 9933 -404 0
472 9932 -286 0
-473 122 0
-473 9941 150 0
-473 9869 -150 0
473 -9869 -122 -150 0
473 -9941 -122 150 0
-474 9942 302 0
-474 9941 -302 0
474 -9942 302 0
474 -9941 -302 0
-475 9943 304 0
-475 9941 -304 0
475 -9943 304 0
475 -9941 -304 0
-476 9944 306 0
-476 9941 -306 0
476 -9944 306 0
476 -9941 -306 0
-477 9945 309 0
-477 9941 -309 0
477 -9945 309 0
477 -9941 -309 0
-478 9946 311 0
-478 9941 -311 0
478 -9946 311 0
478 -9941 -311 0
-479 9947 314 0
-479 9941 -314 0
479 -9947 314 0
479 -9941 -314 0
-480 9948 316 0
-480 9941 -316 0
480 -9948 316 0
480 -9941 -316 0
-481 9949 319 0
-481 9941 -319 0
481 -9949 319 0
481 -9941 -319 0
-482 9950 483 0
-482 -321 483 0
482 -483 0
482 -9950 321 0
483 -9949 -324 484 0
483 -324 -389 484 0
-483 -484 0
-483 324 0
-483 9949 389 0
-484 394 485 486 0
-484 -9947 485 486 0
484 -486 0
484 -485 0
484 9947 -394 0
485 9948 -393 0
-485 -9948 0
-485 393 0
-486 399 487 488 0
-486 -9945 487 488 0
486 -488 0
486 -487 0
486 9945 -399 0
487 9946 -398 0
-487 -9946 0
-487 398 0
-488 -9944 489 0
-488 402 489 0
488 -489 0
488 9944 -402 0
-489 -9943 286 0
-489 -9942 404 0
-489 -9942 -9943 0
-489 286 404 0
489 9943 -404 0
489 9942 -286 0
-490 122 0
-490 9951 150 0
-490 9868 -150 0
490 -9868 -122 -150 0
490 -9951 -122 150 0
-491 9952 302 0
-491 9951 -302 0
491 -9952 302 0
491 -9951 -302 0
-492 9953 304 0
-492 9951 -304 0
492 -9953 304 0
492 -9951 -304 0
-493 9954 306 0
-493 9951 -306 0
493 -9954 306 0
493 -9951 -306 0
-494 9955 309 0
-494 9951 -309 0
494 -9955 309 0
494 -9951 -309 0
-495 9956 311 0
-495 9951 -311 0
495 -9956 311 0
495 -9951 -311 0
-496 9957 314 0
-496 9951 -314 0
496 -9957 314 0
496 -9951 -314 0
-497 9958 316 0
-497 9951 -316 0
497 -9958 316 0
497 -9951 -316 0
-498 9959 319 0
-498 9951 -319 0
498 -9959 319 0
498 -9951 -319 0
499 -9960 500 0
499 -321 500 0
-499 -500 0
-499 9960 321 0
500 -324 -501 0
500 9959 -324 389 0
-500 324 0
-500 -9959 501 0
-500 -389 501 0
-501 394 502 503 0
-501 -9957 502 503 0
501 -503 0
501 -502 0
501 9957 -394 0
502 9958 -393 0
-502 -9958 0
-502 393 0
-503 399 504 505 0
-503 -9955 504 505 0
503 -505 0
503 -504 0
503 9955 -399 0
504 9956 -398 0
-504 -9956 0
-504 398 0
-505 -9954 506 0
-505 402 506 0
505 -506 0
505 9954 -402 0
-506 -9953 286 0
-506 -9952 404 0
-506 -9952 -9953 0
-506 286 404 0
506 9953 -404 0
506 9952 -286 0
-507 508 -509 0
-507 9961 508 0
507 -508 0
507 -9961 509 0
508 -349 -372 0
-508 349 0
-508 372 0
-509 349 510 0
509 -349 0
509 -510 0
510 -325 -511 0
-510 325 0
-510 511 0
511 -383 386 0
-511 383 0
-511 -386 0
-512 -513 -532 0
-512 9962 532 0
512 -9962 532 0
512 513 -532 0
513 -515 516 0
513 -9962 -514 516 0
-513 -516 0
-513 514 515 0
-513 9962 515 0
514 -9751 9752 9825 0
-514 9751 0
-514 -9825 0
-514 -9752 0
-515 9974 9975 0
515 -9974 0
515 -9975 0
-516 517 518 0
-516 -9965 518 0
-516 -9963 518 0
516 -518 0
516 9963 9965 -517 0
517 9962 -9974 9975 0
-517 -9962 0
-517 9974 0
-517 -9975 0
-518 519 526 530 0
-518 524 526 530 0
518 -530 0
518 -526 0
518 -519 -524 0
519 -520 -521 0
-519 520 0
-519 521 0
-520 9972 9973 0
520 -9972 0
520 -9973 0
521 522 -523 0
-521 -522 0
-521 523 0
522 -9973 -371 0
522 -9972 9973 0
522 -9973 369 0
-522 9972 9973 0
-522 -9973 371 -369 0
523 -9963 -9964 9965 0
-523 9963 0
-523 9964 0
-523 -9965 0
524 9962 -525 0
-524 -9962 0
-524 525 0
525 9974 -9975 0
-525 -9974 0
-525 9975 0
526 -527 -529 0
-526 527 0
-526 529 0
527 -9966 -9977 528 0
527 -9966 -9977 -520 0
-527 9966 0
-527 9977 0
-527 520 -528 0
528 9963 -9964 9965 0
-528 -9963 0
-528 9964 0
-528 -9965 0
529 -9962 -9974 9975 0
-529 9962 0
-529 9974 0
-529 -9975 0
530 523 -531 0
-530 -523 0
-530 531 0
531 -9962 -525 0
-531 9962 0
-531 525 0
-532 -515 534 0
-532 9962 533 534 0
532 -534 0
532 515 -533 0
532 -9962 515 0
533 -9969 -9993 0
533 -9969 9996 0
533 -9969 9994 0
-533 9969 0
-533 9993 -9994 -9996 0
-534 524 535 538 0
-534 535 536 538 0
534 -538 0
534 -535 0
534 -524 -536 0
535 -514 -517 0
-535 514 0
-535 517 0
-536 -371 521 0
-536 521 537 0
-536 370 521 0
536 -521 0
536 -370 371 -537 0
537 -9963 9964 9965 0
-537 9963 0
-537 -9965 0
-537 -9964 0
-538 529 545 0
-538 539 540 545 0
538 -545 0
538 -529 -540 0
538 -539 -529 0
539 520 -528 0
-539 -520 0
-539 528 0
540 9966 -9977 -541 0
540 -9973 -9977 -541 0
-540 541 0
-540 9977 0
-540 -9966 9973 0
541 -370 -542 543 0
541 -371 -542 543 0
-541 -543 0
-541 542 0
-541 370 371 0
-542 -9825 0
-542 9819 9820 0
542 -9819 9825 0
542 -9820 9825 0
-543 371 544 0
543 -371 0
543 -544 0
544 -9820 9825 0
-544 9820 0
-544 -9825 0
-545 -9962 -9974 0
-545 9974 546 0
-545 9975 0
-545 9962 9974 0
545 9962 -9974 -9975 0
545 -9962 9974 -9975 -546 0
-546 523 528 0
-546 520 523 0
546 -523 0
546 -520 -528 0
547 -9996 -353 0
547 9963 353 -363 0
-547 353 363 0
-547 9996 -353 0
-547 -9963 353 0
548 9961 -353 0
548 9964 353 -363 0
-548 -9964 353 0
-548 -9961 -353 0
-548 353 363 0
549 -353 -363 0
549 9965 -363 0
-549 363 0
-549 -9965 353 0
-550 551 552 0
-550 9966 551 0
550 -551 0
550 -9966 -552 0
551 -9964 9965 -517 0
-551 9964 0
-551 -9965 0
-551 517 0
552 517 -553 0
552 517 -512 0
552 517 -557 0
-552 -517 0
-552 512 553 557 0
-553 9975 532 0
-553 -532 554 0
553 -9975 532 0
553 -532 -554 0
-554 517 555 0
-554 555 556 0
554 -555 0
554 -517 -556 0
-555 525 529 0
-555 -9962 523 529 0
555 -529 0
555 -523 -525 0
555 9962 -525 0
556 -9963 9965 0
-556 9963 0
-556 -9965 0
-557 9974 532 0
-557 -532 558 0
557 -9974 532 0
557 -532 -558 0
-558 -556 559 561 0
-558 517 559 561 0
558 -559 0
558 -561 0
558 -517 556 0
-559 -519 530 560 0
-559 524 530 560 0
559 -560 0
559 -530 0
559 519 -524 0
560 527 -529 0
-560 -527 0
-560 529 0
561 -514 -562 0
-561 514 0
-561 562 0
562 -9962 9974 9975 0
-562 9962 0
-562 -9975 0
-562 -9974 0
-563 565 -566 0
-563 9967 564 566 0
563 -9967 566 0
563 -565 -566 0
563 -564 566 0
564 512 -553 557 0
-564 -512 0
-564 553 0
-564 -557 0
565 -9973 -523 0
-565 9973 0
-565 523 0
566 -525 -567 0
-566 525 0
-566 567 0
-567 523 537 0
-567 -9972 9973 537 0
567 -537 0
567 -9973 -523 0
567 9972 -523 0
-568 -325 -511 0
-568 9968 511 0
568 -9968 511 0
568 325 -511 0
-569 9969 386 0
-569 9969 -383 0
-569 -9968 9969 0
-569 -383 386 0
569 -9969 383 0
569 -9969 -386 0
569 9968 383 -386 0
-570 -365 508 0
-570 9970 508 0
570 -508 0
570 -9970 365 0
-571 -365 508 0
-571 9971 508 0
571 -508 0
571 -9971 365 0
-572 9969 573 578 0
-572 -9969 9971 573 0
572 -573 0
572 9969 -578 0
572 -9969 -9971 0
573 -9972 574 0
-573 9972 0
-573 -574 0
-574 9969 575 576 577 0
574 -577 0
574 -576 0
574 -9969 0
574 -575 0
575 512 -553 -557 0
-575 -512 0
-575 557 0
-575 553 0
576 -9966 -9977 -528 0
-576 9966 0
-576 9977 0
-576 528 0
577 -9966 -9967 -523 0
-577 9966 0
-577 9967 0
-577 523 0
-578 -9972 0
-578 576 577 0
578 9972 -576 0
578 9972 -577 0
-579 -574 580 0
-579 9973 580 0
579 -580 0
579 -9973 574 0
-580 -9969 9970 0
-580 9969 581 0
580 -9969 -9970 0
580 9969 -581 0
-581 9972 -9973 0
-581 -9972 9973 0
-581 576 577 0
581 -9972 -9973 -577 0
581 9972 9973 -576 0
581 9972 9973 -577 0
581 -9972 -9973 -576 0
-582 -590 0
-582 9976 583 588 0
582 -583 590 0
582 -588 590 0
582 -9976 590 0
-583 564 -584 587 0
-583 564 585 587 0
583 -564 0
583 -587 0
583 584 -585 0
584 -9963 0
584 -9965 0
584 -9964 9973 0
-584 9963 9965 -9973 0
-584 9963 9964 9965 0
585 -512 -586 0
-585 512 0
-585 586 0
586 553 -557 0
-586 -553 0
-586 557 0
587 -523 -524 0
-587 523 0
-587 524 0
588 -9966 -9977 -585 -589 0
-588 589 0
-588 9966 0
-588 585 0
-588 9977 0
589 -9972 9973 -528 0
-589 9972 0
-589 -9973 0
-589 528 0
-590 524 575 588 0
-590 591 575 588 0
590 -588 0
590 -575 0
590 -524 -591 0
591 520 -523 0
-591 -520 0
-591 523 0
-592 -575 593 0
-592 593 -600 0
-592 9977 593 0
592 -593 0
592 -9977 575 600 0
593 -585 -594 0
593 -585 -598 0
-593 585 0
-593 594 598 0
594 -9973 -528 -595 597 0
-594 595 0
-594 -597 0
-594 9973 0
-594 528 0
595 -9976 596 0
-595 9976 0
-595 -596 0
596 9818 -370 0
-596 -9818 0
-596 370 0
597 -9976 -371 0
-597 9976 0
-597 371 0
598 -9976 371 599 596 0
-598 -599 0
-598 -596 0
-598 9976 0
-598 -371 0
-599 9963 9964 9965 0
599 -9963 0
599 -9965 0
599 -9964 0
600 -585 -589 0
600 -585 -598 0
600 -585 -594 0
-600 585 0
-600 589 594 598 0
-601 9978 602 0
-601 -9978 -602 0
-601 363 0
-601 -349 -602 0
601 -9978 -363 602 0
601 9978 349 -363 -602 0
-602 349 604 0
-602 349 -603 0
-602 9961 349 0
602 -349 0
602 -9961 603 -604 0
-603 329 356 0
-603 9977 329 0
-603 -9977 356 -357 0
603 9977 -329 0
603 -9977 -356 0
603 -329 357 0
-604 332 0
-604 9900 9977 9992 0
604 -9900 -332 0
604 -9977 -332 0
604 -9992 -332 0
-605 -602 606 0
-605 9979 602 0
-605 363 606 0
605 -602 -606 0
605 -9979 -363 602 0
605 -9979 -606 0
606 9978 9979 349 -363 0
606 -9978 -9979 349 -363 0
-606 -349 0
-606 -9978 9979 0
-606 363 0
-606 9978 -9979 0
-607 -602 608 0
-607 9980 602 0
-607 363 608 0
607 -602 -608 0
607 -9980 -363 602 0
607 -9980 -608 0
608 -349 -363 0
608 -9980 -609 -363 0
608 9980 609 -363 0
-608 363 0
-608 -9980 349 609 0
-608 9980 349 -609 0
-609 9978 9979 0
609 -9978 0
609 -9979 0
-610 9981 611 0
-610 611 -612 0
610 -611 0
610 -9981 612 0
-611 352 365 0
-611 -9961 358 365 0
611 -365 0
611 -352 -358 0
611 9961 -352 0
612 9993 -9996 0
612 9996 -353 0
-612 -9993 -9996 0
-612 9996 353 0
613 9981 -9982 0
613 -9981 9982 0
-613 -9981 -9982 0
-613 9981 9982 0
-614 122 0
-614 9983 150 0
-614 9864 -150 0
614 -9864 -122 -150 0
614 -9983 -122 150 0
-615 9984 302 0
-615 9983 -302 0
615 -9984 302 0
615 -9983 -302 0
-616 9985 304 0
-616 9983 -304 0
616 -9985 304 0
616 -9983 -304 0
-617 9986 306 0
-617 9983 -306 0
617 -9986 306 0
617 -9983 -306 0
-618 9987 309 0
-618 9983 -309 0
618 -9987 309 0
618 -9983 -309 0
-619 9988 311 0
-619 9983 -311 0
619 -9988 311 0
619 -9983 -311 0
-620 9989 314 0
-620 9983 -314 0
620 -9989 314 0
620 -9983 -314 0
-621 9990 316 0
-621 9983 -316 0
621 -9990 316 0
621 -9983 -316 0
-622 9991 319 0
-622 9983 -319 0
622 -9991 319 0
622 -9983 -319 0
623 -9992 624 0
623 -321 624 0
-623 -624 0
-623 9992 321 0
624 -324 -625 0
624 9991 -324 389 0
-624 324 0
-624 -9991 625 0
-624 -389 625 0
-625 394 626 627 0
-625 -9989 626 627 0
625 -627 0
625 -626 0
625 9989 -394 0
626 9990 -393 0
-626 -9990 0
-626 393 0
-627 399 628 629 0
-627 -9987 628 629 0
627 -629 0
627 -628 0
627 9987 -399 0
628 9988 -398 0
-628 -9988 0
-628 398 0
-629 -9986 630 0
-629 402 630 0
629 -630 0
629 9986 -402 0
-630 -9985 286 0
-630 -9984 404 0
-630 -9984 -9985 0
-630 286 404 0
630 9985 -404 0
630 9984 -286 0
-631 -632 641 0
-631 -638 641 0
-631 9995 641 0
631 -641 0
631 -9995 632 638 0
-632 587 634 0
-632 9966 634 0
-632 633 634 0
632 -634 0
632 -9966 -587 -633 0
633 -9972 9973 0
-633 9972 0
-633 -9973 0
-634 537 635 636 0
-634 564 635 636 0
634 -636 0
634 -635 0
634 -537 -564 0
635 9966 -9976 599 -585 0
-635 -9966 0
-635 585 0
-635 -599 0
-635 9976 0
636 -637 -528 -529 0
-636 637 0
-636 528 0
-636 529 0
637 9972 -9973 0
-637 -9972 0
-637 9973 0
638 -531 -639 0
638 -531 -640 0
-638 531 0
-638 639 640 0
639 371 -369 520 -523 0
-639 -371 0
-639 523 0
-639 -520 0
-639 369 0
640 371 -369 -637 -528 0
-640 -371 0
-640 528 0
-640 637 0
-640 369 0
641 -514 -642 0
-641 514 0
-641 642 0
642 512 -586 0
-642 -512 0
-642 586 0
643 9997 -10112 0
643 -9997 10112 0
-643 -9997 -10112 0
-643 9997 10112 0
644 -9998 10112 0
644 -9997 9998 -10112 0
644 9997 -9998 0
-644 9998 10112 0
-644 9997 9998 0
-644 -9997 -9998 -10112 0
645 -9999 10112 0
645 9999 -10112 -646 0
645 -9999 646 0
-645 9999 646 0
-645 9999 10112 0
-645 -9999 -10112 -646 0
646 -9997 -9998 0
-646 9997 0
-646 9998 0
647 -10000 10112 0
647 -10000 648 649 0
647 10000 -10112 -648 649 0
-647 10000 648 0
-647 -10000 -10112 -648 0
-647 10000 10112 0
-647 -10112 -649 0
648 -9997 -9998 -9999 0
-648 9997 0
-648 9998 0
-648 9999 0
649 -9997 -650 0
-649 9997 0
-649 650 0
650 -9998 -9999 10000 10001 0
-650 9999 0
-650 -10001 0
-650 9998 0
-650 -10000 0
651 -10001 10112 0
651 10001 -10112 -652 0
651 -10001 652 0
-651 10001 652 0
-651 10001 10112 0
-651 -10001 -10112 -652 0
652 -10000 -648 0
-652 10000 0
-652 648 0
653 -10002 -654 0
653 654 -655 0
653 -654 -659 0
-653 654 655 0
-653 10002 -654 659 0
654 9996 -323 0
-654 -9996 0
-654 323 0
-655 656 657 0
-655 -359 -382 657 0
655 -657 0
655 382 -656 0
655 359 -656 0
656 -9976 -9995 -359 381 0
-656 359 0
-656 -381 0
-656 9976 0
-656 9995 0
657 -9976 -658 356 -357 0
-657 -356 0
-657 357 0
-657 9976 0
-657 658 0
-658 9979 9980 0
658 -9979 0
658 -9980 0
659 328 -346 371 596 0
-659 -596 0
-659 -371 0
-659 -328 0
-659 346 0
660 10002 -10003 0
660 -10002 10003 0
-660 -10002 -10003 0
-660 10002 10003 0
661 10002 -10004 0
661 -10002 -10003 10004 0
661 10003 -10004 0
-661 10002 10004 0
-661 10003 10004 0
-661 -10002 -10003 -10004 0
662 -10005 663 0
662 -10002 10005 -663 0
662 10002 -10005 0
-662 10005 663 0
-662 10002 10005 0
-662 -10002 -10005 -663 0
663 -10003 -10004 0
-663 10003 0
-663 10004 0
664 10002 -10006 0
664 -10006 665 666 0
664 -10002 10006 -665 666 0
-664 10006 665 0
-664 -10002 -10006 -665 0
-664 -10002 -666 0
-664 10002 10006 0
665 -10003 -10004 -10005 0
-665 10003 0
-665 10004 0
-665 10005 0
666 -10003 -667 0
-666 10003 0
-666 667 0
667 -10004 -10005 10006 10007 0
-667 10005 0
-667 -10007 0
-667 10004 0
-667 -10006 0
668 -10007 669 0
668 -10002 10007 -669 0
668 10002 -10007 0
-668 10007 669 0
-668 10002 10007 0
-668 -10002 -10007 -669 0
669 -10006 -665 0
-669 10006 0
-669 665 0
-670 10008 671 0
-670 9900 -671 0
670 -10008 671 0
670 -9900 -671 0
671 -10002 -666 0
-671 10002 0
-671 666 0
-672 10009 673 0
-672 9900 -673 0
672 -10009 673 0
672 -9900 -673 0
673 -10002 10003 -667 0
-673 10002 0
-673 -10003 0
-673 667 0
-674 10010 675 0
-674 9900 -675 0
674 -10010 675 0
674 -9900 -675 0
675 -10002 -10003 -676 0
-675 10002 0
-675 10003 0
-675 676 0
676 10004 -10005 10006 10007 0
-676 10005 0
-676 -10007 0
-676 -10004 0
-676 -10006 0
-677 10011 678 0
-677 9900 -678 0
677 -10011 678 0
677 -9900 -678 0
678 -10002 10003 -676 0
-678 10002 0
-678 -10003 0
-678 676 0
-679 10012 680 0
-679 9900 -680 0
679 -10012 680 0
679 -9900 -680 0
680 -10002 -10003 -681 0
-680 10002 0
-680 10003 0
-680 681 0
681 -10004 10005 10006 10007 0
-681 -10007 0
-681 -10006 0
-681 10004 0
-681 -10005 0
-682 10013 683 0
-682 9900 -683 0
682 -10013 683 0
682 -9900 -683 0
683 -10002 10003 -681 0
-683 10002 0
-683 -10003 0
-683 681 0
-684 10014 685 0
-684 9900 -685 0
684 -10014 685 0
684 -9900 -685 0
685 -10002 -10003 686 0
-685 10002 0
-685 10003 0
-685 -686 0
-686 10004 10005 10006 10007 0
686 -10007 0
686 -10006 0
686 -10004 0
686 -10005 0
-687 10015 688 0
-687 9900 -688 0
687 -10015 688 0
687 -9900 -688 0
688 -10002 10003 686 0
-688 10002 0
-688 -10003 0
-688 -686 0
-689 10016 707 0
-689 690 -707 0
689 -690 -707 0
689 -10016 707 0
690 -691 694 695 0
690 -10014 -691 695 0
-690 -695 0
-690 691 0
-690 10014 -694 0
-691 10015 692 0
691 -10015 0
691 -692 0
-692 9997 693 0
692 -9997 0
692 -693 0
-693 9998 9999 10000 10001 0
693 -10001 0
693 -10000 0
693 -9998 0
693 -9999 0
694 -9997 693 0
-694 9997 0
-694 -693 0
-695 696 699 700 0
-695 -10012 696 700 0
695 -700 0
695 -696 0
695 10012 -699 0
696 10013 -697 0
-696 -10013 0
-696 697 0
697 9997 -698 0
-697 -9997 0
-697 698 0
698 -9998 9999 10000 10001 0
-698 -10001 0
-698 -10000 0
-698 9998 0
-698 -9999 0
699 -9997 -698 0
-699 9997 0
-699 698 0
-700 701 704 705 0
-700 -10010 701 705 0
700 -705 0
700 -701 0
700 10010 -704 0
701 10011 -702 0
-701 -10011 0
-701 702 0
702 9997 -703 0
-702 -9997 0
-702 703 0
703 9998 -9999 10000 10001 0
-703 9999 0
-703 -10001 0
-703 -9998 0
-703 -10000 0
704 -9997 -703 0
-704 9997 0
-704 703 0
-705 -10009 649 0
-705 -10008 706 0
-705 -10008 -10009 0
-705 649 706 0
705 10009 -706 0
705 10008 -649 0
706 9997 -650 0
-706 -9997 0
-706 650 0
707 -10112 -708 0
-707 10112 0
-707 708 0
708 10114 -10115 0
-708 -10114 0
-708 10115 0
-709 10017 671 0
-709 9910 -671 0
709 -10017 671 0
709 -9910 -671 0
-710 10018 673 0
-710 9910 -673 0
710 -10018 673 0
710 -9910 -673 0
-711 10019 675 0
-711 9910 -675 0
711 -10019 675 0
711 -9910 -675 0
-712 10020 678 0
-712 9910 -678 0
712 -10020 678 0
712 -9910 -678 0
-713 10021 680 0
-713 9910 -680 0
713 -10021 680 0
713 -9910 -680 0
-714 10022 683 0
-714 9910 -683 0
714 -10022 683 0
714 -9910 -683 0
-715 10023 685 0
-715 9910 -685 0
715 -10023 685 0
715 -9910 -685 0
-716 10024 688 0
-716 9910 -688 0
716 -10024 688 0
716 -9910 -688 0
-717 -707 718 0
-717 10025 707 0
717 -707 -718 0
717 -10025 707 0
718 694 -719 720 0
718 -10023 -719 720 0
-718 -720 0
-718 719 0
-718 10023 -694 0
-719 10024 692 0
719 -10024 0
719 -692 0
-720 699 721 722 0
-720 -10021 721 722 0
720 -722 0
720 -721 0
720 10021 -699 0
721 10022 -697 0
-721 -10022 0
-721 697 0
-722 704 723 724 0
-722 -10019 723 724 0
722 -724 0
722 -723 0
722 10019 -704 0
723 10020 -702 0
-723 -10020 0
-723 702 0
-724 -10018 649 0
-724 -10017 706 0
-724 -10017 -10018 0
-724 649 706 0
724 10018 -706 0
724 10017 -649 0
-725 10026 671 0
-725 9920 -671 0
725 -10026 671 0
725 -9920 -671 0
-726 10027 673 0
-726 9920 -673 0
726 -10027 673 0
726 -9920 -673 0
-727 10028 675 0
-727 9920 -675 0
727 -10028 675 0
727 -9920 -675 0
-728 10029 678 0
-728 9920 -678 0
728 -10029 678 0
728 -9920 -678 0
-729 10030 680 0
-729 9920 -680 0
729 -10030 680 0
729 -9920 -680 0
-730 10031 683 0
-730 9920 -683 0
730 -10031 683 0
730 -9920 -683 0
-731 10032 685 0
-731 9920 -685 0
731 -10032 685 0
731 -9920 -685 0
-732 10033 688 0
-732 9920 -688 0
732 -10033 688 0
732 -9920 -688 0
-733 -707 734 0
-733 10034 707 0
733 -707 -734 0
733 -10034 707 0
734 694 -735 736 0
734 -10032 -735 736 0
-734 -736 0
-734 735 0
-734 10032 -694 0
-735 10033 692 0
735 -10033 0
735 -692 0
-736 699 737 738 0
-736 -10030 737 738 0
736 -738 0
736 -737 0
736 10030 -699 0
737 10031 -697 0
-737 -10031 0
-737 697 0
-738 704 739 740 0
-738 -10028 739 740 0
738 -740 0
738 -739 0
738 10028 -704 0
739 10029 -702 0
-739 -10029 0
-739 702 0
-740 -10027 649 0
-740 -10026 706 0
-740 -10026 -10027 0
-740 649 706 0
740 10027 -706 0
740 10026 -649 0
-741 10035 671 0
-741 9930 -671 0
741 -10035 671 0
741 -9930 -671 0
-742 10036 673 0
-742 9930 -673 0
742 -10036 673 0
742 -9930 -673 0
-743 10037 675 0
-743 9930 -675 0
743 -10037 675 0
743 -9930 -675 0
-744 10038 678 0
-744 9930 -678 0
744 -10038 678 0
744 -9930 -678 0
-745 10039 680 0
-745 9930 -680 0
745 -10039 680 0
745 -9930 -680 0
-746 10040 683 0
-746 9930 -683 0
746 -10040 683 0
746 -9930 -683 0
-747 10041 685 0
-747 9930 -685 0
747 -10041 685 0
747 -9930 -685 0
-748 10042 688 0
-748 9930 -688 0
748 -10042 688 0
748 -9930 -688 0
-749 -707 750 0
-749 10043 707 0
749 -707 -750 0
749 -10043 707 0
750 694 -751 752 0
750 -10041 -751 752 0
-750 -752 0
-750 751 0
-750 10041 -694 0
-751 10042 692 0
751 -10042 0
751 -692 0
-752 699 753 754 0
-752 -10039 753 754 0
752 -754 0
752 -753 0
752 10039 -699 0
753 10040 -697 0
-753 -10040 0
-753 697 0
-754 704 755 756 0
-754 -10037 755 756 0
754 -756 0
754 -755 0
754 10037 -704 0
755 10038 -702 0
-755 -10038 0
-755 702 0
-756 -10036 649 0
-756 -10035 706 0
-756 -10035 -10036 0
-756 649 706 0
756 10036 -706 0
756 10035 -649 0
-757 10044 671 0
-757 9940 -671 0
757 -10044 671 0
757 -9940 -671 0
-758 10045 673 0
-758 9940 -673 0
758 -10045 673 0
758 -9940 -673 0
-759 10046 675 0
-759 9940 -675 0
759 -10046 675 0
759 -9940 -675 0
-760 10047 678 0
-760 9940 -678 0
760 -10047 678 0
760 -9940 -678 0
-761 10048 680 0
-761 9940 -680 0
761 -10048 680 0
761 -9940 -680 0
-762 10049 683 0
-762 9940 -683 0
762 -10049 683 0
762 -9940 -683 0
-763 10050 685 0
-763 9940 -685 0
763 -10050 685 0
763 -9940 -685 0
-764 10051 688 0
-764 9940 -688 0
764 -10051 688 0
764 -9940 -688 0
-765 -707 766 0
-765 10052 707 0
765 -707 -766 0
765 -10052 707 0
766 694 -767 768 0
766 -10050 -767 768 0
-766 -768 0
-766 767 0
-766 10050 -694 0
-767 10051 692 0
767 -10051 0
767 -692 0
-768 699 769 770 0
-768 -10048 769 770 0
768 -770 0
768 -769 0
768 10048 -699 0
769 10049 -697 0
-769 -10049 0
-769 697 0
-770 704 771 772 0
-770 -10046 771 772 0
770 -772 0
770 -771 0
770 10046 -704 0
771 10047 -702 0
-771 -10047 0
-771 702 0
-772 -10045 649 0
-772 -10044 706 0
-772 -10044 -10045 0
-772 649 706 0
772 10045 -706 0
772 10044 -649 0
-773 10053 671 0
-773 9950 -671 0
773 -10053 671 0
773 -9950 -671 0
-774 10054 673 0
-774 9950 -673 0
774 -10054 673 0
774 -9950 -673 0
-775 10055 675 0
-775 9950 -675 0
775 -10055 675 0
775 -9950 -675 0
-776 10056 678 0
-776 9950 -678 0
776 -10056 678 0
776 -9950 -678 0
-777 10057 680 0
-777 9950 -680 0
777 -10057 680 0
777 -9950 -680 0
-778 10058 683 0
-778 9950 -683 0
778 -10058 683 0
778 -9950 -683 0
-779 10059 685 0
-779 9950 -685 0
779 -10059 685 0
779 -9950 -685 0
-780 10060 688 0
-780 9950 -688 0
780 -10060 688 0
780 -9950 -688 0
-781 -707 782 0
-781 10061 707 0
781 -707 -782 0
781 -10061 707 0
782 694 -783 784 0
782 -10059 -783 784 0
-782 -784 0
-782 783 0
-782 10059 -694 0
-783 10060 692 0
783 -10060 0
783 -692 0
-784 699 785 786 0
-784 -10057 785 786 0
784 -786 0
784 -785 0
784 10057 -699 0
785 10058 -697 0
-785 -10058 0
-785 697 0
-786 704 787 788 0
-786 -10055 787 788 0
786 -788 0
786 -787 0
786 10055 -704 0
787 10056 -702 0
-787 -10056 0
-787 702 0
-788 -10054 649 0
-788 -10053 706 0
-788 -10053 -10054 0
-788 649 706 0
788 10054 -706 0
788 10053 -649 0
-789 10062 671 0
-789 9960 -671 0
789 -10062 671 0
789 -9960 -671 0
-790 10063 673 0
-790 9960 -673 0
790 -10063 673 0
790 -9960 -673 0
-791 10064 675 0
-791 9960 -675 0
791 -10064 675 0
791 -9960 -675 0
-792 10065 678 0
-792 9960 -678 0
792 -10065 678 0
792 -9960 -678 0
-793 10066 680 0
-793 9960 -680 0
793 -10066 680 0
793 -9960 -680 0
-794 10067 683 0
-794 9960 -683 0
794 -10067 683 0
794 -9960 -683 0
-795 10068 685 0
-795 9960 -685 0
795 -10068 685 0
795 -9960 -685 0
-796 10069 688 0
-796 9960 -688 0
796 -10069 688 0
796 -9960 -688 0
-797 -707 798 0
-797 10070 707 0
797 -707 -798 0
797 -10070 707 0
798 694 -799 800 0
798 -10068 -799 800 0
-798 -800 0
-798 799 0
-798 10068 -694 0
-799 10069 692 0
799 -10069 0
799 -692 0
-800 699 801 802 0
-800 -10066 801 802 0
800 -802 0
800 -801 0
800 10066 -699 0
801 10067 -697 0
-801 -10067 0
-801 697 0
-802 704 803 804 0
-802 -10064 803 804 0
802 -804 0
802 -803 0
802 10064 -704 0
803 10065 -702 0
-803 -10065 0
-803 702 0
-804 -10063 649 0
-804 -10062 706 0
-804 -10062 -10063 0
-804 649 706 0
804 10063 -706 0
804 10062 -649 0
805 -10071 806 0
-805 10071 0
-805 -806 0
806 -10103 -807 810 0
-806 10103 0
-806 807 0
-806 -810 0
807 10016 10025 10113 -808 0
-807 808 0
-807 -10113 0
-807 -10016 0
-807 -10025 0
808 10034 -10043 10052 809 0
-808 10043 0
-808 -10052 0
-808 -10034 0
-808 -809 0
-809 10061 10070 0
809 -10061 0
809 -10070 0
-810 10114 10115 0
810 -10114 0
810 -10115 0
811 -10072 806 0
-811 10072 0
-811 -806 0
812 -10073 806 0
-812 10073 0
-812 -806 0
813 -10074 806 0
-813 10074 0
-813 -806 0
814 -10075 806 0
-814 10075 0
-814 -806 0
815 -10076 806 0
-815 10076 0
-815 -806 0
816 -10077 806 0
-816 10077 0
-816 -806 0
817 -10078 806 0
-817 10078 0
-817 -806 0
818 -10079 806 0
-818 10079 0
-818 -806 0
819 -10080 806 0
-819 10080 0
-819 -806 0
820 -10081 806 0
-820 10081 0
-820 -806 0
821 -10082 806 0
-821 10082 0
-821 -806 0
822 -10083 806 0
-822 10083 0
-822 -806 0
823 -10084 806 0
-823 10084 0
-823 -806 0
824 -10085 806 0
-824 10085 0
-824 -806 0
825 -10086 806 0
-825 10086 0
-825 -806 0
826 -10087 806 0
-826 10087 0
-826 -806 0
827 -10088 806 0
-827 10088 0
-827 -806 0
828 -10089 806 0
-828 10089 0
-828 -806 0
829 -10090 806 0
-829 10090 0
-829 -806 0
830 -10091 806 0
-830 10091 0
-830 -806 0
831 -10092 806 0
-831 10092 0
-831 -806 0
832 -10093 806 0
-832 10093 0
-832 -806 0
833 -10094 806 0
-833 10094 0
-833 -806 0
834 -10095 806 0
-834 10095 0
-834 -806 0
835 -10096 806 0
-835 10096 0
-835 -806 0
836 -10097 806 0
-836 10097 0
-836 -806 0
837 -10098 806 0
-837 10098 0
-837 -806 0
838 -10099 806 0
-838 10099 0
-838 -806 0
839 -10100 806 0
-839 10100 0
-839 -806 0
-840 -806 -841 0
-840 10101 806 0
840 -806 841 0
840 -10101 806 0
-841 10101 842 0
841 -10101 0
841 -842 0
-842 10071 10072 10073 843 0
842 -843 0
842 -10073 0
842 -10071 0
842 -10072 0
-843 10074 10075 10076 844 0
843 -844 0
843 -10076 0
843 -10074 0
843 -10075 0
-844 10077 10078 10079 845 0
844 -845 0
844 -10079 0
844 -10077 0
844 -10078 0
-845 10080 10081 10082 846 0
845 -846 0
845 -10082 0
845 -10080 0
845 -10081 0
-846 10083 10084 10085 847 0
846 -847 0
846 -10085 0
846 -10083 0
846 -10084 0
-847 10086 10087 10088 848 0
847 -848 0
847 -10088 0
847 -10086 0
847 -10087 0
-848 10089 10090 10091 849 0
848 -849 0
848 -10091 0
848 -10089 0
848 -10090 0
-849 10092 10093 10094 850 0
849 -850 0
849 -10094 0
849 -10092 0
849 -10093 0
-850 10095 10096 10097 851 0
850 -851 0
850 -10097 0
850 -10095 0
850 -10096 0
-851 10098 10099 10100 0
851 -10098 0
851 -10100 0
851 -10099 0
-852 -806 853 0
-852 10102 806 0
852 -806 -853 0
852 -10102 806 0
853 10101 -854 0
853 -10101 855 0
-853 -10101 -855 0
-853 10101 854 0
854 -10102 842 0
-854 10102 0
-854 -842 0
-855 10102 842 0
855 -10102 0
855 -842 0
-856 -857 867 0
-856 10103 322 857 0
856 -857 -867 0
856 -10103 857 0
856 -322 857 0
-857 -810 858 0
-857 858 859 0
-857 10103 858 0
857 -858 0
857 -10103 810 -859 0
-858 9829 0
-858 10114 0
858 -9829 -10114 0
-859 807 860 0
859 -807 0
859 -860 0
860 -9829 861 0
-860 9829 0
-860 -861 0
-861 10016 10113 862 866 0
861 -10016 0
861 -866 0
861 -862 0
861 -10113 0
-862 -865 0
-862 -10025 10034 0
-862 10034 863 0
862 -10034 865 0
862 10025 -863 865 0
-863 -864 0
-863 -10043 10052 0
-863 10052 10061 0
863 -10052 864 0
863 10043 -10061 864 0
864 10061 -10070 0
-864 -10061 0
-864 10070 0
865 -864 0
865 -10043 10052 0
-865 -10052 864 0
-865 10043 864 0
866 -865 0
866 -10025 10034 0
-866 -10034 865 0
-866 10025 865 0
867 810 868 -861 0
-867 -810 0
-867 861 0
-867 -868 0
868 869 -855 0
-868 -869 0
-868 855 0
869 10101 -854 0
-869 -10101 0
-869 854 0
-870 10104 671 0
-870 9992 -671 0
870 -10104 671 0
870 -9992 -671 0
-871 10105 673 0
-871 9992 -673 0
871 -10105 673 0
871 -9992 -673 0
-872 10106 675 0
-872 9992 -675 0
872 -10106 675 0
872 -9992 -675 0
-873 10107 678 0
-873 9992 -678 0
873 -10107 678 0
873 -9992 -678 0
-874 10108 680 0
-874 9992 -680 0
874 -10108 680 0
874 -9992 -680 0
-875 10109 683 0
-875 9992 -683 0
875 -10109 683 0
875 -9992 -683 0
-876 10110 685 0
-876 9992 -685 0
876 -10110 685 0
876 -9992 -685 0
-877 10111 688 0
-877 9992 -688 0
877 -10111 688 0
877 -9992 -688 0
878 -879 -890 0
878 -322 890 0
878 -10112 890 0
-878 879 -890 0
-878 10112 322 890 0
879 -708 -880 0
-879 708 0
-879 880 0
880 690 718 -881 883 0
-880 -690 0
-880 -883 0
-880 881 0
-880 -718 0
881 734 -750 882 0
-881 -882 0
-881 750 0
-881 -734 0
-882 766 782 798 0
882 -766 0
882 -798 0
882 -782 0
883 694 -884 885 0
883 -10110 -884 885 0
-883 -885 0
-883 884 0
-883 10110 -694 0
-884 10111 692 0
884 -10111 0
884 -692 0
-885 699 886 887 0
-885 -10108 886 887 0
885 -887 0
885 -886 0
885 10108 -699 0
886 10109 -697 0
-886 -10109 0
-886 697 0
-887 704 888 889 0
-887 -10106 888 889 0
887 -889 0
887 -888 0
887 10106 -704 0
888 10107 -702 0
-888 -10107 0
-888 702 0
-889 -10105 649 0
-889 -10104 706 0
-889 -10104 -10105 0
-889 649 706 0
889 10105 -706 0
889 10104 -649 0
-890 -810 858 892 0
-890 858 891 892 0
890 -858 0
890 -892 0
890 810 -891 0
891 -10103 -860 0
891 -10103 -807 -855 0
-891 10103 0
-891 807 860 0
-891 855 860 0
892 -10112 -708 893 0
-892 10112 0
-892 708 0
-892 -893 0
893 880 -894 896 0
-893 -880 0
-893 -896 0
-893 894 0
-894 690 718 883 895 0
894 -895 0
894 -883 0
894 -690 0
894 -718 0
-895 734 750 882 0
895 -882 0
895 -750 0
895 -734 0
896 -906 910 0
896 897 910 -913 0
-896 -910 0
-896 -897 906 0
-896 906 913 0
897 -690 -905 0
897 -883 -898 -905 0
-897 905 0
-897 690 883 0
-897 690 898 0
-898 904 0
-898 -718 734 0
-898 734 899 0
898 -734 -904 0
898 718 -899 -904 0
899 -900 -902 0
-899 900 0
-899 902 0
900 -766 901 0
900 -782 901 0
-900 -901 0
-900 766 782 0
901 782 -798 0
-901 -782 0
-901 798 0
-902 750 903 0
902 -750 0
902 -903 0
903 -766 901 0
-903 766 0
-903 -901 0
904 901 -902 0
-904 -901 0
-904 902 0
-905 904 0
-905 -718 734 0
905 -734 -904 0
905 718 -904 0
906 907 -909 0
-906 -907 0
-906 909 0
907 -908 0
907 -718 734 0
-907 -734 908 0
-907 718 908 0
908 -750 903 0
908 -901 903 0
-908 -903 0
-908 750 901 0
-909 883 -907 0
-909 690 883 0
909 -883 0
909 -690 907 0
910 -690 907 0
910 -883 907 -911 0
-910 -907 0
-910 690 911 0
-910 690 883 0
-911 -908 0
-911 -718 734 0
-911 734 912 0
911 -734 908 0
911 718 908 -912 0
-912 -750 903 0
-912 900 903 0
912 -903 0
912 750 -900 0
913 -905 -914 0
-913 905 0
-913 914 0
-914 883 905 0
-914 690 883 0
914 -883 0
914 -690 -905 0
-915 -707 883 0
-915 10113 707 0
915 -707 -883 0
915 -10113 707 0
916 -708 -917 -919 0
916 708 918 -919 0
-916 919 0
-916 -708 917 0
-916 708 -918 0
917 -10112 880 -894 0
-917 10112 0
-917 894 0
-917 -880 0
-918 9829 -810 0
-918 9829 861 0
918 -9829 0
918 810 -861 0
-919 10114 -10115 -921 0
-919 10114 10115 920 0
919 -10114 0
919 -10115 921 0
919 10115 -920 0
920 -10103 -807 0
920 -10103 861 0
-920 10103 0
-920 807 -861 0
921 -10112 -893 0
-921 10112 0
-921 893 0
-922 708 923 0
-922 921 923 0
922 -923 0
922 -708 -921 0
923 707 867 -920 0
923 707 -810 867 0
-923 -707 0
-923 -867 0
-923 810 920 0
924 -925 -929 0
924 -10116 925 0
924 -925 -928 0
-924 10116 925 0
-924 -925 928 929 0
-925 9829 -10114 0
-925 10114 10115 926 0
925 -9829 -10114 0
925 10114 -926 0
925 10114 -10115 0
926 -10103 -860 0
926 -10103 -807 -927 0
-926 10103 0
-926 860 927 0
-926 807 860 0
927 -10101 842 0
-927 10101 0
-927 -842 0
928 -10112 -708 -896 0
928 -10112 -708 894 0
-928 10112 0
-928 708 0
-928 -894 896 0
-929 930 931 0
-929 -10115 930 0
-929 930 861 0
929 -930 0
929 10115 -861 -931 0
930 -10114 10115 0
-930 10114 0
-930 -10115 0
931 -10101 855 0
-931 10101 0
-931 -855 0
-932 10117 56 0
-932 -56 933 0
932 -10117 56 0
932 -56 -933 0
-933 -8 934 0
-933 8 938 0
933 8 -938 0
933 -8 -934 0
-934 935 -17 936 0
-934 935 17 937 0
934 -935 0
934 -17 -936 0
934 17 -937 0
935 -4 -7 0
-935 4 0
-935 7 0
936 -9826 -6 0
-936 9826 0
-936 6 0
937 -9826 -10116 0
-937 9826 0
-937 10116 0
-938 -12 939 0
-938 12 941 0
938 12 -941 0
938 -12 -939 0
-939 -6 -7 0
-939 6 940 0
-939 -6 24 0
939 6 -940 0
939 -6 7 -24 0
-940 9826 0
-940 10116 11 0
-940 7 -11 0
940 -9826 -10116 11 0
940 -9826 -7 -11 0
-941 -10116 -7 0
-941 10116 942 0
-941 -10116 38 0
941 10116 -942 0
941 -10116 7 -38 0
942 -9826 -6 11 0
942 -9826 -7 -11 0
-942 9826 0
-942 6 11 0
-942 7 -11 0
-943 944 955 0
-943 10118 -955 0
943 -10118 -955 0
943 -944 955 0
-944 82 945 0
-944 -82 946 0
944 82 -945 0
944 -82 -946 0
945 -10116 7 0
945 -6 7 0
-945 -7 0
-945 10116 6 0
-946 -8 947 0
-946 8 950 0
946 -8 -947 0
946 8 -950 0
947 7 -37 -948 0
-947 -7 0
-947 948 0
-947 37 0
-948 10116 17 949 0
-948 6 -17 949 0
948 -949 0
948 -6 -17 0
948 -10116 17 0
-949 9826 9827 0
949 -9826 0
949 -9827 0
-950 -12 951 0
-950 10116 12 954 0
950 -12 -951 0
950 -10116 12 0
950 12 -954 0
-951 6 952 0
951 -6 0
951 -952 0
952 -10116 -10117 0
952 -9828 10117 -953 0
-952 10117 953 0
-952 10116 -10117 0
-952 9828 10117 0
953 7 -949 0
-953 -7 0
-953 949 0
954 -10117 -6 0
954 -9828 10117 -953 0
-954 10117 953 0
-954 -10117 6 0
-954 9828 10117 0
955 -10118 960 0
955 -10119 -956 960 0
-955 -960 0
-955 10118 956 0
-955 10118 10119 0
956 -7 -957 0
956 7 -959 0
-956 7 959 0
-956 -7 957 0
957 -4 60 -958 0
957 6 -4 60 0
-957 -60 0
-957 4 0
-957 -6 958 0
958 10116 -37 0
958 -10116 10117 0
-958 -10116 -10117 0
-958 10116 37 0
959 -37 62 0
-959 37 0
-959 -62 0
-960 10118 0
-960 -10119 -965 0
-960 10119 -961 0
960 -10118 -10119 965 0
960 -10118 10119 961 0
961 -6 -962 0
961 6 -964 0
-961 6 964 0
-961 -6 962 0
962 -24 67 -963 0
962 7 -24 67 0
-962 -67 0
-962 24 0
-962 -7 963 0
963 9828 -10116 0
963 10116 -37 0
-963 -9828 -10116 0
-963 10116 37 0
964 -37 68 0
-964 37 0
-964 -68 0
-965 -10116 38 0
-965 10116 79 0
-965 -10116 -966 0
965 10116 -79 0
965 -10116 -38 966 0
-966 7 75 0
-966 36 -61 75 0
966 -75 0
966 -7 61 0
966 -7 -36 0
-967 10119 -955 0
-967 955 968 0
967 -10119 -955 0
967 955 -968 0
-968 82 969 0
-968 -82 970 0
968 -82 -970 0
968 82 -969 0
-969 -6 7 0
-969 10116 7 0
969 -7 0
969 -10116 6 0
-970 -8 971 0
-970 8 974 0
970 8 -974 0
970 -8 -971 0
-971 7 972 0
971 -7 0
971 -972 0
972 -9828 -10116 0
972 9828 -10117 -973 0
-972 9828 10117 0
-972 -9828 10116 0
-972 9828 973 0
973 6 -949 0
-973 -6 0
-973 949 0
-974 -12 975 0
-974 10116 12 977 0
974 -12 -975 0
974 -10116 12 0
974 12 -977 0
975 6 -37 -976 0
-975 -6 0
-975 976 0
-975 37 0
-976 10116 11 949 0
-976 7 -11 949 0
976 -949 0
976 -7 -11 0
976 -10116 11 0
977 -10117 -973 0
977 -9828 10117 -7 0
-977 10117 7 0
-977 -10117 973 0
-977 9828 10117 0
-978 -8 984 0
-978 979 980 984 0
978 -984 0
978 8 -979 0
978 8 -980 0
979 -7 82 0
-979 7 0
-979 -82 0
-980 10118 0
-980 -10119 983 0
-980 10119 981 0
980 -10118 -10119 -983 0
980 -10118 10119 -981 0
981 6 -10 0
981 6 -19 -982 0
-981 -6 0
-981 10 982 0
-981 10 19 0
982 9826 -9827 10116 0
-982 -9826 0
-982 9827 0
-982 -10116 0
983 10116 -10 0
983 10116 -17 -34 0
-983 -10116 0
-983 10 34 0
-983 10 17 0
984 -10120 985 0
-984 10120 0
-984 -985 0
985 7 -8 959 0
-985 -7 0
-985 8 0
-985 -959 0
-986 -12 -987 0
-986 10121 988 0
-986 10121 -12 0
-986 -987 988 0
986 12 -988 0
986 -10121 987 0
987 6 -12 964 0
-987 -6 0
-987 12 0
-987 -964 0
-988 6 989 0
-988 -7 989 0
-988 -82 989 0
988 -989 0
988 -6 7 82 0
-989 8 992 0
-989 990 992 0
-989 -7 992 0
989 -992 0
989 7 -8 -990 0
-990 10117 0
-990 -9828 991 0
-990 9828 6 0
990 -9828 -10117 -991 0
990 9828 -10117 -6 0
991 -9826 9827 10116 0
-991 9826 0
-991 -10116 0
-991 -9827 0
-992 39 987 0
-992 -10116 987 0
-992 993 987 0
992 -987 0
992 10116 -39 -993 0
-993 11 42 0
-993 32 42 0
993 -42 0
993 -11 -32 0
-994 10130 120 0
-994 9743 -120 0
994 -10130 120 0
994 -9743 -120 0
-995 -120 996 0
-995 10131 120 0
995 -120 -996 0
995 -10131 120 0
996 -9744 9825 0
-996 9744 0
-996 -9825 0
-997 10132 120 0
-997 9745 -120 0
997 -10132 120 0
997 -9745 -120 0
-998 -120 999 0
-998 10133 120 0
998 -120 -999 0
998 -10133 120 0
999 -9746 9825 0
-999 9746 0
-999 -9825 0
-1000 -120 1001 0
-1000 10134 120 0
1000 -120 -1001 0
1000 -10134 120 0
1001 -9747 9825 0
-1001 9747 0
-1001 -9825 0
-1002 -120 1003 0
-1002 10135 120 0
1002 -120 -1003 0
1002 -10135 120 0
1003 -9748 9825 0
-1003 9748 0
-1003 -9825 0
-1004 -120 1005 0
-1004 10136 120 0
1004 -120 -1005 0
1004 -10136 120 0
1005 -9749 9825 0
-1005 9749 0
-1005 -9825 0
-1006 -120 1007 0
-1006 10137 120 0
1006 -120 -1007 0
1006 -10137 120 0
1007 -9750 9825 0
-1007 9750 0
-1007 -9825 0
-1008 10138 120 0
-1008 9615 -120 0
1008 -10138 120 0
1008 -9615 -120 0
-1009 10139 120 0
-1009 9616 -120 0
1009 -10139 120 0
1009 -9616 -120 0
-1010 10140 120 0
-1010 9617 -120 0
1010 -10140 120 0
1010 -9617 -120 0
-1011 10141 120 0
-1011 9618 -120 0
1011 -10141 120 0
1011 -9618 -120 0
-1012 10142 120 0
-1012 9619 -120 0
1012 -10142 120 0
1012 -9619 -120 0
-1013 10143 120 0
-1013 9620 -120 0
1013 -10143 120 0
1013 -9620 -120 0
-1014 10144 120 0
-1014 9621 -120 0
1014 -10144 120 0
1014 -9621 -120 0
-1015 10145 120 0
-1015 9622 -120 0
1015 -10145 120 0
1015 -9622 -120 0
-1016 10146 120 0
-1016 9623 -120 0
1016 -10146 120 0
1016 -9623 -120 0
-1017 10147 120 0
-1017 9624 -120 0
1017 -10147 120 0
1017 -9624 -120 0
-1018 10148 120 0
-1018 9625 -120 0
1018 -10148 120 0
1018 -9625 -120 0
-1019 10149 120 0
-1019 9626 -120 0
1019 -10149 120 0
1019 -9626 -120 0
-1020 10150 120 0
-1020 9627 -120 0
1020 -10150 120 0
1020 -9627 -120 0
-1021 10151 120 0
-1021 9628 -120 0
1021 -10151 120 0
1021 -9628 -120 0
-1022 10152 120 0
-1022 9629 -120 0
1022 -10152 120 0
1022 -9629 -120 0
-1023 10153 120 0
-1023 9630 -120 0
1023 -10153 120 0
1023 -9630 -120 0
-1024 10154 120 0
-1024 9631 -120 0
1024 -10154 120 0
1024 -9631 -120 0
-1025 10155 120 0
-1025 9632 -120 0
1025 -10155 120 0
1025 -9632 -120 0
-1026 10156 120 0
-1026 9633 -120 0
1026 -10156 120 0
1026 -9633 -120 0
-1027 10157 120 0
-1027 9634 -120 0
1027 -10157 120 0
1027 -9634 -120 0
-1028 10158 120 0
-1028 9635 -120 0
1028 -10158 120 0
1028 -9635 -120 0
-1029 10159 120 0
-1029 9636 -120 0
1029 -10159 120 0
1029 -9636 -120 0
-1030 10160 120 0
-1030 9637 -120 0
1030 -10160 120 0
1030 -9637 -120 0
-1031 10161 120 0
-1031 9638 -120 0
1031 -10161 120 0
1031 -9638 -120 0
-1032 10162 120 0
-1032 9639 -120 0
1032 -10162 120 0
1032 -9639 -120 0
-1033 10163 120 0
-1033 9640 -120 0
1033 -10163 120 0
1033 -9640 -120 0
-1034 10164 120 0
-1034 9641 -120 0
1034 -10164 120 0
1034 -9641 -120 0
-1035 10165 120 0
-1035 9642 -120 0
1035 -10165 120 0
1035 -9642 -120 0
-1036 10166 120 0
-1036 9643 -120 0
1036 -10166 120 0
1036 -9643 -120 0
-1037 10167 120 0
-1037 9644 -120 0
1037 -10167 120 0
1037 -9644 -120 0
-1038 10168 120 0
-1038 9645 -120 0
1038 -10168 120 0
1038 -9645 -120 0
-1039 10169 120 0
-1039 9646 -120 0
1039 -10169 120 0
1039 -9646 -120 0
-1040 10170 120 0
-1040 9647 -120 0
1040 -10170 120 0
1040 -9647 -120 0
-1041 10171 120 0
-1041 9648 -120 0
1041 -10171 120 0
1041 -9648 -120 0
-1042 10172 120 0
-1042 9649 -120 0
1042 -10172 120 0
1042 -9649 -120 0
-1043 10173 120 0
-1043 9650 -120 0
1043 -10173 120 0
1043 -9650 -120 0
-1044 10174 120 0
-1044 9651 -120 0
1044 -10174 120 0
1044 -9651 -120 0
-1045 10175 120 0
-1045 9652 -120 0
1045 -10175 120 0
1045 -9652 -120 0
-1046 10176 120 0
-1046 9653 -120 0
1046 -10176 120 0
1046 -9653 -120 0
-1047 10177 120 0
-1047 9654 -120 0
1047 -10177 120 0
1047 -9654 -120 0
-1048 10178 120 0
-1048 9655 -120 0
1048 -10178 120 0
1048 -9655 -120 0
-1049 10179 120 0
-1049 9656 -120 0
1049 -10179 120 0
1049 -9656 -120 0
-1050 10180 120 0
-1050 9657 -120 0
1050 -10180 120 0
1050 -9657 -120 0
-1051 10181 120 0
-1051 9658 -120 0
1051 -10181 120 0
1051 -9658 -120 0
-1052 10182 120 0
-1052 9659 -120 0
1052 -10182 120 0
1052 -9659 -120 0
-1053 10183 120 0
-1053 9660 -120 0
1053 -10183 120 0
1053 -9660 -120 0
-1054 10184 120 0
-1054 9661 -120 0
1054 -10184 120 0
1054 -9661 -120 0
-1055 10185 120 0
-1055 9662 -120 0
1055 -10185 120 0
1055 -9662 -120 0
-1056 10186 120 0
-1056 9663 -120 0
1056 -10186 120 0
1056 -9663 -120 0
-1057 10187 120 0
-1057 9664 -120 0
1057 -10187 120 0
1057 -9664 -120 0
-1058 10188 120 0
-1058 9665 -120 0
1058 -10188 120 0
1058 -9665 -120 0
-1059 10189 120 0
-1059 9666 -120 0
1059 -10189 120 0
1059 -9666 -120 0
-1060 10190 120 0
-1060 9667 -120 0
1060 -10190 120 0
1060 -9667 -120 0
-1061 10191 120 0
-1061 9668 -120 0
1061 -10191 120 0
1061 -9668 -120 0
-1062 10192 120 0
-1062 9669 -120 0
1062 -10192 120 0
1062 -9669 -120 0
-1063 10193 120 0
-1063 9670 -120 0
1063 -10193 120 0
1063 -9670 -120 0
-1064 10194 120 0
-1064 9671 -120 0
1064 -10194 120 0
1064 -9671 -120 0
-1065 10195 120 0
-1065 9672 -120 0
1065 -10195 120 0
1065 -9672 -120 0
-1066 10196 120 0
-1066 9673 -120 0
1066 -10196 120 0
1066 -9673 -120 0
-1067 10197 120 0
-1067 9674 -120 0
1067 -10197 120 0
1067 -9674 -120 0
-1068 10198 120 0
-1068 9675 -120 0
1068 -10198 120 0
1068 -9675 -120 0
-1069 10199 120 0
-1069 9676 -120 0
1069 -10199 120 0
1069 -9676 -120 0
-1070 10200 120 0
-1070 9677 -120 0
1070 -10200 120 0
1070 -9677 -120 0
-1071 10201 120 0
-1071 9678 -120 0
1071 -10201 120 0
1071 -9678 -120 0
-1072 10202 120 0
-1072 9679 -120 0
1072 -10202 120 0
1072 -9679 -120 0
-1073 10203 120 0
-1073 9680 -120 0
-1073 -9825 -120 0
1073 -10203 120 0
1073 -9680 9825 -120 0
-1074 10204 120 0
-1074 9681 -120 0
1074 -10204 120 0
1074 -9681 -120 0
-1075 10205 120 0
-1075 9682 -120 0
1075 -10205 120 0
1075 -9682 -120 0
-1076 10206 120 0
-1076 9683 -120 0
1076 -10206 120 0
1076 -9683 -120 0
-1077 10207 120 0
-1077 9684 -120 0
1077 -10207 120 0
1077 -9684 -120 0
-1078 10208 120 0
-1078 9685 -120 0
1078 -10208 120 0
1078 -9685 -120 0
-1079 10209 120 0
-1079 9686 -120 0
1079 -10209 120 0
1079 -9686 -120 0
-1080 10210 120 0
-1080 9687 -120 0
1080 -10210 120 0
1080 -9687 -120 0
-1081 10211 120 0
-1081 9688 -120 0
1081 -10211 120 0
1081 -9688 -120 0
-1082 10212 120 0
-1082 9689 -120 0
1082 -10212 120 0
1082 -9689 -120 0
-1083 10213 120 0
-1083 9690 -120 0
1083 -10213 120 0
1083 -9690 -120 0
-1084 10214 120 0
-1084 9691 -120 0
1084 -10214 120 0
1084 -9691 -120 0
-1085 10215 120 0
-1085 9692 -120 0
1085 -10215 120 0
1085 -9692 -120 0
-1086 10216 120 0
-1086 9693 -120 0
1086 -10216 120 0
1086 -9693 -120 0
-1087 10217 120 0
-1087 9694 -120 0
1087 -10217 120 0
1087 -9694 -120 0
-1088 10218 120 0
-1088 9695 -120 0
1088 -10218 120 0
1088 -9695 -120 0
-1089 10219 120 0
-1089 9696 -120 0
1089 -10219 120 0
1089 -9696 -120 0
-1090 10220 120 0
-1090 9697 -120 0
1090 -10220 120 0
1090 -9697 -120 0
-1091 10221 120 0
-1091 9698 -120 0
1091 -10221 120 0
1091 -9698 -120 0
-1092 10222 120 0
-1092 9699 -120 0
1092 -10222 120 0
1092 -9699 -120 0
-1093 10223 120 0
-1093 9700 -120 0
1093 -10223 120 0
1093 -9700 -120 0
-1094 10224 120 0
-1094 9701 -120 0
1094 -10224 120 0
1094 -9701 -120 0
-1095 10225 120 0
-1095 9702 -120 0
1095 -10225 120 0
1095 -9702 -120 0
-1096 10226 120 0
-1096 9703 -120 0
1096 -10226 120 0
1096 -9703 -120 0
-1097 10227 120 0
-1097 9704 -120 0
1097 -10227 120 0
1097 -9704 -120 0
-1098 10228 120 0
-1098 9705 -120 0
1098 -10228 120 0
1098 -9705 -120 0
-1099 10229 120 0
-1099 9706 -120 0
1099 -10229 120 0
1099 -9706 -120 0
-1100 10230 120 0
-1100 9707 -120 0
1100 -10230 120 0
1100 -9707 -120 0
-1101 10231 120 0
-1101 9708 -120 0
1101 -10231 120 0
1101 -9708 -120 0
-1102 10232 120 0
-1102 9709 -120 0
1102 -10232 120 0
1102 -9709 -120 0
-1103 10233 120 0
-1103 9710 -120 0
1103 -10233 120 0
1103 -9710 -120 0
-1104 10234 120 0
-1104 9711 -120 0
1104 -10234 120 0
1104 -9711 -120 0
-1105 10235 120 0
-1105 9712 -120 0
1105 -10235 120 0
1105 -9712 -120 0
-1106 10236 120 0
-1106 9713 -120 0
1106 -10236 120 0
1106 -9713 -120 0
-1107 10237 120 0
-1107 9714 -120 0
1107 -10237 120 0
1107 -9714 -120 0
-1108 10238 120 0
-1108 9715 -120 0
1108 -10238 120 0
1108 -9715 -120 0
-1109 10239 120 0
-1109 9716 -120 0
1109 -10239 120 0
1109 -9716 -120 0
-1110 10240 120 0
-1110 9717 -120 0
1110 -10240 120 0
1110 -9717 -120 0
-1111 10241 120 0
-1111 9718 -120 0
1111 -10241 120 0
1111 -9718 -120 0
-1112 10242 120 0
-1112 9719 -120 0
1112 -10242 120 0
1112 -9719 -120 0
-1113 10243 120 0
-1113 9720 -120 0
1113 -10243 120 0
1113 -9720 -120 0
-1114 10244 120 0
-1114 9721 -120 0
1114 -10244 120 0
1114 -9721 -120 0
-1115 10245 120 0
-1115 9722 -120 0
1115 -10245 120 0
1115 -9722 -120 0
-1116 10246 120 0
-1116 9723 -120 0
1116 -10246 120 0
1116 -9723 -120 0
-1117 10247 120 0
-1117 9724 -120 0
1117 -10247 120 0
1117 -9724 -120 0
-1118 10248 120 0
-1118 9725 -120 0
1118 -10248 120 0
1118 -9725 -120 0
-1119 10249 120 0
-1119 9726 -120 0
1119 -10249 120 0
1119 -9726 -120 0
-1120 10250 120 0
-1120 9727 -120 0
1120 -10250 120 0
1120 -9727 -120 0
-1121 10251 120 0
-1121 9728 -120 0
1121 -10251 120 0
1121 -9728 -120 0
-1122 10252 120 0
-1122 9729 -120 0
1122 -10252 120 0
1122 -9729 -120 0
-1123 10253 120 0
-1123 9730 -120 0
1123 -10253 120 0
1123 -9730 -120 0
-1124 10254 120 0
-1124 9731 -120 0
1124 -10254 120 0
1124 -9731 -120 0
-1125 10255 120 0
-1125 9732 -120 0
1125 -10255 120 0
1125 -9732 -120 0
-1126 10256 120 0
-1126 9733 -120 0
1126 -10256 120 0
1126 -9733 -120 0
-1127 10257 120 0
-1127 9734 -120 0
1127 -10257 120 0
1127 -9734 -120 0
-1128 10258 120 0
-1128 9735 -120 0
1128 -10258 120 0
1128 -9735 -120 0
-1129 10259 120 0
-1129 9736 -120 0
1129 -10259 120 0
1129 -9736 -120 0
-1130 10260 120 0
-1130 9737 -120 0
1130 -10260 120 0
1130 -9737 -120 0
-1131 10261 120 0
-1131 9738 -120 0
1131 -10261 120 0
1131 -9738 -120 0
-1132 10262 120 0
-1132 9739 -120 0
1132 -10262 120 0
1132 -9739 -120 0
-1133 10263 120 0
-1133 9740 -120 0
1133 -10263 120 0
1133 -9740 -120 0
-1134 10264 120 0
-1134 9741 -120 0
1134 -10264 120 0
1134 -9741 -120 0
-1135 10265 120 0
-1135 9742 -120 0
1135 -10265 120 0
1135 -9742 -120 0
-1136 10266 1137 0
-1136 10266 280 0
-1136 10202 -280 -1137 0
1136 -10266 280 0
1136 -10202 -280 -1137 0
1136 -10266 1137 0
1137 9831 -139 0
-1137 -9831 0
-1137 139 0
-1138 10267 1137 0
-1138 10267 280 0
-1138 10138 -280 -1137 0
1138 -10267 280 0
1138 -10138 -280 -1137 0
1138 -10267 1137 0
-1139 10268 1140 0
-1139 10202 -1140 0
1139 -10268 1140 0
1139 -10202 -1140 0
1140 -127 -159 0
-1140 127 0
-1140 159 0
-1141 -150 1142 0
-1141 10269 150 0
-1141 122 1142 0
1141 -150 -1142 0
1141 -10269 -122 150 0
1141 -10269 -1142 0
1142 -10138 -122 -144 0
1142 -122 144 -1143 0
-1142 122 0
-1142 144 1143 0
-1142 10138 -144 0
-1143 10138 -143 0
-1143 142 143 1144 0
-1143 10138 -142 0
1143 -10138 -142 0
1143 -10138 -143 0
1143 142 143 -1144 0
-1144 10138 -141 0
-1144 140 141 1145 0
-1144 10138 -140 0
1144 -10138 -140 0
1144 -10138 -141 0
1144 140 141 -1145 0
-1145 10138 -127 0
-1145 127 1146 0
1145 -10138 -127 0
1145 127 -1146 0
-1146 10268 -1137 0
-1146 1137 1147 0
1146 -10268 -1137 0
1146 1137 -1147 0
-1147 10266 1148 0
-1147 10267 -1148 0
1147 -10267 -1148 0
1147 -10266 1148 0
1148 -9831 -139 0
-1148 9831 0
-1148 139 0
-1149 10270 1137 0
-1149 10270 280 0
-1149 10203 -280 -1137 0
1149 -10270 280 0
1149 -10203 -280 -1137 0
1149 -10270 1137 0
-1150 10271 1137 0
-1150 10271 280 0
-1150 10139 -280 -1137 0
1150 -10271 280 0
1150 -10139 -280 -1137 0
1150 -10271 1137 0
-1151 10272 1140 0
-1151 10203 -1140 0
1151 -10272 1140 0
1151 -10203 -1140 0
-1152 -150 1153 0
-1152 10273 150 0
-1152 122 1153 0
1152 -150 -1153 0
1152 -10273 -122 150 0
1152 -10273 -1153 0
1153 -10139 -122 -144 0
1153 -122 144 -1154 0
-1153 122 0
-1153 144 1154 0
-1153 10139 -144 0
-1154 10139 -143 0
-1154 142 143 1155 0
-1154 10139 -142 0
1154 -10139 -142 0
1154 -10139 -143 0
1154 142 143 -1155 0
-1155 10139 -141 0
-1155 140 141 1156 0
-1155 10139 -140 0
1155 -10139 -140 0
1155 -10139 -141 0
1155 140 141 -1156 0
-1156 10139 -127 0
-1156 127 1157 0
1156 -10139 -127 0
1156 127 -1157 0
-1157 10272 -1137 0
-1157 1137 1158 0
1157 -10272 -1137 0
1157 1137 -1158 0
-1158 10270 1148 0
-1158 10271 -1148 0
1158 -10271 -1148 0
1158 -10270 1148 0
-1159 10274 1137 0
-1159 10274 280 0
-1159 10204 -280 -1137 0
1159 -10274 280 0
1159 -10204 -280 -1137 0
1159 -10274 1137 0
-1160 10275 1137 0
-1160 10275 280 0
-1160 10140 -280 -1137 0
1160 -10275 280 0
1160 -10140 -280 -1137 0
1160 -10275 1137 0
-1161 10276 1140 0
-1161 10204 -1140 0
1161 -10276 1140 0
1161 -10204 -1140 0
-1162 -150 1163 0
-1162 10277 150 0
-1162 122 1163 0
1162 -150 -1163 0
1162 -10277 -122 150 0
1162 -10277 -1163 0
1163 -10140 -122 -144 0
1163 -122 144 -1164 0
-1163 122 0
-1163 144 1164 0
-1163 10140 -144 0
-1164 10140 -143 0
-1164 142 143 1165 0
-1164 10140 -142 0
1164 -10140 -142 0
1164 -10140 -143 0
1164 142 143 -1165 0
-1165 10140 -141 0
-1165 140 141 1166 0
-1165 10140 -140 0
1165 -10140 -140 0
1165 -10140 -141 0
1165 140 141 -1166 0
-1166 10140 -127 0
-1166 127 1167 0
1166 -10140 -127 0
1166 127 -1167 0
-1167 10276 -1137 0
-1167 1137 1168 0
1167 -10276 -1137 0
1167 1137 -1168 0
-1168 10274 1148 0
-1168 10275 -1148 0
1168 -10275 -1148 0
1168 -10274 1148 0
-1169 10278 1137 0
-1169 10278 280 0
-1169 10205 -280 -1137 0
1169 -10278 280 0
1169 -10205 -280 -1137 0
1169 -10278 1137 0
-1170 10279 1137 0
-1170 10279 280 0
-1170 10141 -280 -1137 0
1170 -10279 280 0
1170 -10141 -280 -1137 0
1170 -10279 1137 0
-1171 10280 1140 0
-1171 10205 -1140 0
1171 -10280 1140 0
1171 -10205 -1140 0
-1172 -150 1173 0
-1172 10281 150 0
-1172 122 1173 0
1172 -150 -1173 0
1172 -10281 -122 150 0
1172 -10281 -1173 0
1173 -10141 -122 -144 0
1173 -122 144 -1174 0
-1173 122 0
-1173 144 1174 0
-1173 10141 -144 0
-1174 10141 -143 0
-1174 142 143 1175 0
-1174 10141 -142 0
1174 -10141 -142 0
1174 -10141 -143 0
1174 142 143 -1175 0
-1175 10141 -141 0
-1175 140 141 1176 0
-1175 10141 -140 0
1175 -10141 -140 0
1175 -10141 -141 0
1175 140 141 -1176 0
-1176 10141 -127 0
-1176 127 1177 0
1176 -10141 -127 0
1176 127 -1177 0
-1177 10280 -1137 0
-1177 1137 1178 0
1177 -10280 -1137 0
1177 1137 -1178 0
-1178 10278 1148 0
-1178 10279 -1148 0
1178 -10279 -1148 0
1178 -10278 1148 0
-1179 10282 1137 0
-1179 10282 280 0
-1179 10206 -280 -1137 0
1179 -10282 280 0
1179 -10206 -280 -1137 0
1179 -10282 1137 0
-1180 10283 1137 0
-1180 10283 280 0
-1180 10142 -280 -1137 0
1180 -10283 280 0
1180 -10142 -280 -1137 0
1180 -10283 1137 0
-1181 10284 1140 0
-1181 10206 -1140 0
1181 -10284 1140 0
1181 -10206 -1140 0
-1182 -150 1183 0
-1182 10285 150 0
-1182 122 1183 0
1182 -150 -1183 0
1182 -10285 -122 150 0
1182 -10285 -1183 0
1183 -10142 -122 -144 0
1183 -122 144 -1184 0
-1183 122 0
-1183 144 1184 0
-1183 10142 -144 0
-1184 10142 -143 0
-1184 142 143 1185 0
-1184 10142 -142 0
1184 -10142 -142 0
1184 -10142 -143 0
1184 142 143 -1185 0
-1185 10142 -141 0
-1185 140 141 1186 0
-1185 10142 -140 0
1185 -10142 -140 0
1185 -10142 -141 0
1185 140 141 -1186 0
-1186 10142 -127 0
-1186 127 1187 0
1186 -10142 -127 0
1186 127 -1187 0
-1187 10284 -1137 0
-1187 1137 1188 0
1187 -10284 -1137 0
1187 1137 -1188 0
-1188 10282 1148 0
-1188 10283 -1148 0
1188 -10283 -1148 0
1188 -10282 1148 0
-1189 10286 1137 0
-1189 10286 280 0
-1189 10207 -280 -1137 0
1189 -10286 280 0
1189 -10207 -280 -1137 0
1189 -10286 1137 0
-1190 10287 1137 0
-1190 10287 280 0
-1190 10143 -280 -1137 0
1190 -10287 280 0
1190 -10143 -280 -1137 0
1190 -10287 1137 0
-1191 10288 1140 0
-1191 10207 -1140 0
1191 -10288 1140 0
1191 -10207 -1140 0
-1192 -150 1193 0
-1192 10289 150 0
-1192 122 1193 0
1192 -150 -1193 0
1192 -10289 -122 150 0
1192 -10289 -1193 0
1193 -10143 -122 -144 0
1193 -122 144 -1194 0
-1193 122 0
-1193 144 1194 0
-1193 10143 -144 0
-1194 10143 -143 0
-1194 142 143 1195 0
-1194 10143 -142 0
1194 -10143 -142 0
1194 -10143 -143 0
1194 142 143 -1195 0
-1195 10143 -141 0
-1195 140 141 1196 0
-1195 10143 -140 0
1195 -10143 -140 0
1195 -10143 -141 0
1195 140 141 -1196 0
-1196 10143 -127 0
-1196 127 1197 0
1196 -10143 -127 0
1196 127 -1197 0
-1197 10288 -1137 0
-1197 1137 1198 0
1197 -10288 -1137 0
1197 1137 -1198 0
-1198 10286 1148 0
-1198 10287 -1148 0
1198 -10287 -1148 0
1198 -10286 1148 0
-1199 10290 1137 0
-1199 10290 280 0
-1199 10208 -280 -1137 0
1199 -10290 280 0
1199 -10208 -280 -1137 0
1199 -10290 1137 0
-1200 10291 1137 0
-1200 10291 280 0
-1200 10144 -280 -1137 0
1200 -10291 280 0
1200 -10144 -280 -1137 0
1200 -10291 1137 0
-1201 10292 1140 0
-1201 10208 -1140 0
1201 -10292 1140 0
1201 -10208 -1140 0
-1202 -150 1203 0
-1202 10293 150 0
-1202 122 1203 0
1202 -150 -1203 0
1202 -10293 -122 150 0
1202 -10293 -1203 0
1203 -10144 -122 -144 0
1203 -122 144 -1204 0
-1203 122 0
-1203 144 1204 0
-1203 10144 -144 0
-1204 10144 -143 0
-1204 142 143 1205 0
-1204 10144 -142 0
1204 -10144 -142 0
1204 -10144 -143 0
1204 142 143 -1205 0
-1205 10144 -141 0
-1205 140 141 1206 0
-1205 10144 -140 0
1205 -10144 -140 0
1205 -10144 -141 0
1205 140 141 -1206 0
-1206 10144 -127 0
-1206 127 1207 0
1206 -10144 -127 0
1206 127 -1207 0
-1207 10292 -1137 0
-1207 1137 1208 0
1207 -10292 -1137 0
1207 1137 -1208 0
-1208 10290 1148 0
-1208 10291 -1148 0
1208 -10291 -1148 0
1208 -10290 1148 0
-1209 10294 1137 0
-1209 10294 280 0
-1209 10209 -280 -1137 0
1209 -10294 280 0
1209 -10209 -280 -1137 0
1209 -10294 1137 0
-1210 10295 1137 0
-1210 10295 280 0
-1210 10145 -280 -1137 0
1210 -10295 280 0
1210 -10145 -280 -1137 0
1210 -10295 1137 0
-1211 10296 1140 0
-1211 10209 -1140 0
1211 -10296 1140 0
1211 -10209 -1140 0
-1212 -150 1213 0
-1212 10297 150 0
-1212 122 1213 0
1212 -150 -1213 0
1212 -10297 -122 150 0
1212 -10297 -1213 0
1213 -10145 -122 -144 0
1213 -122 144 -1214 0
-1213 122 0
-1213 144 1214 0
-1213 10145 -144 0
-1214 10145 -143 0
-1214 142 143 1215 0
-1214 10145 -142 0
1214 -10145 -142 0
1214 -10145 -143 0
1214 142 143 -1215 0
-1215 10145 -141 0
-1215 140 141 1216 0
-1215 10145 -140 0
1215 -10145 -140 0
1215 -10145 -141 0
1215 140 141 -1216 0
-1216 10145 -127 0
-1216 127 1217 0
1216 -10145 -127 0
1216 127 -1217 0
-1217 10296 -1137 0
-1217 1137 1218 0
1217 -10296 -1137 0
1217 1137 -1218 0
-1218 10294 1148 0
-1218 10295 -1148 0
1218 -10295 -1148 0
1218 -10294 1148 0
-1219 10298 1137 0
-1219 10298 280 0
-1219 10210 -280 -1137 0
1219 -10298 280 0
1219 -10210 -280 -1137 0
1219 -10298 1137 0
-1220 10299 1137 0
-1220 10299 280 0
-1220 10146 -280 -1137 0
1220 -10299 280 0
1220 -10146 -280 -1137 0
1220 -10299 1137 0
-1221 10300 1140 0
-1221 10210 -1140 0
1221 -10300 1140 0
1221 -10210 -1140 0
-1222 -150 1223 0
-1222 10301 150 0
-1222 122 1223 0
1222 -150 -1223 0
1222 -10301 -122 150 0
1222 -10301 -1223 0
1223 -10146 -122 -144 0
1223 -122 144 -1224 0
-1223 122 0
-1223 144 1224 0
-1223 10146 -144 0
-1224 10146 -143 0
-1224 142 143 1225 0
-1224 10146 -142 0
1224 -10146 -142 0
1224 -10146 -143 0
1224 142 143 -1225 0
-1225 10146 -141 0
-1225 140 141 1226 0
-1225 10146 -140 0
1225 -10146 -140 0
1225 -10146 -141 0
1225 140 141 -1226 0
-1226 10146 -127 0
-1226 127 1227 0
1226 -10146 -127 0
1226 127 -1227 0
-1227 10300 -1137 0
-1227 1137 1228 0
1227 -10300 -1137 0
1227 1137 -1228 0
-1228 10298 1148 0
-1228 10299 -1148 0
1228 -10299 -1148 0
1228 -10298 1148 0
-1229 10302 1137 0
-1229 10302 280 0
-1229 10211 -280 -1137 0
1229 -10302 280 0
1229 -10211 -280 -1137 0
1229 -10302 1137 0
-1230 10303 1137 0
-1230 10303 280 0
-1230 10147 -280 -1137 0
1230 -10303 280 0
1230 -10147 -280 -1137 0
1230 -10303 1137 0
-1231 10304 1140 0
-1231 10211 -1140 0
1231 -10304 1140 0
1231 -10211 -1140 0
-1232 -150 1233 0
-1232 10305 150 0
-1232 122 1233 0
1232 -150 -1233 0
1232 -10305 -122 150 0
1232 -10305 -1233 0
1233 -10147 -122 -144 0
1233 -122 144 -1234 0
-1233 122 0
-1233 144 1234 0
-1233 10147 -144 0
-1234 10147 -143 0
-1234 142 143 1235 0
-1234 10147 -142 0
1234 -10147 -142 0
1234 -10147 -143 0
1234 142 143 -1235 0
-1235 10147 -141 0
-1235 140 141 1236 0
-1235 10147 -140 0
1235 -10147 -140 0
1235 -10147 -141 0
1235 140 141 -1236 0
-1236 10147 -127 0
-1236 127 1237 0
1236 -10147 -127 0
1236 127 -1237 0
-1237 10304 -1137 0
-1237 1137 1238 0
1237 -10304 -1137 0
1237 1137 -1238 0
-1238 10302 1148 0
-1238 10303 -1148 0
1238 -10303 -1148 0
1238 -10302 1148 0
-1239 10306 1137 0
-1239 10306 280 0
-1239 10212 -280 -1137 0
1239 -10306 280 0
1239 -10212 -280 -1137 0
1239 -10306 1137 0
-1240 10307 1137 0
-1240 10307 280 0
-1240 10148 -280 -1137 0
1240 -10307 280 0
1240 -10148 -280 -1137 0
1240 -10307 1137 0
-1241 10308 1140 0
-1241 10212 -1140 0
1241 -10308 1140 0
1241 -10212 -1140 0
-1242 -150 1243 0
-1242 10309 150 0
-1242 122 1243 0
1242 -150 -1243 0
1242 -10309 -122 150 0
1242 -10309 -1243 0
1243 -10148 -122 -144 0
1243 -122 144 -1244 0
-1243 122 0
-1243 144 1244 0
-1243 10148 -144 0
-1244 10148 -143 0
-1244 142 143 1245 0
-1244 10148 -142 0
1244 -10148 -142 0
1244 -10148 -143 0
1244 142 143 -1245 0
-1245 10148 -141 0
-1245 140 141 1246 0
-1245 10148 -140 0
1245 -10148 -140 0
1245 -10148 -141 0
1245 140 141 -1246 0
-1246 10148 -127 0
-1246 127 1247 0
1246 -10148 -127 0
1246 127 -1247 0
-1247 10308 -1137 0
-1247 1137 1248 0
1247 -10308 -1137 0
1247 1137 -1248 0
-1248 10306 1148 0
-1248 10307 -1148 0
1248 -10307 -1148 0
1248 -10306 1148 0
-1249 10310 1137 0
-1249 10310 280 0
-1249 10213 -280 -1137 0
1249 -10310 280 0
1249 -10213 -280 -1137 0
1249 -10310 1137 0
-1250 10311 1137 0
-1250 10311 280 0
-1250 10149 -280 -1137 0
1250 -10311 280 0
1250 -10149 -280 -1137 0
1250 -10311 1137 0
-1251 10312 1140 0
-1251 10213 -1140 0
1251 -10312 1140 0
1251 -10213 -1140 0
-1252 -150 1253 0
-1252 10313 150 0
-1252 122 1253 0
1252 -150 -1253 0
1252 -10313 -122 150 0
1252 -10313 -1253 0
1253 -10149 -122 -144 0
1253 -122 144 -1254 0
-1253 122 0
-1253 144 1254 0
-1253 10149 -144 0
-1254 10149 -143 0
-1254 142 143 1255 0
-1254 10149 -142 0
1254 -10149 -142 0
1254 -10149 -143 0
1254 142 143 -1255 0
-1255 10149 -141 0
-1255 140 141 1256 0
-1255 10149 -140 0
1255 -10149 -140 0
1255 -10149 -141 0
1255 140 141 -1256 0
-1256 10149 -127 0
-1256 127 1257 0
1256 -10149 -127 0
1256 127 -1257 0
-1257 10312 -1137 0
-1257 1137 1258 0
1257 -10312 -1137 0
1257 1137 -1258 0
-1258 10310 1148 0
-1258 10311 -1148 0
1258 -10311 -1148 0
1258 -10310 1148 0
-1259 10314 1137 0
-1259 10314 280 0
-1259 10214 -280 -1137 0
1259 -10314 280 0
1259 -10214 -280 -1137 0
1259 -10314 1137 0
-1260 10315 1137 0
-1260 10315 280 0
-1260 10150 -280 -1137 0
1260 -10315 280 0
1260 -10150 -280 -1137 0
1260 -10315 1137 0
-1261 10316 1140 0
-1261 10214 -1140 0
1261 -10316 1140 0
1261 -10214 -1140 0
-1262 -150 1263 0
-1262 10317 150 0
-1262 122 1263 0
1262 -150 -1263 0
1262 -10317 -122 150 0
1262 -10317 -1263 0
1263 -10150 -122 -144 0
1263 -122 144 -1264 0
-1263 122 0
-1263 144 1264 0
-1263 10150 -144 0
-1264 10150 -143 0
-1264 142 143 1265 0
-1264 10150 -142 0
1264 -10150 -142 0
1264 -10150 -143 0
1264 142 143 -1265 0
-1265 10150 -141 0
-1265 140 141 1266 0
-1265 10150 -140 0
1265 -10150 -140 0
1265 -10150 -141 0
1265 140 141 -1266 0
-1266 10150 -127 0
-1266 127 1267 0
1266 -10150 -127 0
1266 127 -1267 0
-1267 10316 -1137 0
-1267 1137 1268 0
1267 -10316 -1137 0
1267 1137 -1268 0
-1268 10314 1148 0
-1268 10315 -1148 0
1268 -10315 -1148 0
1268 -10314 1148 0
-1269 10318 1137 0
-1269 10318 280 0
-1269 10215 -280 -1137 0
1269 -10318 280 0
1269 -10215 -280 -1137 0
1269 -10318 1137 0
-1270 10319 1137 0
-1270 10319 280 0
-1270 10151 -280 -1137 0
1270 -10319 280 0
1270 -10151 -280 -1137 0
1270 -10319 1137 0
-1271 10320 1140 0
-1271 10215 -1140 0
1271 -10320 1140 0
1271 -10215 -1140 0
-1272 -150 1273 0
-1272 10321 150 0
-1272 122 1273 0
1272 -150 -1273 0
1272 -10321 -122 150 0
1272 -10321 -1273 0
1273 -10151 -122 -144 0
1273 -122 144 -1274 0
-1273 122 0
-1273 144 1274 0
-1273 10151 -144 0
-1274 10151 -143 0
-1274 142 143 1275 0
-1274 10151 -142 0
1274 -10151 -142 0
1274 -10151 -143 0
1274 142 143 -1275 0
-1275 10151 -141 0
-1275 140 141 1276 0
-1275 10151 -140 0
1275 -10151 -140 0
1275 -10151 -141 0
1275 140 141 -1276 0
-1276 10151 -127 0
-1276 127 1277 0
1276 -10151 -127 0
1276 127 -1277 0
-1277 10320 -1137 0
-1277 1137 1278 0
1277 -10320 -1137 0
1277 1137 -1278 0
-1278 10318 1148 0
-1278 10319 -1148 0
1278 -10319 -1148 0
1278 -10318 1148 0
-1279 10322 1137 0
-1279 10322 280 0
-1279 10216 -280 -1137 0
1279 -10322 280 0
1279 -10216 -280 -1137 0
1279 -10322 1137 0
-1280 10323 1137 0
-1280 10323 280 0
-1280 10152 -280 -1137 0
1280 -10323 280 0
1280 -10152 -280 -1137 0
1280 -10323 1137 0
-1281 10324 1140 0
-1281 10216 -1140 0
1281 -10324 1140 0
1281 -10216 -1140 0
-1282 -150 1283 0
-1282 10325 150 0
-1282 122 1283 0
1282 -150 -1283 0
1282 -10325 -122 150 0
1282 -10325 -1283 0
1283 -10152 -122 -144 0
1283 -122 144 -1284 0
-1283 122 0
-1283 144 1284 0
-1283 10152 -144 0
-1284 10152 -143 0
-1284 142 143 1285 0
-1284 10152 -142 0
1284 -10152 -142 0
1284 -10152 -143 0
1284 142 143 -1285 0
-1285 10152 -141 0
-1285 140 141 1286 0
-1285 10152 -140 0
1285 -10152 -140 0
1285 -10152 -141 0
1285 140 141 -1286 0
-1286 10152 -127 0
-1286 127 1287 0
1286 -10152 -127 0
1286 127 -1287 0
-1287 10324 -1137 0
-1287 1137 1288 0
1287 -10324 -1137 0
1287 1137 -1288 0
-1288 10322 1148 0
-1288 10323 -1148 0
1288 -10323 -1148 0
1288 -10322 1148 0
-1289 10326 1137 0
-1289 10326 280 0
-1289 10217 -280 -1137 0
1289 -10326 280 0
1289 -10217 -280 -1137 0
1289 -10326 1137 0
-1290 10327 1137 0
-1290 10327 280 0
-1290 10153 -280 -1137 0
1290 -10327 280 0
1290 -10153 -280 -1137 0
1290 -10327 1137 0
-1291 10328 1140 0
-1291 10217 -1140 0
1291 -10328 1140 0
1291 -10217 -1140 0
-1292 -150 1293 0
-1292 10329 150 0
-1292 122 1293 0
1292 -150 -1293 0
1292 -10329 -122 150 0
1292 -10329 -1293 0
1293 -10153 -122 -144 0
1293 -122 144 -1294 0
-1293 122 0
-1293 144 1294 0
-1293 10153 -144 0
-1294 10153 -143 0
-1294 142 143 1295 0
-1294 10153 -142 0
1294 -10153 -142 0
1294 -10153 -143 0
1294 142 143 -1295 0
-1295 10153 -141 0
-1295 140 141 1296 0
-1295 10153 -140 0
1295 -10153 -140 0
1295 -10153 -141 0
1295 140 141 -1296 0
-1296 10153 -127 0
-1296 127 1297 0
1296 -10153 -127 0
1296 127 -1297 0
-1297 10328 -1137 0
-1297 1137 1298 0
1297 -10328 -1137 0
1297 1137 -1298 0
-1298 10326 1148 0
-1298 10327 -1148 0
1298 -10327 -1148 0
1298 -10326 1148 0
-1299 10330 1137 0
-1299 10330 280 0
-1299 10218 -280 -1137 0
1299 -10330 280 0
1299 -10218 -280 -1137 0
1299 -10330 1137 0
-1300 10331 1137 0
-1300 10331 280 0
-1300 10154 -280 -1137 0
1300 -10331 280 0
1300 -10154 -280 -1137 0
1300 -10331 1137 0
-1301 10332 1140 0
-1301 10218 -1140 0
1301 -10332 1140 0
1301 -10218 -1140 0
-1302 -150 1303 0
-1302 10333 150 0
-1302 122 1303 0
1302 -150 -1303 0
1302 -10333 -122 150 0
1302 -10333 -1303 0
1303 -10154 -122 -144 0
1303 -122 144 -1304 0
-1303 122 0
-1303 144 1304 0
-1303 10154 -144 0
-1304 10154 -143 0
-1304 142 143 1305 0
-1304 10154 -142 0
1304 -10154 -142 0
1304 -10154 -143 0
1304 142 143 -1305 0
-1305 10154 -141 0
-1305 140 141 1306 0
-1305 10154 -140 0
1305 -10154 -140 0
1305 -10154 -141 0
1305 140 141 -1306 0
-1306 10154 -127 0
-1306 127 1307 0
1306 -10154 -127 0
1306 127 -1307 0
-1307 10332 -1137 0
-1307 1137 1308 0
1307 -10332 -1137 0
1307 1137 -1308 0
-1308 10330 1148 0
-1308 10331 -1148 0
1308 -10331 -1148 0
1308 -10330 1148 0
-1309 10334 1137 0
-1309 10334 280 0
-1309 10219 -280 -1137 0
1309 -10334 280 0
1309 -10219 -280 -1137 0
1309 -10334 1137 0
-1310 10335 1137 0
-1310 10335 280 0
-1310 10155 -280 -1137 0
1310 -10335 280 0
1310 -10155 -280 -1137 0
1310 -10335 1137 0
-1311 10336 1140 0
-1311 10219 -1140 0
1311 -10336 1140 0
1311 -10219 -1140 0
-1312 -150 1313 0
-1312 10337 150 0
-1312 122 1313 0
1312 -150 -1313 0
1312 -10337 -122 150 0
1312 -10337 -1313 0
1313 -10155 -122 -144 0
1313 -122 144 -1314 0
-1313 122 0
-1313 144 1314 0
-1313 10155 -144 0
-1314 10155 -143 0
-1314 142 143 1315 0
-1314 10155 -142 0
1314 -10155 -142 0
1314 -10155 -143 0
1314 142 143 -1315 0
-1315 10155 -141 0
-1315 140 141 1316 0
-1315 10155 -140 0
1315 -10155 -140 0
1315 -10155 -141 0
1315 140 141 -1316 0
-1316 10155 -127 0
-1316 127 1317 0
1316 -10155 -127 0
1316 127 -1317 0
-1317 10336 -1137 0
-1317 1137 1318 0
1317 -10336 -1137 0
1317 1137 -1318 0
-1318 10334 1148 0
-1318 10335 -1148 0
1318 -10335 -1148 0
1318 -10334 1148 0
-1319 10338 1137 0
-1319 10338 280 0
-1319 10220 -280 -1137 0
1319 -10338 280 0
1319 -10220 -280 -1137 0
1319 -10338 1137 0
-1320 10339 1137 0
-1320 10339 280 0
-1320 10156 -280 -1137 0
1320 -10339 280 0
1320 -10156 -280 -1137 0
1320 -10339 1137 0
-1321 10340 1140 0
-1321 10220 -1140 0
1321 -10340 1140 0
1321 -10220 -1140 0
-1322 -150 1323 0
-1322 10341 150 0
-1322 122 1323 0
1322 -150 -1323 0
1322 -10341 -122 150 0
1322 -10341 -1323 0
1323 -10156 -122 -144 0
1323 -122 144 -1324 0
-1323 122 0
-1323 144 1324 0
-1323 10156 -144 0
-1324 10156 -143 0
-1324 142 143 1325 0
-1324 10156 -142 0
1324 -10156 -142 0
1324 -10156 -143 0
1324 142 143 -1325 0
-1325 10156 -141 0
-1325 140 141 1326 0
-1325 10156 -140 0
1325 -10156 -140 0
1325 -10156 -141 0
1325 140 141 -1326 0
-1326 10156 -127 0
-1326 127 1327 0
1326 -10156 -127 0
1326 127 -1327 0
-1327 10340 -1137 0
-1327 1137 1328 0
1327 -10340 -1137 0
1327 1137 -1328 0
-1328 10338 1148 0
-1328 10339 -1148 0
1328 -10339 -1148 0
1328 -10338 1148 0
-1329 10342 1137 0
-1329 10342 280 0
-1329 10221 -280 -1137 0
1329 -10342 280 0
1329 -10221 -280 -1137 0
1329 -10342 1137 0
-1330 10343 1137 0
-1330 10343 280 0
-1330 10157 -280 -1137 0
1330 -10343 280 0
1330 -10157 -280 -1137 0
1330 -10343 1137 0
-1331 10344 1140 0
-1331 10221 -1140 0
1331 -10344 1140 0
1331 -10221 -1140 0
-1332 -150 1333 0
-1332 10345 150 0
-1332 122 1333 0
1332 -150 -1333 0
1332 -10345 -122 150 0
1332 -10345 -1333 0
1333 -10157 -122 -144 0
1333 -122 144 -1334 0
-1333 122 0
-1333 144 1334 0
-1333 10157 -144 0
-1334 10157 -143 0
-1334 142 143 1335 0
-1334 10157 -142 0
1334 -10157 -142 0
1334 -10157 -143 0
1334 142 143 -1335 0
-1335 10157 -141 0
-1335 140 141 1336 0
-1335 10157 -140 0
1335 -10157 -140 0
1335 -10157 -141 0
1335 140 141 -1336 0
-1336 10157 -127 0
-1336 127 1337 0
1336 -10157 -127 0
1336 127 -1337 0
-1337 10344 -1137 0
-1337 1137 1338 0
1337 -10344 -1137 0
1337 1137 -1338 0
-1338 10342 1148 0
-1338 10343 -1148 0
1338 -10343 -1148 0
1338 -10342 1148 0
-1339 10346 1137 0
-1339 10346 280 0
-1339 10222 -280 -1137 0
1339 -10346 280 0
1339 -10222 -280 -1137 0
1339 -10346 1137 0
-1340 10347 1137 0
-1340 10347 280 0
-1340 10158 -280 -1137 0
1340 -10347 280 0
1340 -10158 -280 -1137 0
1340 -10347 1137 0
-1341 10348 1140 0
-1341 10222 -1140 0
1341 -10348 1140 0
1341 -10222 -1140 0
-1342 -150 1343 0
-1342 10349 150 0
-1342 122 1343 0
1342 -150 -1343 0
1342 -10349 -122 150 0
1342 -10349 -1343 0
1343 -10158 -122 -144 0
1343 -122 144 -1344 0
-1343 122 0
-1343 144 1344 0
-1343 10158 -144 0
-1344 10158 -143 0
-1344 142 143 1345 0
-1344 10158 -142 0
1344 -10158 -142 0
1344 -10158 -143 0
1344 142 143 -1345 0
-1345 10158 -141 0
-1345 140 141 1346 0
-1345 10158 -140 0
1345 -10158 -140 0
1345 -10158 -141 0
1345 140 141 -1346 0
-1346 10158 -127 0
-1346 127 1347 0
1346 -10158 -127 0
1346 127 -1347 0
-1347 10348 -1137 0
-1347 1137 1348 0
1347 -10348 -1137 0
1347 1137 -1348 0
-1348 10346 1148 0
-1348 10347 -1148 0
1348 -10347 -1148 0
1348 -10346 1148 0
-1349 10350 1137 0
-1349 10350 280 0
-1349 10223 -280 -1137 0
1349 -10350 280 0
1349 -10223 -280 -1137 0
1349 -10350 1137 0
-1350 10351 1137 0
-1350 10351 280 0
-1350 10159 -280 -1137 0
1350 -10351 280 0
1350 -10159 -280 -1137 0
1350 -10351 1137 0
-1351 10352 1140 0
-1351 10223 -1140 0
1351 -10352 1140 0
1351 -10223 -1140 0
-1352 -150 1353 0
-1352 10353 150 0
-1352 122 1353 0
1352 -150 -1353 0
1352 -10353 -122 150 0
1352 -10353 -1353 0
1353 -10159 -122 -144 0
1353 -122 144 -1354 0
-1353 122 0
-1353 144 1354 0
-1353 10159 -144 0
-1354 10159 -143 0
-1354 142 143 1355 0
-1354 10159 -142 0
1354 -10159 -142 0
1354 -10159 -143 0
1354 142 143 -1355 0
-1355 10159 -141 0
-1355 140 141 1356 0
-1355 10159 -140 0
1355 -10159 -140 0
1355 -10159 -141 0
1355 140 141 -1356 0
-1356 10159 -127 0
-1356 127 1357 0
1356 -10159 -127 0
1356 127 -1357 0
-1357 10352 -1137 0
-1357 1137 1358 0
1357 -10352 -1137 0
1357 1137 -1358 0
-1358 10350 1148 0
-1358 10351 -1148 0
1358 -10351 -1148 0
1358 -10350 1148 0
-1359 10354 1137 0
-1359 10354 280 0
-1359 10224 -280 -1137 0
1359 -10354 280 0
1359 -10224 -280 -1137 0
1359 -10354 1137 0
-1360 10355 1137 0
-1360 10355 280 0
-1360 10160 -280 -1137 0
1360 -10355 280 0
1360 -10160 -280 -1137 0
1360 -10355 1137 0
-1361 10356 1140 0
-1361 10224 -1140 0
1361 -10356 1140 0
1361 -10224 -1140 0
-1362 -150 1363 0
-1362 10357 150 0
-1362 122 1363 0
1362 -150 -1363 0
1362 -10357 -122 150 0
1362 -10357 -1363 0
1363 -10160 -122 -144 0
1363 -122 144 -1364 0
-1363 122 0
-1363 144 1364 0
-1363 10160 -144 0
-1364 10160 -143 0
-1364 142 143 1365 0
-1364 10160 -142 0
1364 -10160 -142 0
1364 -10160 -143 0
1364 142 143 -1365 0
-1365 10160 -141 0
-1365 140 141 1366 0
-1365 10160 -140 0
1365 -10160 -140 0
1365 -10160 -141 0
1365 140 141 -1366 0
-1366 10160 -127 0
-1366 127 1367 0
1366 -10160 -127 0
1366 127 -1367 0
-1367 10356 -1137 0
-1367 1137 1368 0
1367 -10356 -1137 0
1367 1137 -1368 0
-1368 10354 1148 0
-1368 10355 -1148 0
1368 -10355 -1148 0
1368 -10354 1148 0
-1369 10358 1137 0
-1369 10358 280 0
-1369 10225 -280 -1137 0
1369 -10358 280 0
1369 -10225 -280 -1137 0
1369 -10358 1137 0
-1370 10359 1137 0
-1370 10359 280 0
-1370 10161 -280 -1137 0
1370 -10359 280 0
1370 -10161 -280 -1137 0
1370 -10359 1137 0
-1371 10360 1140 0
-1371 10225 -1140 0
1371 -10360 1140 0
1371 -10225 -1140 0
-1372 -150 1373 0
-1372 10361 150 0
-1372 122 1373 0
1372 -150 -1373 0
1372 -10361 -122 150 0
1372 -10361 -1373 0
1373 -10161 -122 -144 0
1373 -122 144 -1374 0
-1373 122 0
-1373 144 1374 0
-1373 10161 -144 0
-1374 10161 -143 0
-1374 142 143 1375 0
-1374 10161 -142 0
1374 -10161 -142 0
1374 -10161 -143 0
1374 142 143 -1375 0
-1375 10161 -141 0
-1375 140 141 1376 0
-1375 10161 -140 0
1375 -10161 -140 0
1375 -10161 -141 0
1375 140 141 -1376 0
-1376 10161 -127 0
-1376 127 1377 0
1376 -10161 -127 0
1376 127 -1377 0
-1377 10360 -1137 0
-1377 1137 1378 0
1377 -10360 -1137 0
1377 1137 -1378 0
-1378 10358 1148 0
-1378 10359 -1148 0
1378 -10359 -1148 0
1378 -10358 1148 0
-1379 10362 1137 0
-1379 10362 280 0
-1379 10226 -280 -1137 0
1379 -10362 280 0
1379 -10226 -280 -1137 0
1379 -10362 1137 0
-1380 10363 1137 0
-1380 10363 280 0
-1380 10162 -280 -1137 0
1380 -10363 280 0
1380 -10162 -280 -1137 0
1380 -10363 1137 0
-1381 10364 1140 0
-1381 10226 -1140 0
1381 -10364 1140 0
1381 -10226 -1140 0
-1382 -150 1383 0
-1382 10365 150 0
-1382 122 1383 0
1382 -150 -1383 0
1382 -10365 -122 150 0
1382 -10365 -1383 0
1383 -10162 -122 -144 0
1383 -122 144 -1384 0
-1383 122 0
-1383 144 1384 0
-1383 10162 -144 0
-1384 10162 -143 0
-1384 142 143 1385 0
-1384 10162 -142 0
1384 -10162 -142 0
1384 -10162 -143 0
1384 142 143 -1385 0
-1385 10162 -141 0
-1385 140 141 1386 0
-1385 10162 -140 0
1385 -10162 -140 0
1385 -10162 -141 0
1385 140 141 -1386 0
-1386 10162 -127 0
-1386 127 1387 0
1386 -10162 -127 0
1386 127 -1387 0
-1387 10364 -1137 0
-1387 1137 1388 0
1387 -10364 -1137 0
1387 1137 -1388 0
-1388 10362 1148 0
-1388 10363 -1148 0
1388 -10363 -1148 0
1388 -10362 1148 0
-1389 10366 1137 0
-1389 10366 280 0
-1389 10227 -280 -1137 0
1389 -10366 280 0
1389 -10227 -280 -1137 0
1389 -10366 1137 0
-1390 10367 1137 0
-1390 10367 280 0
-1390 10163 -280 -1137 0
1390 -10367 280 0
1390 -10163 -280 -1137 0
1390 -10367 1137 0
-1391 10368 1140 0
-1391 10227 -1140 0
1391 -10368 1140 0
1391 -10227 -1140 0
-1392 -150 1393 0
-1392 10369 150 0
-1392 122 1393 0
1392 -150 -1393 0
1392 -10369 -122 150 0
1392 -10369 -1393 0
1393 -10163 -122 -144 0
1393 -122 144 -1394 0
-1393 122 0
-1393 144 1394 0
-1393 10163 -144 0
-1394 10163 -143 0
-1394 142 143 1395 0
-1394 10163 -142 0
1394 -10163 -142 0
1394 -10163 -143 0
1394 142 143 -1395 0
-1395 10163 -141 0
-1395 140 141 1396 0
-1395 10163 -140 0
1395 -10163 -140 0
1395 -10163 -141 0
1395 140 141 -1396 0
-1396 10163 -127 0
-1396 127 1397 0
1396 -10163 -127 0
1396 127 -1397 0
-1397 10368 -1137 0
-1397 1137 1398 0
1397 -10368 -1137 0
1397 1137 -1398 0
-1398 10366 1148 0
-1398 10367 -1148 0
1398 -10367 -1148 0
1398 -10366 1148 0
-1399 10370 1137 0
-1399 10370 280 0
-1399 10228 -280 -1137 0
1399 -10370 280 0
1399 -10228 -280 -1137 0
1399 -10370 1137 0
-1400 10371 1137 0
-1400 10371 280 0
-1400 10164 -280 -1137 0
1400 -10371 280 0
1400 -10164 -280 -1137 0
1400 -10371 1137 0
-1401 10372 1140 0
-1401 10228 -1140 0
1401 -10372 1140 0
1401 -10228 -1140 0
-1402 -150 1403 0
-1402 10373 150 0
-1402 122 1403 0
1402 -150 -1403 0
1402 -10373 -122 150 0
1402 -10373 -1403 0
1403 -10164 -122 -144 0
1403 -122 144 -1404 0
-1403 122 0
-1403 144 1404 0
-1403 10164 -144 0
-1404 10164 -143 0
-1404 142 143 1405 0
-1404 10164 -142 0
1404 -10164 -142 0
1404 -10164 -143 0
1404 142 143 -1405 0
-1405 10164 -141 0
-1405 140 141 1406 0
-1405 10164 -140 0
1405 -10164 -140 0
1405 -10164 -141 0
1405 140 141 -1406 0
-1406 10164 -127 0
-1406 127 1407 0
1406 -10164 -127 0
1406 127 -1407 0
-1407 10372 -1137 0
-1407 1137 1408 0
1407 -10372 -1137 0
1407 1137 -1408 0
-1408 10370 1148 0
-1408 10371 -1148 0
1408 -10371 -1148 0
1408 -10370 1148 0
-1409 10374 1137 0
-1409 10374 280 0
-1409 10229 -280 -1137 0
1409 -10374 280 0
1409 -10229 -280 -1137 0
1409 -10374 1137 0
-1410 10375 1137 0
-1410 10375 280 0
-1410 10165 -280 -1137 0
1410 -10375 280 0
1410 -10165 -280 -1137 0
1410 -10375 1137 0
-1411 10376 1140 0
-1411 10229 -1140 0
1411 -10376 1140 0
1411 -10229 -1140 0
-1412 -150 1413 0
-1412 10377 150 0
-1412 122 1413 0
1412 -150 -1413 0
1412 -10377 -122 150 0
1412 -10377 -1413 0
1413 -10165 -122 -144 0
1413 -122 144 -1414 0
-1413 122 0
-1413 144 1414 0
-1413 10165 -144 0
-1414 10165 -143 0
-1414 142 143 1415 0
-1414 10165 -142 0
1414 -10165 -142 0
1414 -10165 -143 0
1414 142 143 -1415 0
-1415 10165 -141 0
-1415 140 141 1416 0
-1415 10165 -140 0
1415 -10165 -140 0
1415 -10165 -141 0
1415 140 141 -1416 0
-1416 10165 -127 0
-1416 127 1417 0
1416 -10165 -127 0
1416 127 -1417 0
-1417 10376 -1137 0
-1417 1137 1418 0
1417 -10376 -1137 0
1417 1137 -1418 0
-1418 10374 1148 0
-1418 10375 -1148 0
1418 -10375 -1148 0
1418 -10374 1148 0
-1419 10378 1137 0
-1419 10378 280 0
-1419 10230 -280 -1137 0
1419 -10378 280 0
1419 -10230 -280 -1137 0
1419 -10378 1137 0
-1420 10379 1137 0
-1420 10379 280 0
-1420 10166 -280 -1137 0
1420 -10379 280 0
1420 -10166 -280 -1137 0
1420 -10379 1137 0
-1421 10380 1140 0
-1421 10230 -1140 0
1421 -10380 1140 0
1421 -10230 -1140 0
-1422 -150 1423 0
-1422 10381 150 0
-1422 122 1423 0
1422 -150 -1423 0
1422 -10381 -122 150 0
1422 -10381 -1423 0
1423 -10166 -122 -144 0
1423 -122 144 -1424 0
-1423 122 0
-1423 144 1424 0
-1423 10166 -144 0
-1424 10166 -143 0
-1424 142 143 1425 0
-1424 10166 -142 0
1424 -10166 -142 0
1424 -10166 -143 0
1424 142 143 -1425 0
-1425 10166 -141 0
-1425 140 141 1426 0
-1425 10166 -140 0
1425 -10166 -140 0
1425 -10166 -141 0
1425 140 141 -1426 0
-1426 10166 -127 0
-1426 127 1427 0
1426 -10166 -127 0
1426 127 -1427 0
-1427 10380 -1137 0
-1427 1137 1428 0
1427 -10380 -1137 0
1427 1137 -1428 0
-1428 10378 1148 0
-1428 10379 -1148 0
1428 -10379 -1148 0
1428 -10378 1148 0
-1429 10382 1137 0
-1429 10382 280 0
-1429 10231 -280 -1137 0
1429 -10382 280 0
1429 -10231 -280 -1137 0
1429 -10382 1137 0
-1430 10383 1137 0
-1430 10383 280 0
-1430 10167 -280 -1137 0
1430 -10383 280 0
1430 -10167 -280 -1137 0
1430 -10383 1137 0
-1431 10384 1140 0
-1431 10231 -1140 0
1431 -10384 1140 0
1431 -10231 -1140 0
-1432 -150 1433 0
-1432 10385 150 0
-1432 122 1433 0
1432 -150 -1433 0
1432 -10385 -122 150 0
1432 -10385 -1433 0
1433 -10167 -122 -144 0
1433 -122 144 -1434 0
-1433 122 0
-1433 144 1434 0
-1433 10167 -144 0
-1434 10167 -143 0
-1434 142 143 1435 0
-1434 10167 -142 0
1434 -10167 -142 0
1434 -10167 -143 0
1434 142 143 -1435 0
-1435 10167 -141 0
-1435 140 141 1436 0
-1435 10167 -140 0
1435 -10167 -140 0
1435 -10167 -141 0
1435 140 141 -1436 0
-1436 10167 -127 0
-1436 127 1437 0
1436 -10167 -127 0
1436 127 -1437 0
-1437 10384 -1137 0
-1437 1137 1438 0
1437 -10384 -1137 0
1437 1137 -1438 0
-1438 10382 1148 0
-1438 10383 -1148 0
1438 -10383 -1148 0
1438 -10382 1148 0
-1439 10386 1137 0
-1439 10386 280 0
-1439 10232 -280 -1137 0
1439 -10386 280 0
1439 -10232 -280 -1137 0
1439 -10386 1137 0
-1440 10387 1137 0
-1440 10387 280 0
-1440 10168 -280 -1137 0
1440 -10387 280 0
1440 -10168 -280 -1137 0
1440 -10387 1137 0
-1441 10388 1140 0
-1441 10232 -1140 0
1441 -10388 1140 0
1441 -10232 -1140 0
-1442 -150 1443 0
-1442 10389 150 0
-1442 122 1443 0
1442 -150 -1443 0
1442 -10389 -122 150 0
1442 -10389 -1443 0
1443 -10168 -122 -144 0
1443 -122 144 -1444 0
-1443 122 0
-1443 144 1444 0
-1443 10168 -144 0
-1444 10168 -143 0
-1444 142 143 1445 0
-1444 10168 -142 0
1444 -10168 -142 0
1444 -10168 -143 0
1444 142 143 -1445 0
-1445 10168 -141 0
-1445 140 141 1446 0
-1445 10168 -140 0
1445 -10168 -140 0
1445 -10168 -141 0
1445 140 141 -1446 0
-1446 10168 -127 0
-1446 127 1447 0
1446 -10168 -127 0
1446 127 -1447 0
-1447 10388 -1137 0
-1447 1137 1448 0
1447 -10388 -1137 0
1447 1137 -1448 0
-1448 10386 1148 0
-1448 10387 -1148 0
1448 -10387 -1148 0
1448 -10386 1148 0
-1449 10390 1137 0
-1449 10390 280 0
-1449 10233 -280 -1137 0
1449 -10390 280 0
1449 -10233 -280 -1137 0
1449 -10390 1137 0
-1450 10391 1137 0
-1450 10391 280 0
-1450 10169 -280 -1137 0
1450 -10391 280 0
1450 -10169 -280 -1137 0
1450 -10391 1137 0
-1451 10392 1140 0
-1451 10233 -1140 0
1451 -10392 1140 0
1451 -10233 -1140 0
-1452 -150 1453 0
-1452 10393 150 0
-1452 122 1453 0
1452 -150 -1453 0
1452 -10393 -122 150 0
1452 -10393 -1453 0
1453 -10169 -122 -144 0
1453 -122 144 -1454 0
-1453 122 0
-1453 144 1454 0
-1453 10169 -144 0
-1454 10169 -143 0
-1454 142 143 1455 0
-1454 10169 -142 0
1454 -10169 -142 0
1454 -10169 -143 0
1454 142 143 -1455 0
-1455 10169 -141 0
-1455 140 141 1456 0
-1455 10169 -140 0
1455 -10169 -140 0
1455 -10169 -141 0
1455 140 141 -1456 0
-1456 10169 -127 0
-1456 127 1457 0
1456 -10169 -127 0
1456 127 -1457 0
-1457 10392 -1137 0
-1457 1137 1458 0
1457 -10392 -1137 0
1457 1137 -1458 0
-1458 10390 1148 0
-1458 10391 -1148 0
1458 -10391 -1148 0
1458 -10390 1148 0
-1459 10394 1137 0
-1459 10394 280 0
-1459 10234 -280 -1137 0
1459 -10394 280 0
1459 -10234 -280 -1137 0
1459 -10394 1137 0
-1460 10395 1137 0
-1460 10395 280 0
-1460 10170 -280 -1137 0
1460 -10395 280 0
1460 -10170 -280 -1137 0
1460 -10395 1137 0
-1461 10396 1140 0
-1461 10234 -1140 0
1461 -10396 1140 0
1461 -10234 -1140 0
-1462 -150 1463 0
-1462 10397 150 0
-1462 122 1463 0
1462 -150 -1463 0
1462 -10397 -122 150 0
1462 -10397 -1463 0
1463 -10170 -122 -144 0
1463 -122 144 -1464 0
-1463 122 0
-1463 144 1464 0
-1463 10170 -144 0
-1464 10170 -143 0
-1464 142 143 1465 0
-1464 10170 -142 0
1464 -10170 -142 0
1464 -10170 -143 0
1464 142 143 -1465 0
-1465 10170 -141 0
-1465 140 141 1466 0
-1465 10170 -140 0
1465 -10170 -140 0
1465 -10170 -141 0
1465 140 141 -1466 0
-1466 10170 -127 0
-1466 127 1467 0
1466 -10170 -127 0
1466 127 -1467 0
-1467 10396 -1137 0
-1467 1137 1468 0
1467 -10396 -1137 0
1467 1137 -1468 0
-1468 10394 1148 0
-1468 10395 -1148 0
1468 -10395 -1148 0
1468 -10394 1148 0
-1469 10398 1137 0
-1469 10398 280 0
-1469 10235 -280 -1137 0
1469 -10398 280 0
1469 -10235 -280 -1137 0
1469 -10398 1137 0
-1470 10399 1137 0
-1470 10399 280 0
-1470 10171 -280 -1137 0
1470 -10399 280 0
1470 -10171 -280 -1137 0
1470 -10399 1137 0
-1471 10400 1140 0
-1471 10235 -1140 0
1471 -10400 1140 0
1471 -10235 -1140 0
-1472 -150 1473 0
-1472 10401 150 0
-1472 122 1473 0
1472 -150 -1473 0
1472 -10401 -122 150 0
1472 -10401 -1473 0
1473 -10171 -122 -144 0
1473 -122 144 -1474 0
-1473 122 0
-1473 144 1474 0
-1473 10171 -144 0
-1474 10171 -143 0
-1474 142 143 1475 0
-1474 10171 -142 0
1474 -10171 -142 0
1474 -10171 -143 0
1474 142 143 -1475 0
-1475 10171 -141 0
-1475 140 141 1476 0
-1475 10171 -140 0
1475 -10171 -140 0
1475 -10171 -141 0
1475 140 141 -1476 0
-1476 10171 -127 0
-1476 127 1477 0
1476 -10171 -127 0
1476 127 -1477 0
-1477 10400 -1137 0
-1477 1137 1478 0
1477 -10400 -1137 0
1477 1137 -1478 0
-1478 10398 1148 0
-1478 10399 -1148 0
1478 -10399 -1148 0
1478 -10398 1148 0
-1479 10402 1137 0
-1479 10402 280 0
-1479 10236 -280 -1137 0
1479 -10402 280 0
1479 -10236 -280 -1137 0
1479 -10402 1137 0
-1480 10403 1137 0
-1480 10403 280 0
-1480 10172 -280 -1137 0
1480 -10403 280 0
1480 -10172 -280 -1137 0
1480 -10403 1137 0
-1481 10404 1140 0
-1481 10236 -1140 0
1481 -10404 1140 0
1481 -10236 -1140 0
-1482 -150 1483 0
-1482 10405 150 0
-1482 122 1483 0
1482 -150 -1483 0
1482 -10405 -122 150 0
1482 -10405 -1483 0
1483 -10172 -122 -144 0
1483 -122 144 -1484 0
-1483 122 0
-1483 144 1484 0
-1483 10172 -144 0
-1484 10172 -143 0
-1484 142 143 1485 0
-1484 10172 -142 0
1484 -10172 -142 0
1484 -10172 -143 0
1484 142 143 -1485 0
-1485 10172 -141 0
-1485 140 141 1486 0
-1485 10172 -140 0
1485 -10172 -140 0
1485 -10172 -141 0
1485 140 141 -1486 0
-1486 10172 -127 0
-1486 127 1487 0
1486 -10172 -127 0
1486 127 -1487 0
-1487 10404 -1137 0
-1487 1137 1488 0
1487 -10404 -1137 0
1487 1137 -1488 0
-1488 10402 1148 0
-1488 10403 -1148 0
1488 -10403 -1148 0
1488 -10402 1148 0
-1489 10406 1137 0
-1489 10406 280 0
-1489 10237 -280 -1137 0
1489 -10406 280 0
1489 -10237 -280 -1137 0
1489 -10406 1137 0
-1490 10407 1137 0
-1490 10407 280 0
-1490 10173 -280 -1137 0
1490 -10407 280 0
1490 -10173 -280 -1137 0
1490 -10407 1137 0
-1491 10408 1140 0
-1491 10237 -1140 0
1491 -10408 1140 0
1491 -10237 -1140 0
-1492 -150 1493 0
-1492 10409 150 0
-1492 122 1493 0
1492 -150 -1493 0
1492 -10409 -122 150 0
1492 -10409 -1493 0
1493 -10173 -122 -144 0
1493 -122 144 -1494 0
-1493 122 0
-1493 144 1494 0
-1493 10173 -144 0
-1494 10173 -143 0
-1494 142 143 1495 0
-1494 10173 -142 0
1494 -10173 -142 0
1494 -10173 -143 0
1494 142 143 -1495 0
-1495 10173 -141 0
-1495 140 141 1496 0
-1495 10173 -140 0
1495 -10173 -140 0
1495 -10173 -141 0
1495 140 141 -1496 0
-1496 10173 -127 0
-1496 127 1497 0
1496 -10173 -127 0
1496 127 -1497 0
-1497 10408 -1137 0
-1497 1137 1498 0
1497 -10408 -1137 0
1497 1137 -1498 0
-1498 10406 1148 0
-1498 10407 -1148 0
1498 -10407 -1148 0
1498 -10406 1148 0
-1499 10410 1137 0
-1499 10410 280 0
-1499 10238 -280 -1137 0
1499 -10410 280 0
1499 -10238 -280 -1137 0
1499 -10410 1137 0
-1500 10411 1137 0
-1500 10411 280 0
-1500 10174 -280 -1137 0
1500 -10411 280 0
1500 -10174 -280 -1137 0
1500 -10411 1137 0
-1501 10412 1140 0
-1501 10238 -1140 0
1501 -10412 1140 0
1501 -10238 -1140 0
-1502 -150 1503 0
-1502 10413 150 0
-1502 122 1503 0
1502 -150 -1503 0
1502 -10413 -122 150 0
1502 -10413 -1503 0
1503 -10174 -122 -144 0
1503 -122 144 -1504 0
-1503 122 0
-1503 144 1504 0
-1503 10174 -144 0
-1504 10174 -143 0
-1504 142 143 1505 0
-1504 10174 -142 0
1504 -10174 -142 0
1504 -10174 -143 0
1504 142 143 -1505 0
-1505 10174 -141 0
-1505 140 141 1506 0
-1505 10174 -140 0
1505 -10174 -140 0
1505 -10174 -141 0
1505 140 141 -1506 0
-1506 10174 -127 0
-1506 127 1507 0
1506 -10174 -127 0
1506 127 -1507 0
-1507 10412 -1137 0
-1507 1137 1508 0
1507 -10412 -1137 0
1507 1137 -1508 0
-1508 10410 1148 0
-1508 10411 -1148 0
1508 -10411 -1148 0
1508 -10410 1148 0
-1509 10414 1137 0
-1509 10414 280 0
-1509 10239 -280 -1137 0
1509 -10414 280 0
1509 -10239 -280 -1137 0
1509 -10414 1137 0
-1510 10415 1137 0
-1510 10415 280 0
-1510 10175 -280 -1137 0
1510 -10415 280 0
1510 -10175 -280 -1137 0
1510 -10415 1137 0
-1511 10416 1140 0
-1511 10239 -1140 0
1511 -10416 1140 0
1511 -10239 -1140 0
-1512 -150 1513 0
-1512 10417 150 0
-1512 122 1513 0
1512 -150 -1513 0
1512 -10417 -122 150 0
1512 -10417 -1513 0
1513 -10175 -122 -144 0
1513 -122 144 -1514 0
-1513 122 0
-1513 144 1514 0
-1513 10175 -144 0
-1514 10175 -143 0
-1514 142 143 1515 0
-1514 10175 -142 0
1514 -10175 -142 0
1514 -10175 -143 0
1514 142 143 -1515 0
-1515 10175 -141 0
-1515 140 141 1516 0
-1515 10175 -140 0
1515 -10175 -140 0
1515 -10175 -141 0
1515 140 141 -1516 0
-1516 10175 -127 0
-1516 127 1517 0
1516 -10175 -127 0
1516 127 -1517 0
-1517 10416 -1137 0
-1517 1137 1518 0
1517 -10416 -1137 0
1517 1137 -1518 0
-1518 10414 1148 0
-1518 10415 -1148 0
1518 -10415 -1148 0
1518 -10414 1148 0
-1519 10418 1137 0
-1519 10418 280 0
-1519 10240 -280 -1137 0
1519 -10418 280 0
1519 -10240 -280 -1137 0
1519 -10418 1137 0
-1520 10419 1137 0
-1520 10419 280 0
-1520 10176 -280 -1137 0
1520 -10419 280 0
1520 -10176 -280 -1137 0
1520 -10419 1137 0
-1521 10420 1140 0
-1521 10240 -1140 0
1521 -10420 1140 0
1521 -10240 -1140 0
-1522 -150 1523 0
-1522 10421 150 0
-1522 122 1523 0
1522 -150 -1523 0
1522 -10421 -122 150 0
1522 -10421 -1523 0
1523 -10176 -122 -144 0
1523 -122 144 -1524 0
-1523 122 0
-1523 144 1524 0
-1523 10176 -144 0
-1524 10176 -143 0
-1524 142 143 1525 0
-1524 10176 -142 0
1524 -10176 -142 0
1524 -10176 -143 0
1524 142 143 -1525 0
-1525 10176 -141 0
-1525 140 141 1526 0
-1525 10176 -140 0
1525 -10176 -140 0
1525 -10176 -141 0
1525 140 141 -1526 0
-1526 10176 -127 0
-1526 127 1527 0
1526 -10176 -127 0
1526 127 -1527 0
-1527 10420 -1137 0
-1527 1137 1528 0
1527 -10420 -1137 0
1527 1137 -1528 0
-1528 10418 1148 0
-1528 10419 -1148 0
1528 -10419 -1148 0
1528 -10418 1148 0
-1529 10422 1137 0
-1529 10422 280 0
-1529 10241 -280 -1137 0
1529 -10422 280 0
1529 -10241 -280 -1137 0
1529 -10422 1137 0
-1530 10423 1137 0
-1530 10423 280 0
-1530 10177 -280 -1137 0
1530 -10423 280 0
1530 -10177 -280 -1137 0
1530 -10423 1137 0
-1531 10424 1140 0
-1531 10241 -1140 0
1531 -10424 1140 0
1531 -10241 -1140 0
-1532 -150 1533 0
-1532 10425 150 0
-1532 122 1533 0
1532 -150 -1533 0
1532 -10425 -122 150 0
1532 -10425 -1533 0
1533 -10177 -122 -144 0
1533 -122 144 -1534 0
-1533 122 0
-1533 144 1534 0
-1533 10177 -144 0
-1534 10177 -143 0
-1534 142 143 1535 0
-1534 10177 -142 0
1534 -10177 -142 0
1534 -10177 -143 0
1534 142 143 -1535 0
-1535 10177 -141 0
-1535 140 141 1536 0
-1535 10177 -140 0
1535 -10177 -140 0
1535 -10177 -141 0
1535 140 141 -1536 0
-1536 10177 -127 0
-1536 127 1537 0
1536 -10177 -127 0
1536 127 -1537 0
-1537 10424 -1137 0
-1537 1137 1538 0
1537 -10424 -1137 0
1537 1137 -1538 0
-1538 10422 1148 0
-1538 10423 -1148 0
1538 -10423 -1148 0
1538 -10422 1148 0
-1539 10426 1137 0
-1539 10426 280 0
-1539 10242 -280 -1137 0
1539 -10426 280 0
1539 -10242 -280 -1137 0
1539 -10426 1137 0
-1540 10427 1137 0
-1540 10427 280 0
-1540 10178 -280 -1137 0
1540 -10427 280 0
1540 -10178 -280 -1137 0
1540 -10427 1137 0
-1541 10428 1140 0
-1541 10242 -1140 0
1541 -10428 1140 0
1541 -10242 -1140 0
-1542 -150 1543 0
-1542 10429 150 0
-1542 122 1543 0
1542 -150 -1543 0
1542 -10429 -122 150 0
1542 -10429 -1543 0
1543 -10178 -122 -144 0
1543 -122 144 -1544 0
-1543 122 0
-1543 144 1544 0
-1543 10178 -144 0
-1544 10178 -143 0
-1544 142 143 1545 0
-1544 10178 -142 0
1544 -10178 -142 0
1544 -10178 -143 0
1544 142 143 -1545 0
-1545 10178 -141 0
-1545 140 141 1546 0
-1545 10178 -140 0
1545 -10178 -140 0
1545 -10178 -141 0
1545 140 141 -1546 0
-1546 10178 -127 0
-1546 127 1547 0
1546 -10178 -127 0
1546 127 -1547 0
-1547 10428 -1137 0
-1547 1137 1548 0
1547 -10428 -1137 0
1547 1137 -1548 0
-1548 10426 1148 0
-1548 10427 -1148 0
1548 -10427 -1148 0
1548 -10426 1148 0
-1549 10430 1137 0
-1549 10430 280 0
-1549 10243 -280 -1137 0
1549 -10430 280 0
1549 -10243 -280 -1137 0
1549 -10430 1137 0
-1550 10431 1137 0
-1550 10431 280 0
-1550 10179 -280 -1137 0
1550 -10431 280 0
1550 -10179 -280 -1137 0
1550 -10431 1137 0
-1551 10432 1140 0
-1551 10243 -1140 0
1551 -10432 1140 0
1551 -10243 -1140 0
-1552 -150 1553 0
-1552 10433 150 0
-1552 122 1553 0
1552 -150 -1553 0
1552 -10433 -122 150 0
1552 -10433 -1553 0
1553 -10179 -122 -144 0
1553 -122 144 -1554 0
-1553 122 0
-1553 144 1554 0
-1553 10179 -144 0
-1554 10179 -143 0
-1554 142 143 1555 0
-1554 10179 -142 0
1554 -10179 -142 0
1554 -10179 -143 0
1554 142 143 -1555 0
-1555 10179 -141 0
-1555 140 141 1556 0
-1555 10179 -140 0
1555 -10179 -140 0
1555 -10179 -141 0
1555 140 141 -1556 0
-1556 10179 -127 0
-1556 127 1557 0
1556 -10179 -127 0
1556 127 -1557 0
-1557 10432 -1137 0
-1557 1137 1558 0
1557 -10432 -1137 0
1557 1137 -1558 0
-1558 10430 1148 0
-1558 10431 -1148 0
1558 -10431 -1148 0
1558 -10430 1148 0
-1559 10434 1137 0
-1559 10434 280 0
-1559 10244 -280 -1137 0
1559 -10434 280 0
1559 -10244 -280 -1137 0
1559 -10434 1137 0
-1560 10435 1137 0
-1560 10435 280 0
-1560 10180 -280 -1137 0
1560 -10435 280 0
1560 -10180 -280 -1137 0
1560 -10435 1137 0
-1561 10436 1140 0
-1561 10244 -1140 0
1561 -10436 1140 0
1561 -10244 -1140 0
-1562 -150 1563 0
-1562 10437 150 0
-1562 122 1563 0
1562 -150 -1563 0
1562 -10437 -122 150 0
1562 -10437 -1563 0
1563 -10180 -122 -144 0
1563 -122 144 -1564 0
-1563 122 0
-1563 144 1564 0
-1563 10180 -144 0
-1564 10180 -143 0
-1564 142 143 1565 0
-1564 10180 -142 0
1564 -10180 -142 0
1564 -10180 -143 0
1564 142 143 -1565 0
-1565 10180 -141 0
-1565 140 141 1566 0
-1565 10180 -140 0
1565 -10180 -140 0
1565 -10180 -141 0
1565 140 141 -1566 0
-1566 10180 -127 0
-1566 127 1567 0
1566 -10180 -127 0
1566 127 -1567 0
-1567 10436 -1137 0
-1567 1137 1568 0
1567 -10436 -1137 0
1567 1137 -1568 0
-1568 10434 1148 0
-1568 10435 -1148 0
1568 -10435 -1148 0
1568 -10434 1148 0
-1569 10438 1137 0
-1569 10438 280 0
-1569 10245 -280 -1137 0
1569 -10438 280 0
1569 -10245 -280 -1137 0
1569 -10438 1137 0
-1570 10439 1137 0
-1570 10439 280 0
-1570 10181 -280 -1137 0
1570 -10439 280 0
1570 -10181 -280 -1137 0
1570 -10439 1137 0
-1571 10440 1140 0
-1571 10245 -1140 0
1571 -10440 1140 0
1571 -10245 -1140 0
-1572 -150 1573 0
-1572 10441 150 0
-1572 122 1573 0
1572 -150 -1573 0
1572 -10441 -122 150 0
1572 -10441 -1573 0
1573 -10181 -122 -144 0
1573 -122 144 -1574 0
-1573 122 0
-1573 144 1574 0
-1573 10181 -144 0
-1574 10181 -143 0
-1574 142 143 1575 0
-1574 10181 -142 0
1574 -10181 -142 0
1574 -10181 -143 0
1574 142 143 -1575 0
-1575 10181 -141 0
-1575 140 141 1576 0
-1575 10181 -140 0
1575 -10181 -140 0
1575 -10181 -141 0
1575 140 141 -1576 0
-1576 10181 -127 0
-1576 127 1577 0
1576 -10181 -127 0
1576 127 -1577 0
-1577 10440 -1137 0
-1577 1137 1578 0
1577 -10440 -1137 0
1577 1137 -1578 0
-1578 10438 1148 0
-1578 10439 -1148 0
1578 -10439 -1148 0
1578 -10438 1148 0
-1579 10442 1137 0
-1579 10442 280 0
-1579 10246 -280 -1137 0
1579 -10442 280 0
1579 -10246 -280 -1137 0
1579 -10442 1137 0
-1580 10443 1137 0
-1580 10443 280 0
-1580 10182 -280 -1137 0
1580 -10443 280 0
1580 -10182 -280 -1137 0
1580 -10443 1137 0
-1581 10444 1140 0
-1581 10246 -1140 0
1581 -10444 1140 0
1581 -10246 -1140 0
-1582 -150 1583 0
-1582 10445 150 0
-1582 122 1583 0
1582 -150 -1583 0
1582 -10445 -122 150 0
1582 -10445 -1583 0
1583 -10182 -122 -144 0
1583 -122 144 -1584 0
-1583 122 0
-1583 144 1584 0
-1583 10182 -144 0
-1584 10182 -143 0
-1584 142 143 1585 0
-1584 10182 -142 0
1584 -10182 -142 0
1584 -10182 -143 0
1584 142 143 -1585 0
-1585 10182 -141 0
-1585 140 141 1586 0
-1585 10182 -140 0
1585 -10182 -140 0
1585 -10182 -141 0
1585 140 141 -1586 0
-1586 10182 -127 0
-1586 127 1587 0
1586 -10182 -127 0
1586 127 -1587 0
-1587 10444 -1137 0
-1587 1137 1588 0
1587 -10444 -1137 0
1587 1137 -1588 0
-1588 10442 1148 0
-1588 10443 -1148 0
1588 -10443 -1148 0
1588 -10442 1148 0
-1589 10446 1137 0
-1589 10446 280 0
-1589 10247 -280 -1137 0
1589 -10446 280 0
1589 -10247 -280 -1137 0
1589 -10446 1137 0
-1590 10447 1137 0
-1590 10447 280 0
-1590 10183 -280 -1137 0
1590 -10447 280 0
1590 -10183 -280 -1137 0
1590 -10447 1137 0
-1591 10448 1140 0
-1591 10247 -1140 0
1591 -10448 1140 0
1591 -10247 -1140 0
-1592 -150 1593 0
-1592 10449 150 0
-1592 122 1593 0
1592 -150 -1593 0
1592 -10449 -122 150 0
1592 -10449 -1593 0
1593 -10183 -122 -144 0
1593 -122 144 -1594 0
-1593 122 0
-1593 144 1594 0
-1593 10183 -144 0
-1594 10183 -143 0
-1594 142 143 1595 0
-1594 10183 -142 0
1594 -10183 -142 0
1594 -10183 -143 0
1594 142 143 -1595 0
-1595 10183 -141 0
-1595 140 141 1596 0
-1595 10183 -140 0
1595 -10183 -140 0
1595 -10183 -141 0
1595 140 141 -1596 0
-1596 10183 -127 0
-1596 127 1597 0
1596 -10183 -127 0
1596 127 -1597 0
-1597 10448 -1137 0
-1597 1137 1598 0
1597 -10448 -1137 0
1597 1137 -1598 0
-1598 10446 1148 0
-1598 10447 -1148 0
1598 -10447 -1148 0
1598 -10446 1148 0
-1599 10450 1137 0
-1599 10450 280 0
-1599 10248 -280 -1137 0
1599 -10450 280 0
1599 -10248 -280 -1137 0
1599 -10450 1137 0
-1600 10451 1137 0
-1600 10451 280 0
-1600 10184 -280 -1137 0
1600 -10451 280 0
1600 -10184 -280 -1137 0
1600 -10451 1137 0
-1601 10452 1140 0
-1601 10248 -1140 0
1601 -10452 1140 0
1601 -10248 -1140 0
-1602 -150 1603 0
-1602 10453 150 0
-1602 122 1603 0
1602 -150 -1603 0
1602 -10453 -122 150 0
1602 -10453 -1603 0
1603 -10184 -122 -144 0
1603 -122 144 -1604 0
-1603 122 0
-1603 144 1604 0
-1603 10184 -144 0
-1604 10184 -143 0
-1604 142 143 1605 0
-1604 10184 -142 0
1604 -10184 -142 0
1604 -10184 -143 0
1604 142 143 -1605 0
-1605 10184 -141 0
-1605 140 141 1606 0
-1605 10184 -140 0
1605 -10184 -140 0
1605 -10184 -141 0
1605 140 141 -1606 0
-1606 10184 -127 0
-1606 127 1607 0
1606 -10184 -127 0
1606 127 -1607 0
-1607 10452 -1137 0
-1607 1137 1608 0
1607 -10452 -1137 0
1607 1137 -1608 0
-1608 10450 1148 0
-1608 10451 -1148 0
1608 -10451 -1148 0
1608 -10450 1148 0
-1609 10454 1137 0
-1609 10454 280 0
-1609 10249 -280 -1137 0
1609 -10454 280 0
1609 -10249 -280 -1137 0
1609 -10454 1137 0
-1610 10455 1137 0
-1610 10455 280 0
-1610 10185 -280 -1137 0
1610 -10455 280 0
1610 -10185 -280 -1137 0
1610 -10455 1137 0
-1611 10456 1140 0
-1611 10249 -1140 0
1611 -10456 1140 0
1611 -10249 -1140 0
-1612 -150 1613 0
-1612 10457 150 0
-1612 122 1613 0
1612 -150 -1613 0
1612 -10457 -122 150 0
1612 -10457 -1613 0
1613 -10185 -122 -144 0
1613 -122 144 -1614 0
-1613 122 0
-1613 144 1614 0
-1613 10185 -144 0
-1614 10185 -143 0
-1614 142 143 1615 0
-1614 10185 -142 0
1614 -10185 -142 0
1614 -10185 -143 0
1614 142 143 -1615 0
-1615 10185 -141 0
-1615 140 141 1616 0
-1615 10185 -140 0
1615 -10185 -140 0
1615 -10185 -141 0
1615 140 141 -1616 0
-1616 10185 -127 0
-1616 127 1617 0
1616 -10185 -127 0
1616 127 -1617 0
-1617 10456 -1137 0
-1617 1137 1618 0
1617 -10456 -1137 0
1617 1137 -1618 0
-1618 10454 1148 0
-1618 10455 -1148 0
1618 -10455 -1148 0
1618 -10454 1148 0
-1619 10458 1137 0
-1619 10458 280 0
-1619 10250 -280 -1137 0
1619 -10458 280 0
1619 -10250 -280 -1137 0
1619 -10458 1137 0
-1620 10459 1137 0
-1620 10459 280 0
-1620 10186 -280 -1137 0
1620 -10459 280 0
1620 -10186 -280 -1137 0
1620 -10459 1137 0
-1621 10460 1140 0
-1621 10250 -1140 0
1621 -10460 1140 0
1621 -10250 -1140 0
-1622 -150 1623 0
-1622 10461 150 0
-1622 122 1623 0
1622 -150 -1623 0
1622 -10461 -122 150 0
1622 -10461 -1623 0
1623 -10186 -122 -144 0
1623 -122 144 -1624 0
-1623 122 0
-1623 144 1624 0
-1623 10186 -144 0
-1624 10186 -143 0
-1624 142 143 1625 0
-1624 10186 -142 0
1624 -10186 -142 0
1624 -10186 -143 0
1624 142 143 -1625 0
-1625 10186 -141 0
-1625 140 141 1626 0
-1625 10186 -140 0
1625 -10186 -140 0
1625 -10186 -141 0
1625 140 141 -1626 0
-1626 10186 -127 0
-1626 127 1627 0
1626 -10186 -127 0
1626 127 -1627 0
-1627 10460 -1137 0
-1627 1137 1628 0
1627 -10460 -1137 0
1627 1137 -1628 0
-1628 10458 1148 0
-1628 10459 -1148 0
1628 -10459 -1148 0
1628 -10458 1148 0
-1629 10462 1137 0
-1629 10462 280 0
-1629 10251 -280 -1137 0
1629 -10462 280 0
1629 -10251 -280 -1137 0
1629 -10462 1137 0
-1630 10463 1137 0
-1630 10463 280 0
-1630 10187 -280 -1137 0
1630 -10463 280 0
1630 -10187 -280 -1137 0
1630 -10463 1137 0
-1631 10464 1140 0
-1631 10251 -1140 0
1631 -10464 1140 0
1631 -10251 -1140 0
-1632 -150 1633 0
-1632 10465 150 0
-1632 122 1633 0
1632 -150 -1633 0
1632 -10465 -122 150 0
1632 -10465 -1633 0
1633 -10187 -122 -144 0
1633 -122 144 -1634 0
-1633 122 0
-1633 144 1634 0
-1633 10187 -144 0
-1634 10187 -143 0
-1634 142 143 1635 0
-1634 10187 -142 0
1634 -10187 -142 0
1634 -10187 -143 0
1634 142 143 -1635 0
-1635 10187 -141 0
-1635 140 141 1636 0
-1635 10187 -140 0
1635 -10187 -140 0
1635 -10187 -141 0
1635 140 141 -1636 0
-1636 10187 -127 0
-1636 127 1637 0
1636 -10187 -127 0
1636 127 -1637 0
-1637 10464 -1137 0
-1637 1137 1638 0
1637 -10464 -1137 0
1637 1137 -1638 0
-1638 10462 1148 0
-1638 10463 -1148 0
1638 -10463 -1148 0
1638 -10462 1148 0
-1639 10466 1137 0
-1639 10466 280 0
-1639 10252 -280 -1137 0
1639 -10466 280 0
1639 -10252 -280 -1137 0
1639 -10466 1137 0
-1640 10467 1137 0
-1640 10467 280 0
-1640 10188 -280 -1137 0
1640 -10467 280 0
1640 -10188 -280 -1137 0
1640 -10467 1137 0
-1641 10468 1140 0
-1641 10252 -1140 0
1641 -10468 1140 0
1641 -10252 -1140 0
-1642 -150 1643 0
-1642 10469 150 0
-1642 122 1643 0
1642 -150 -1643 0
1642 -10469 -122 150 0
1642 -10469 -1643 0
1643 -10188 -122 -144 0
1643 -122 144 -1644 0
-1643 122 0
-1643 144 1644 0
-1643 10188 -144 0
-1644 10188 -143 0
-1644 142 143 1645 0
-1644 10188 -142 0
1644 -10188 -142 0
1644 -10188 -143 0
1644 142 143 -1645 0
-1645 10188 -141 0
-1645 140 141 1646 0
-1645 10188 -140 0
1645 -10188 -140 0
1645 -10188 -141 0
1645 140 141 -1646 0
-1646 10188 -127 0
-1646 127 1647 0
1646 -10188 -127 0
1646 127 -1647 0
-1647 10468 -1137 0
-1647 1137 1648 0
1647 -10468 -1137 0
1647 1137 -1648 0
-1648 10466 1148 0
-1648 10467 -1148 0
1648 -10467 -1148 0
1648 -10466 1148 0
-1649 10470 1137 0
-1649 10470 280 0
-1649 10253 -280 -1137 0
1649 -10470 280 0
1649 -10253 -280 -1137 0
1649 -10470 1137 0
-1650 10471 1137 0
-1650 10471 280 0
-1650 10189 -280 -1137 0
1650 -10471 280 0
1650 -10189 -280 -1137 0
1650 -10471 1137 0
-1651 10472 1140 0
-1651 10253 -1140 0
1651 -10472 1140 0
1651 -10253 -1140 0
-1652 -150 1653 0
-1652 10473 150 0
-1652 122 1653 0
1652 -150 -1653 0
1652 -10473 -122 150 0
1652 -10473 -1653 0
1653 -10189 -122 -144 0
1653 -122 144 -1654 0
-1653 122 0
-1653 144 1654 0
-1653 10189 -144 0
-1654 10189 -143 0
-1654 142 143 1655 0
-1654 10189 -142 0
1654 -10189 -142 0
1654 -10189 -143 0
1654 142 143 -1655 0
-1655 10189 -141 0
-1655 140 141 1656 0
-1655 10189 -140 0
1655 -10189 -140 0
1655 -10189 -141 0
1655 140 141 -1656 0
-1656 10189 -127 0
-1656 127 1657 0
1656 -10189 -127 0
1656 127 -1657 0
-1657 10472 -1137 0
-1657 1137 1658 0
1657 -10472 -1137 0
1657 1137 -1658 0
-1658 10470 1148 0
-1658 10471 -1148 0
1658 -10471 -1148 0
1658 -10470 1148 0
-1659 10474 1137 0
-1659 10474 280 0
-1659 10254 -280 -1137 0
1659 -10474 280 0
1659 -10254 -280 -1137 0
1659 -10474 1137 0
-1660 10475 1137 0
-1660 10475 280 0
-1660 10190 -280 -1137 0
1660 -10475 280 0
1660 -10190 -280 -1137 0
1660 -10475 1137 0
-1661 10476 1140 0
-1661 10254 -1140 0
1661 -10476 1140 0
1661 -10254 -1140 0
-1662 -150 1663 0
-1662 10477 150 0
-1662 122 1663 0
1662 -150 -1663 0
1662 -10477 -122 150 0
1662 -10477 -1663 0
1663 -10190 -122 -144 0
1663 -122 144 -1664 0
-1663 122 0
-1663 144 1664 0
-1663 10190 -144 0
-1664 10190 -143 0
-1664 142 143 1665 0
-1664 10190 -142 0
1664 -10190 -142 0
1664 -10190 -143 0
1664 142 143 -1665 0
-1665 10190 -141 0
-1665 140 141 1666 0
-1665 10190 -140 0
1665 -10190 -140 0
1665 -10190 -141 0
1665 140 141 -1666 0
-1666 10190 -127 0
-1666 127 1667 0
1666 -10190 -127 0
1666 127 -1667 0
-1667 10476 -1137 0
-1667 1137 1668 0
1667 -10476 -1137 0
1667 1137 -1668 0
-1668 10474 1148 0
-1668 10475 -1148 0
1668 -10475 -1148 0
1668 -10474 1148 0
-1669 10478 1137 0
-1669 10478 280 0
-1669 10255 -280 -1137 0
1669 -10478 280 0
1669 -10255 -280 -1137 0
1669 -10478 1137 0
-1670 10479 1137 0
-1670 10479 280 0
-1670 10191 -280 -1137 0
1670 -10479 280 0
1670 -10191 -280 -1137 0
1670 -10479 1137 0
-1671 10480 1140 0
-1671 10255 -1140 0
1671 -10480 1140 0
1671 -10255 -1140 0
-1672 -150 1673 0
-1672 10481 150 0
-1672 122 1673 0
1672 -150 -1673 0
1672 -10481 -122 150 0
1672 -10481 -1673 0
1673 -10191 -122 -144 0
1673 -122 144 -1674 0
-1673 122 0
-1673 144 1674 0
-1673 10191 -144 0
-1674 10191 -143 0
-1674 142 143 1675 0
-1674 10191 -142 0
1674 -10191 -142 0
1674 -10191 -143 0
1674 142 143 -1675 0
-1675 10191 -141 0
-1675 140 141 1676 0
-1675 10191 -140 0
1675 -10191 -140 0
1675 -10191 -141 0
1675 140 141 -1676 0
-1676 10191 -127 0
-1676 127 1677 0
1676 -10191 -127 0
1676 127 -1677 0
-1677 10480 -1137 0
-1677 1137 1678 0
1677 -10480 -1137 0
1677 1137 -1678 0
-1678 10478 1148 0
-1678 10479 -1148 0
1678 -10479 -1148 0
1678 -10478 1148 0
-1679 10482 1137 0
-1679 10482 280 0
-1679 10256 -280 -1137 0
1679 -10482 280 0
1679 -10256 -280 -1137 0
1679 -10482 1137 0
-1680 10483 1137 0
-1680 10483 280 0
-1680 10192 -280 -1137 0
1680 -10483 280 0
1680 -10192 -280 -1137 0
1680 -10483 1137 0
-1681 10484 1140 0
-1681 10256 -1140 0
1681 -10484 1140 0
1681 -10256 -1140 0
-1682 -150 1683 0
-1682 10485 150 0
-1682 122 1683 0
1682 -150 -1683 0
1682 -10485 -122 150 0
1682 -10485 -1683 0
1683 -10192 -122 -144 0
1683 -122 144 -1684 0
-1683 122 0
-1683 144 1684 0
-1683 10192 -144 0
-1684 10192 -143 0
-1684 142 143 1685 0
-1684 10192 -142 0
1684 -10192 -142 0
1684 -10192 -143 0
1684 142 143 -1685 0
-1685 10192 -141 0
-1685 140 141 1686 0
-1685 10192 -140 0
1685 -10192 -140 0
1685 -10192 -141 0
1685 140 141 -1686 0
-1686 10192 -127 0
-1686 127 1687 0
1686 -10192 -127 0
1686 127 -1687 0
-1687 10484 -1137 0
-1687 1137 1688 0
1687 -10484 -1137 0
1687 1137 -1688 0
-1688 10482 1148 0
-1688 10483 -1148 0
1688 -10483 -1148 0
1688 -10482 1148 0
-1689 10486 1137 0
-1689 10486 280 0
-1689 10257 -280 -1137 0
1689 -10486 280 0
1689 -10257 -280 -1137 0
1689 -10486 1137 0
-1690 10487 1137 0
-1690 10487 280 0
-1690 10193 -280 -1137 0
1690 -10487 280 0
1690 -10193 -280 -1137 0
1690 -10487 1137 0
-1691 10488 1140 0
-1691 10257 -1140 0
1691 -10488 1140 0
1691 -10257 -1140 0
-1692 -150 1693 0
-1692 10489 150 0
-1692 122 1693 0
1692 -150 -1693 0
1692 -10489 -122 150 0
1692 -10489 -1693 0
1693 -10193 -122 -144 0
1693 -122 144 -1694 0
-1693 122 0
-1693 144 1694 0
-1693 10193 -144 0
-1694 10193 -143 0
-1694 142 143 1695 0
-1694 10193 -142 0
1694 -10193 -142 0
1694 -10193 -143 0
1694 142 143 -1695 0
-1695 10193 -141 0
-1695 140 141 1696 0
-1695 10193 -140 0
1695 -10193 -140 0
1695 -10193 -141 0
1695 140 141 -1696 0
-1696 10193 -127 0
-1696 127 1697 0
1696 -10193 -127 0
1696 127 -1697 0
-1697 10488 -1137 0
-1697 1137 1698 0
1697 -10488 -1137 0
1697 1137 -1698 0
-1698 10486 1148 0
-1698 10487 -1148 0
1698 -10487 -1148 0
1698 -10486 1148 0
-1699 10490 1137 0
-1699 10490 280 0
-1699 10258 -280 -1137 0
1699 -10490 280 0
1699 -10258 -280 -1137 0
1699 -10490 1137 0
-1700 10491 1137 0
-1700 10491 280 0
-1700 10194 -280 -1137 0
1700 -10491 280 0
1700 -10194 -280 -1137 0
1700 -10491 1137 0
-1701 10492 1140 0
-1701 10258 -1140 0
1701 -10492 1140 0
1701 -10258 -1140 0
-1702 -150 1703 0
-1702 10493 150 0
-1702 122 1703 0
1702 -150 -1703 0
1702 -10493 -122 150 0
1702 -10493 -1703 0
1703 -10194 -122 -144 0
1703 -122 144 -1704 0
-1703 122 0
-1703 144 1704 0
-1703 10194 -144 0
-1704 10194 -143 0
-1704 142 143 1705 0
-1704 10194 -142 0
1704 -10194 -142 0
1704 -10194 -143 0
1704 142 143 -1705 0
-1705 10194 -141 0
-1705 140 141 1706 0
-1705 10194 -140 0
1705 -10194 -140 0
1705 -10194 -141 0
1705 140 141 -1706 0
-1706 10194 -127 0
-1706 127 1707 0
1706 -10194 -127 0
1706 127 -1707 0
-1707 10492 -1137 0
-1707 1137 1708 0
1707 -10492 -1137 0
1707 1137 -1708 0
-1708 10490 1148 0
-1708 10491 -1148 0
1708 -10491 -1148 0
1708 -10490 1148 0
-1709 10494 1137 0
-1709 10494 280 0
-1709 10259 -280 -1137 0
1709 -10494 280 0
1709 -10259 -280 -1137 0
1709 -10494 1137 0
-1710 10495 1137 0
-1710 10495 280 0
-1710 10195 -280 -1137 0
1710 -10495 280 0
1710 -10195 -280 -1137 0
1710 -10495 1137 0
-1711 10496 1140 0
-1711 10259 -1140 0
1711 -10496 1140 0
1711 -10259 -1140 0
-1712 -150 1713 0
-1712 10497 150 0
-1712 122 1713 0
1712 -150 -1713 0
1712 -10497 -122 150 0
1712 -10497 -1713 0
1713 -10195 -122 -144 0
1713 -122 144 -1714 0
-1713 122 0
-1713 144 1714 0
-1713 10195 -144 0
-1714 10195 -143 0
-1714 142 143 1715 0
-1714 10195 -142 0
1714 -10195 -142 0
1714 -10195 -143 0
1714 142 143 -1715 0
-1715 10195 -141 0
-1715 140 141 1716 0
-1715 10195 -140 0
1715 -10195 -140 0
1715 -10195 -141 0
1715 140 141 -1716 0
-1716 10195 -127 0
-1716 127 1717 0
1716 -10195 -127 0
1716 127 -1717 0
-1717 10496 -1137 0
-1717 1137 1718 0
1717 -10496 -1137 0
1717 1137 -1718 0
-1718 10494 1148 0
-1718 10495 -1148 0
1718 -10495 -1148 0
1718 -10494 1148 0
-1719 10498 1137 0
-1719 10498 280 0
-1719 10260 -280 -1137 0
1719 -10498 280 0
1719 -10260 -280 -1137 0
1719 -10498 1137 0
-1720 10499 1137 0
-1720 10499 280 0
-1720 10196 -280 -1137 0
1720 -10499 280 0
1720 -10196 -280 -1137 0
1720 -10499 1137 0
-1721 10500 1140 0
-1721 10260 -1140 0
1721 -10500 1140 0
1721 -10260 -1140 0
-1722 -150 1723 0
-1722 10501 150 0
-1722 122 1723 0
1722 -150 -1723 0
1722 -10501 -122 150 0
1722 -10501 -1723 0
1723 -10196 -122 -144 0
1723 -122 144 -1724 0
-1723 122 0
-1723 144 1724 0
-1723 10196 -144 0
-1724 10196 -143 0
-1724 142 143 1725 0
-1724 10196 -142 0
1724 -10196 -142 0
1724 -10196 -143 0
1724 142 143 -1725 0
-1725 10196 -141 0
-1725 140 141 1726 0
-1725 10196 -140 0
1725 -10196 -140 0
1725 -10196 -141 0
1725 140 141 -1726 0
-1726 10196 -127 0
-1726 127 1727 0
1726 -10196 -127 0
1726 127 -1727 0
-1727 10500 -1137 0
-1727 1137 1728 0
1727 -10500 -1137 0
1727 1137 -1728 0
-1728 10498 1148 0
-1728 10499 -1148 0
1728 -10499 -1148 0
1728 -10498 1148 0
-1729 10502 1137 0
-1729 10502 280 0
-1729 10261 -280 -1137 0
1729 -10502 280 0
1729 -10261 -280 -1137 0
1729 -10502 1137 0
-1730 10503 1137 0
-1730 10503 280 0
-1730 10197 -280 -1137 0
1730 -10503 280 0
1730 -10197 -280 -1137 0
1730 -10503 1137 0
-1731 10504 1140 0
-1731 10261 -1140 0
1731 -10504 1140 0
1731 -10261 -1140 0
-1732 -150 1733 0
-1732 10505 150 0
-1732 122 1733 0
1732 -150 -1733 0
1732 -10505 -122 150 0
1732 -10505 -1733 0
1733 -10197 -122 -144 0
1733 -122 144 -1734 0
-1733 122 0
-1733 144 1734 0
-1733 10197 -144 0
-1734 10197 -143 0
-1734 142 143 1735 0
-1734 10197 -142 0
1734 -10197 -142 0
1734 -10197 -143 0
1734 142 143 -1735 0
-1735 10197 -141 0
-1735 140 141 1736 0
-1735 10197 -140 0
1735 -10197 -140 0
1735 -10197 -141 0
1735 140 141 -1736 0
-1736 10197 -127 0
-1736 127 1737 0
1736 -10197 -127 0
1736 127 -1737 0
-1737 10504 -1137 0
-1737 1137 1738 0
1737 -10504 -1137 0
1737 1137 -1738 0
-1738 10502 1148 0
-1738 10503 -1148 0
1738 -10503 -1148 0
1738 -10502 1148 0
-1739 10506 1137 0
-1739 10506 280 0
-1739 10262 -280 -1137 0
1739 -10506 280 0
1739 -10262 -280 -1137 0
1739 -10506 1137 0
-1740 10507 1137 0
-1740 10507 280 0
-1740 10198 -280 -1137 0
1740 -10507 280 0
1740 -10198 -280 -1137 0
1740 -10507 1137 0
-1741 10508 1140 0
-1741 10262 -1140 0
1741 -10508 1140 0
1741 -10262 -1140 0
-1742 -150 1743 0
-1742 10509 150 0
-1742 122 1743 0
1742 -150 -1743 0
1742 -10509 -122 150 0
1742 -10509 -1743 0
1743 -10198 -122 -144 0
1743 -122 144 -1744 0
-1743 122 0
-1743 144 1744 0
-1743 10198 -144 0
-1744 10198 -143 0
-1744 142 143 1745 0
-1744 10198 -142 0
1744 -10198 -142 0
1744 -10198 -143 0
1744 142 143 -1745 0
-1745 10198 -141 0
-1745 140 141 1746 0
-1745 10198 -140 0
1745 -10198 -140 0
1745 -10198 -141 0
1745 140 141 -1746 0
-1746 10198 -127 0
-1746 127 1747 0
1746 -10198 -127 0
1746 127 -1747 0
-1747 10508 -1137 0
-1747 1137 1748 0
1747 -10508 -1137 0
1747 1137 -1748 0
-1748 10506 1148 0
-1748 10507 -1148 0
1748 -10507 -1148 0
1748 -10506 1148 0
-1749 10510 1137 0
-1749 10510 280 0
-1749 10263 -280 -1137 0
1749 -10510 280 0
1749 -10263 -280 -1137 0
1749 -10510 1137 0
-1750 10511 1137 0
-1750 10511 280 0
-1750 10199 -280 -1137 0
1750 -10511 280 0
1750 -10199 -280 -1137 0
1750 -10511 1137 0
-1751 10512 1140 0
-1751 10263 -1140 0
1751 -10512 1140 0
1751 -10263 -1140 0
-1752 -150 1753 0
-1752 10513 150 0
-1752 122 1753 0
1752 -150 -1753 0
1752 -10513 -122 150 0
1752 -10513 -1753 0
1753 -10199 -122 -144 0
1753 -122 144 -1754 0
-1753 122 0
-1753 144 1754 0
-1753 10199 -144 0
-1754 10199 -143 0
-1754 142 143 1755 0
-1754 10199 -142 0
1754 -10199 -142 0
1754 -10199 -143 0
1754 142 143 -1755 0
-1755 10199 -141 0
-1755 140 141 1756 0
-1755 10199 -140 0
1755 -10199 -140 0
1755 -10199 -141 0
1755 140 141 -1756 0
-1756 10199 -127 0
-1756 127 1757 0
1756 -10199 -127 0
1756 127 -1757 0
-1757 10512 -1137 0
-1757 1137 1758 0
1757 -10512 -1137 0
1757 1137 -1758 0
-1758 10510 1148 0
-1758 10511 -1148 0
1758 -10511 -1148 0
1758 -10510 1148 0
-1759 10514 1137 0
-1759 10514 280 0
-1759 10264 -280 -1137 0
1759 -10514 280 0
1759 -10264 -280 -1137 0
1759 -10514 1137 0
-1760 10515 1137 0
-1760 10515 280 0
-1760 10200 -280 -1137 0
1760 -10515 280 0
1760 -10200 -280 -1137 0
1760 -10515 1137 0
-1761 10516 1140 0
-1761 10264 -1140 0
1761 -10516 1140 0
1761 -10264 -1140 0
-1762 -150 1763 0
-1762 10517 150 0
-1762 122 1763 0
1762 -150 -1763 0
1762 -10517 -122 150 0
1762 -10517 -1763 0
1763 -10200 -122 -144 0
1763 -122 144 -1764 0
-1763 122 0
-1763 144 1764 0
-1763 10200 -144 0
-1764 10200 -143 0
-1764 142 143 1765 0
-1764 10200 -142 0
1764 -10200 -142 0
1764 -10200 -143 0
1764 142 143 -1765 0
-1765 10200 -141 0
-1765 140 141 1766 0
-1765 10200 -140 0
1765 -10200 -140 0
1765 -10200 -141 0
1765 140 141 -1766 0
-1766 10200 -127 0
-1766 127 1767 0
1766 -10200 -127 0
1766 127 -1767 0
-1767 10516 -1137 0
-1767 1137 1768 0
1767 -10516 -1137 0
1767 1137 -1768 0
-1768 10514 1148 0
-1768 10515 -1148 0
1768 -10515 -1148 0
1768 -10514 1148 0
-1769 10518 1137 0
-1769 10518 280 0
-1769 10265 -280 -1137 0
1769 -10518 280 0
1769 -10265 -280 -1137 0
1769 -10518 1137 0
-1770 10519 1137 0
-1770 10519 280 0
-1770 10201 -280 -1137 0
1770 -10519 280 0
1770 -10201 -280 -1137 0
1770 -10519 1137 0
-1771 10520 1140 0
-1771 10265 -1140 0
1771 -10520 1140 0
1771 -10265 -1140 0
-1772 -150 1773 0
-1772 10521 150 0
-1772 122 1773 0
1772 -150 -1773 0
1772 -10521 -122 150 0
1772 -10521 -1773 0
1773 -10201 -122 -144 0
1773 -122 144 -1774 0
-1773 122 0
-1773 144 1774 0
-1773 10201 -144 0
-1774 10201 -143 0
-1774 142 143 1775 0
-1774 10201 -142 0
1774 -10201 -142 0
1774 -10201 -143 0
1774 142 143 -1775 0
-1775 10201 -141 0
-1775 140 141 1776 0
-1775 10201 -140 0
1775 -10201 -140 0
1775 -10201 -141 0
1775 140 141 -1776 0
-1776 10201 -127 0
-1776 127 1777 0
1776 -10201 -127 0
1776 127 -1777 0
-1777 10520 -1137 0
-1777 1137 1778 0
1777 -10520 -1137 0
1777 1137 -1778 0
-1778 10518 1148 0
-1778 10519 -1148 0
1778 -10519 -1148 0
1778 -10518 1148 0
-1779 122 0
-1779 10522 150 0
-1779 10130 -150 0
1779 -10130 -122 -150 0
1779 -10522 -122 150 0
-1780 122 0
-1780 10523 150 0
-1780 10131 -150 0
1780 -10131 -122 -150 0
1780 -10523 -122 150 0
-1781 122 0
-1781 10524 150 0
-1781 10132 -150 0
1781 -10132 -122 -150 0
1781 -10524 -122 150 0
-1782 122 0
-1782 10525 150 0
-1782 10133 -150 0
1782 -10133 -122 -150 0
1782 -10525 -122 150 0
-1783 122 0
-1783 10526 150 0
-1783 10134 -150 0
1783 -10134 -122 -150 0
1783 -10526 -122 150 0
-1784 122 0
-1784 10527 150 0
-1784 10135 -150 0
1784 -10135 -122 -150 0
1784 -10527 -122 150 0
-1785 122 0
-1785 10528 150 0
-1785 10136 -150 0
1785 -10136 -122 -150 0
1785 -10528 -122 150 0
-1786 122 0
-1786 10529 150 0
-1786 10137 -150 0
1786 -10137 -122 -150 0
1786 -10529 -122 150 0
-1787 10530 1140 0
-1787 10130 -1140 0
1787 -10530 1140 0
1787 -10130 -1140 0
-1788 10531 1140 0
-1788 10131 -1140 0
1788 -10531 1140 0
1788 -10131 -1140 0
-1789 10532 1140 0
-1789 10132 -1140 0
1789 -10532 1140 0
1789 -10132 -1140 0
-1790 10533 1140 0
-1790 10133 -1140 0
1790 -10533 1140 0
1790 -10133 -1140 0
-1791 10534 1140 0
-1791 10134 -1140 0
1791 -10534 1140 0
1791 -10134 -1140 0
-1792 10535 1140 0
-1792 10135 -1140 0
1792 -10535 1140 0
1792 -10135 -1140 0
-1793 10536 1140 0
-1793 10136 -1140 0
1793 -10536 1140 0
1793 -10136 -1140 0
-1794 10537 1140 0
-1794 10137 -1140 0
1794 -10537 1140 0
1794 -10137 -1140 0
-1795 10538 1140 0
-1795 9864 -1140 0
1795 -10538 1140 0
1795 -9864 -1140 0
-1796 10539 1140 0
-1796 9871 -1140 0
1796 -10539 1140 0
1796 -9871 -1140 0
-1797 10540 1140 0
-1797 9865 -1140 0
1797 -10540 1140 0
1797 -9865 -1140 0
-1798 10541 1140 0
-1798 9870 -1140 0
1798 -10541 1140 0
1798 -9870 -1140 0
-1799 10542 1140 0
-1799 9866 -1140 0
1799 -10542 1140 0
1799 -9866 -1140 0
-1800 10543 1140 0
-1800 9867 -1140 0
1800 -10543 1140 0
1800 -9867 -1140 0
-1801 10544 1140 0
-1801 9868 -1140 0
1801 -10544 1140 0
1801 -9868 -1140 0
-1802 10545 1140 0
-1802 9869 -1140 0
1802 -10545 1140 0
1802 -9869 -1140 0
-1803 -1804 -1805 0
-1803 -10546 1804 0
-1803 122 1804 0
1803 -1804 1805 0
1803 10546 -122 1804 0
-1804 10114 -810 0
-1804 10103 10114 0
1804 -10114 0
1804 -10103 810 0
1805 -10546 -810 0
1805 -810 -930 0
-1805 810 0
-1805 10546 930 0
-1806 -1804 -1807 0
-1806 -10547 1804 0
-1806 122 1804 0
1806 -1804 1807 0
1806 10547 -122 1804 0
1807 -10115 -10547 0
-1807 10115 0
-1807 10547 0
-1808 -708 -1809 0
-1808 10548 1809 0
-1808 -1809 -1810 0
1808 -10548 1809 0
1808 708 -1809 1810 0
-1809 708 857 0
1809 -708 0
1809 -857 0
1810 810 854 -861 0
-1810 -810 0
-1810 861 0
-1810 -854 0
1811 708 -1812 0
1811 -10549 708 0
1811 708 -858 0
-1811 -708 0
-1811 10549 858 1812 0
1812 -10103 810 -860 0
-1812 10103 0
-1812 -810 0
-1812 860 0
-1813 -671 1814 0
-1813 10550 671 0
1813 -671 -1814 0
1813 -10550 671 0
1814 -9753 -1815 0
-1814 9753 0
-1814 1815 0
1815 9963 9965 -9976 0
-1815 9976 0
-1815 -9965 0
-1815 -9963 0
-1816 -673 1814 0
-1816 10551 673 0
1816 -673 -1814 0
1816 -10551 673 0
-1817 -675 1814 0
-1817 10552 675 0
1817 -675 -1814 0
1817 -10552 675 0
-1818 -678 1814 0
-1818 10553 678 0
1818 -678 -1814 0
1818 -10553 678 0
-1819 -680 1814 0
-1819 10554 680 0
1819 -680 -1814 0
1819 -10554 680 0
-1820 -683 1814 0
-1820 10555 683 0
1820 -683 -1814 0
1820 -10555 683 0
-1821 -685 1814 0
-1821 10556 685 0
1821 -685 -1814 0
1821 -10556 685 0
-1822 -688 1814 0
-1822 10557 688 0
1822 -688 -1814 0
1822 -10557 688 0
-1823 -671 1824 0
-1823 10558 671 0
1823 -671 -1824 0
1823 -10558 671 0
1824 -9754 -1815 0
-1824 9754 0
-1824 1815 0
-1825 -673 1824 0
-1825 10559 673 0
1825 -673 -1824 0
1825 -10559 673 0
-1826 -675 1824 0
-1826 10560 675 0
1826 -675 -1824 0
1826 -10560 675 0
-1827 -678 1824 0
-1827 10561 678 0
1827 -678 -1824 0
1827 -10561 678 0
-1828 -680 1824 0
-1828 10562 680 0
1828 -680 -1824 0
1828 -10562 680 0
-1829 -683 1824 0
-1829 10563 683 0
1829 -683 -1824 0
1829 -10563 683 0
-1830 -685 1824 0
-1830 10564 685 0
1830 -685 -1824 0
1830 -10564 685 0
-1831 -688 1824 0
-1831 10565 688 0
1831 -688 -1824 0
1831 -10565 688 0
1832 -10566 1833 0
1832 10114 -1833 -1837 0
-1832 -1833 1837 0
-1832 10566 1833 0
-1832 -10114 -1833 0
-1833 707 858 1834 0
-1833 707 -810 858 0
1833 -707 0
1833 -858 0
1833 810 -1834 0
1834 -10103 -807 -1835 0
-1834 10103 0
-1834 807 0
-1834 1835 0
-1835 10112 0
-1835 869 931 -1836 0
1835 -10112 -869 0
1835 -10112 1836 0
1835 -10112 -931 0
-1836 10101 855 0
1836 -10101 0
1836 -855 0
1837 694 -1838 1839 0
1837 -10556 -1838 1839 0
-1837 -1839 0
-1837 1838 0
-1837 10556 -694 0
-1838 10557 692 0
1838 -10557 0
1838 -692 0
-1839 699 1840 1841 0
-1839 -10554 1840 1841 0
1839 -1841 0
1839 -1840 0
1839 10554 -699 0
1840 10555 -697 0
-1840 -10555 0
-1840 697 0
-1841 704 1842 1843 0
-1841 -10552 1842 1843 0
1841 -1843 0
1841 -1842 0
1841 10552 -704 0
1842 10553 -702 0
-1842 -10553 0
-1842 702 0
-1843 -10551 649 0
-1843 -10550 706 0
-1843 -10550 -10551 0
-1843 649 706 0
1843 10551 -706 0
1843 10550 -649 0
-1844 10567 302 0
-1844 10522 -302 0
1844 -10567 302 0
1844 -10522 -302 0
-1845 10568 304 0
-1845 10522 -304 0
1845 -10568 304 0
1845 -10522 -304 0
-1846 10569 306 0
-1846 10522 -306 0
1846 -10569 306 0
1846 -10522 -306 0
-1847 10570 309 0
-1847 10522 -309 0
1847 -10570 309 0
1847 -10522 -309 0
-1848 10571 311 0
-1848 10522 -311 0
1848 -10571 311 0
1848 -10522 -311 0
-1849 10572 314 0
-1849 10522 -314 0
1849 -10572 314 0
1849 -10522 -314 0
-1850 10573 316 0
-1850 10522 -316 0
1850 -10573 316 0
1850 -10522 -316 0
-1851 10574 319 0
-1851 10522 -319 0
1851 -10574 319 0
1851 -10522 -319 0
1852 -10575 1853 0
1852 -321 1853 0
-1852 -1853 0
-1852 10575 321 0
1853 -324 -1854 0
1853 10574 -324 389 0
-1853 324 0
-1853 -10574 1854 0
-1853 -389 1854 0
-1854 394 1855 1856 0
-1854 -10572 1855 1856 0
1854 -1856 0
1854 -1855 0
1854 10572 -394 0
1855 10573 -393 0
-1855 -10573 0
-1855 393 0
-1856 399 1857 1858 0
-1856 -10570 1857 1858 0
1856 -1858 0
1856 -1857 0
1856 10570 -399 0
1857 10571 -398 0
-1857 -10571 0
-1857 398 0
-1858 -10569 1859 0
-1858 402 1859 0
1858 -1859 0
1858 10569 -402 0
-1859 -10568 286 0
-1859 -10567 404 0
-1859 -10567 -10568 0
-1859 286 404 0
1859 10568 -404 0
1859 10567 -286 0
-1860 10576 671 0
-1860 10575 -671 0
1860 -10576 671 0
1860 -10575 -671 0
-1861 10577 673 0
-1861 10575 -673 0
1861 -10577 673 0
1861 -10575 -673 0
-1862 10578 675 0
-1862 10575 -675 0
1862 -10578 675 0
1862 -10575 -675 0
-1863 10579 678 0
-1863 10575 -678 0
1863 -10579 678 0
1863 -10575 -678 0
-1864 10580 680 0
-1864 10575 -680 0
1864 -10580 680 0
1864 -10575 -680 0
-1865 10581 683 0
-1865 10575 -683 0
1865 -10581 683 0
1865 -10575 -683 0
-1866 10582 685 0
-1866 10575 -685 0
1866 -10582 685 0
1866 -10575 -685 0
-1867 10583 688 0
-1867 10575 -688 0
1867 -10583 688 0
1867 -10575 -688 0
1868 -10584 1869 0
1868 -708 -1869 -1870 0
-1868 -1869 1870 0
-1868 10584 1869 0
-1868 708 -1869 0
-1869 707 858 0
1869 -707 0
1869 -858 0
1870 694 -1871 1872 0
1870 -10582 -1871 1872 0
-1870 -1872 0
-1870 1871 0
-1870 10582 -694 0
-1871 10583 692 0
1871 -10583 0
1871 -692 0
-1872 699 1873 1874 0
-1872 -10580 1873 1874 0
1872 -1874 0
1872 -1873 0
1872 10580 -699 0
1873 10581 -697 0
-1873 -10581 0
-1873 697 0
-1874 704 1875 1876 0
-1874 -10578 1875 1876 0
1874 -1876 0
1874 -1875 0
1874 10578 -704 0
1875 10579 -702 0
-1875 -10579 0
-1875 702 0
-1876 -10577 649 0
-1876 -10576 706 0
-1876 -10576 -10577 0
-1876 649 706 0
1876 10577 -706 0
1876 10576 -649 0
1877 -10585 1878 0
1877 -1878 -1885 0
1877 -1878 -1882 0
-1877 10585 1878 0
-1877 -1878 1882 1885 0
-1878 -810 1879 0
-1878 1879 -1880 0
-1878 10103 1879 0
1878 -1879 0
1878 -10103 810 1880 0
-1879 10114 0
-1879 9829 -10115 0
1879 -9829 -10114 0
1879 -10114 10115 0
1880 841 -1881 0
1880 807 -1881 0
-1880 1881 0
-1880 -807 -841 0
-1881 9829 861 0
1881 -9829 0
1881 -861 0
1882 -10584 810 861 0
1882 810 -861 -1883 0
-1882 -810 0
-1882 -861 1883 0
-1882 10584 861 0
-1883 10566 0
-1883 931 1884 0
1883 -10566 -931 0
1883 -10566 -1884 0
1884 -10101 -854 0
-1884 10101 0
-1884 854 0
1885 -930 -1886 0
-1885 930 0
-1885 1886 0
-1886 1837 1887 0
1886 -1837 0
1886 -1887 0
1887 694 -1888 1889 0
1887 -10564 -1888 1889 0
-1887 -1889 0
-1887 1888 0
-1887 10564 -694 0
-1888 10565 692 0
1888 -10565 0
1888 -692 0
-1889 699 1890 1891 0
-1889 -10562 1890 1891 0
1889 -1891 0
1889 -1890 0
1889 10562 -699 0
1890 10563 -697 0
-1890 -10563 0
-1890 697 0
-1891 704 1892 1893 0
-1891 -10560 1892 1893 0
1891 -1893 0
1891 -1892 0
1891 10560 -704 0
1892 10561 -702 0
-1892 -10561 0
-1892 702 0
-1893 -10559 649 0
-1893 -10558 706 0
-1893 -10558 -10559 0
-1893 649 706 0
1893 10559 -706 0
1893 10558 -649 0
1894 -10586 1833 0
1894 10114 -1833 -1887 0
-1894 -1833 1887 0
-1894 10586 1833 0
-1894 -10114 -1833 0
-1895 10587 302 0
-1895 10523 -302 0
1895 -10587 302 0
1895 -10523 -302 0
-1896 10588 304 0
-1896 10523 -304 0
1896 -10588 304 0
1896 -10523 -304 0
-1897 10589 306 0
-1897 10523 -306 0
1897 -10589 306 0
1897 -10523 -306 0
-1898 10590 309 0
-1898 10523 -309 0
1898 -10590 309 0
1898 -10523 -309 0
-1899 10591 311 0
-1899 10523 -311 0
1899 -10591 311 0
1899 -10523 -311 0
-1900 10592 314 0
-1900 10523 -314 0
1900 -10592 314 0
1900 -10523 -314 0
-1901 10593 316 0
-1901 10523 -316 0
1901 -10593 316 0
1901 -10523 -316 0
-1902 10594 319 0
-1902 10523 -319 0
1902 -10594 319 0
1902 -10523 -319 0
-1903 10595 1904 0
-1903 -321 1904 0
1903 -1904 0
1903 -10595 321 0
1904 -10594 -324 1905 0
1904 -324 -389 1905 0
-1904 -1905 0
-1904 324 0
-1904 10594 389 0
-1905 394 1906 1907 0
-1905 -10592 1906 1907 0
1905 -1907 0
1905 -1906 0
1905 10592 -394 0
1906 10593 -393 0
-1906 -10593 0
-1906 393 0
-1907 399 1908 1909 0
-1907 -10590 1908 1909 0
1907 -1909 0
1907 -1908 0
1907 10590 -399 0
1908 10591 -398 0
-1908 -10591 0
-1908 398 0
-1909 -10589 1910 0
-1909 402 1910 0
1909 -1910 0
1909 10589 -402 0
-1910 -10588 286 0
-1910 -10587 404 0
-1910 -10587 -10588 0
-1910 286 404 0
1910 10588 -404 0
1910 10587 -286 0
-1911 10596 671 0
-1911 10595 -671 0
1911 -10596 671 0
1911 -10595 -671 0
-1912 10597 673 0
-1912 10595 -673 0
1912 -10597 673 0
1912 -10595 -673 0
-1913 10598 675 0
-1913 10595 -675 0
1913 -10598 675 0
1913 -10595 -675 0
-1914 10599 678 0
-1914 10595 -678 0
1914 -10599 678 0
1914 -10595 -678 0
-1915 10600 680 0
-1915 10595 -680 0
1915 -10600 680 0
1915 -10595 -680 0
-1916 10601 683 0
-1916 10595 -683 0
1916 -10601 683 0
1916 -10595 -683 0
-1917 10602 685 0
-1917 10595 -685 0
1917 -10602 685 0
1917 -10595 -685 0
-1918 10603 688 0
-1918 10595 -688 0
1918 -10603 688 0
1918 -10595 -688 0
1919 -10604 1869 0
1919 -708 -1869 -1920 0
-1919 -1869 1920 0
-1919 10604 1869 0
-1919 708 -1869 0
1920 694 -1921 1922 0
1920 -10602 -1921 1922 0
-1920 -1922 0
-1920 1921 0
-1920 10602 -694 0
-1921 10603 692 0
1921 -10603 0
1921 -692 0
-1922 699 1923 1924 0
-1922 -10600 1923 1924 0
1922 -1924 0
1922 -1923 0
1922 10600 -699 0
1923 10601 -697 0
-1923 -10601 0
-1923 697 0
-1924 704 1925 1926 0
-1924 -10598 1925 1926 0
1924 -1926 0
1924 -1925 0
1924 10598 -704 0
1925 10599 -702 0
-1925 -10599 0
-1925 702 0
-1926 -10597 649 0
-1926 -10596 706 0
-1926 -10596 -10597 0
-1926 649 706 0
1926 10597 -706 0
1926 10596 -649 0
1927 -10605 1878 0
1927 810 -1878 -1928 0
-1927 -1878 1928 0
-1927 10605 1878 0
-1927 -810 -1878 0
1928 -10604 861 0
1928 -861 -1929 0
-1928 10604 861 0
-1928 -861 1929 0
-1929 10586 0
-1929 931 1884 0
1929 -10586 -931 0
1929 -10586 -1884 0
-1930 -671 1931 0
-1930 10606 671 0
1930 -671 -1931 0
1930 -10606 671 0
1931 -9755 -1815 0
-1931 9755 0
-1931 1815 0
-1932 -673 1931 0
-1932 10607 673 0
1932 -673 -1931 0
1932 -10607 673 0
-1933 -675 1931 0
-1933 10608 675 0
1933 -675 -1931 0
1933 -10608 675 0
-1934 -678 1931 0
-1934 10609 678 0
1934 -678 -1931 0
1934 -10609 678 0
-1935 -680 1931 0
-1935 10610 680 0
1935 -680 -1931 0
1935 -10610 680 0
-1936 -683 1931 0
-1936 10611 683 0
1936 -683 -1931 0
1936 -10611 683 0
-1937 -685 1931 0
-1937 10612 685 0
1937 -685 -1931 0
1937 -10612 685 0
-1938 -688 1931 0
-1938 10613 688 0
1938 -688 -1931 0
1938 -10613 688 0
1939 -10614 1833 0
1939 10114 -1833 -1940 0
-1939 -1833 1940 0
-1939 10614 1833 0
-1939 -10114 -1833 0
1940 694 -1941 1942 0
1940 -10612 -1941 1942 0
-1940 -1942 0
-1940 1941 0
-1940 10612 -694 0
-1941 10613 692 0
1941 -10613 0
1941 -692 0
-1942 699 1943 1944 0
-1942 -10610 1943 1944 0
1942 -1944 0
1942 -1943 0
1942 10610 -699 0
1943 10611 -697 0
-1943 -10611 0
-1943 697 0
-1944 704 1945 1946 0
-1944 -10608 1945 1946 0
1944 -1946 0
1944 -1945 0
1944 10608 -704 0
1945 10609 -702 0
-1945 -10609 0
-1945 702 0
-1946 -10607 649 0
-1946 -10606 706 0
-1946 -10606 -10607 0
-1946 649 706 0
1946 10607 -706 0
1946 10606 -649 0
-1947 10615 302 0
-1947 10524 -302 0
1947 -10615 302 0
1947 -10524 -302 0
-1948 10616 304 0
-1948 10524 -304 0
1948 -10616 304 0
1948 -10524 -304 0
-1949 10617 306 0
-1949 10524 -306 0
1949 -10617 306 0
1949 -10524 -306 0
-1950 10618 309 0
-1950 10524 -309 0
1950 -10618 309 0
1950 -10524 -309 0
-1951 10619 311 0
-1951 10524 -311 0
1951 -10619 311 0
1951 -10524 -311 0
-1952 10620 314 0
-1952 10524 -314 0
1952 -10620 314 0
1952 -10524 -314 0
-1953 10621 316 0
-1953 10524 -316 0
1953 -10621 316 0
1953 -10524 -316 0
-1954 10622 319 0
-1954 10524 -319 0
1954 -10622 319 0
1954 -10524 -319 0
1955 -10623 1956 0
1955 -321 1956 0
-1955 -1956 0
-1955 10623 321 0
1956 -324 -1957 0
1956 10622 -324 389 0
-1956 324 0
-1956 -10622 1957 0
-1956 -389 1957 0
-1957 394 1958 1959 0
-1957 -10620 1958 1959 0
1957 -1959 0
1957 -1958 0
1957 10620 -394 0
1958 10621 -393 0
-1958 -10621 0
-1958 393 0
-1959 399 1960 1961 0
-1959 -10618 1960 1961 0
1959 -1961 0
1959 -1960 0
1959 10618 -399 0
1960 10619 -398 0
-1960 -10619 0
-1960 398 0
-1961 -10617 1962 0
-1961 402 1962 0
1961 -1962 0
1961 10617 -402 0
-1962 -10616 286 0
-1962 -10615 404 0
-1962 -10615 -10616 0
-1962 286 404 0
1962 10616 -404 0
1962 10615 -286 0
-1963 10624 671 0
-1963 10623 -671 0
1963 -10624 671 0
1963 -10623 -671 0
-1964 10625 673 0
-1964 10623 -673 0
1964 -10625 673 0
1964 -10623 -673 0
-1965 10626 675 0
-1965 10623 -675 0
1965 -10626 675 0
1965 -10623 -675 0
-1966 10627 678 0
-1966 10623 -678 0
1966 -10627 678 0
1966 -10623 -678 0
-1967 10628 680 0
-1967 10623 -680 0
1967 -10628 680 0
1967 -10623 -680 0
-1968 10629 683 0
-1968 10623 -683 0
1968 -10629 683 0
1968 -10623 -683 0
-1969 10630 685 0
-1969 10623 -685 0
1969 -10630 685 0
1969 -10623 -685 0
-1970 10631 688 0
-1970 10623 -688 0
1970 -10631 688 0
1970 -10623 -688 0
1971 -10632 1869 0
1971 -708 -1869 -1972 0
-1971 -1869 1972 0
-1971 10632 1869 0
-1971 708 -1869 0
1972 694 -1973 1974 0
1972 -10630 -1973 1974 0
-1972 -1974 0
-1972 1973 0
-1972 10630 -694 0
-1973 10631 692 0
1973 -10631 0
1973 -692 0
-1974 699 1975 1976 0
-1974 -10628 1975 1976 0
1974 -1976 0
1974 -1975 0
1974 10628 -699 0
1975 10629 -697 0
-1975 -10629 0
-1975 697 0
-1976 704 1977 1978 0
-1976 -10626 1977 1978 0
1976 -1978 0
1976 -1977 0
1976 10626 -704 0
1977 10627 -702 0
-1977 -10627 0
-1977 702 0
-1978 -10625 649 0
-1978 -10624 706 0
-1978 -10624 -10625 0
-1978 649 706 0
1978 10625 -706 0
1978 10624 -649 0
1979 -10633 1878 0
1979 810 -1878 -1980 0
-1979 -1878 1980 0
-1979 10633 1878 0
-1979 -810 -1878 0
1980 -10632 861 0
1980 -861 -1981 0
-1980 10632 861 0
-1980 -861 1981 0
-1981 10614 0
-1981 931 1884 0
1981 -10614 -931 0
1981 -10614 -1884 0
-1982 -671 1983 0
-1982 10634 671 0
1982 -671 -1983 0
1982 -10634 671 0
1983 -9756 -1815 0
-1983 9756 0
-1983 1815 0
-1984 -673 1983 0
-1984 10635 673 0
1984 -673 -1983 0
1984 -10635 673 0
-1985 -675 1983 0
-1985 10636 675 0
1985 -675 -1983 0
1985 -10636 675 0
-1986 -678 1983 0
-1986 10637 678 0
1986 -678 -1983 0
1986 -10637 678 0
-1987 -680 1983 0
-1987 10638 680 0
1987 -680 -1983 0
1987 -10638 680 0
-1988 -683 1983 0
-1988 10639 683 0
1988 -683 -1983 0
1988 -10639 683 0
-1989 -685 1983 0
-1989 10640 685 0
1989 -685 -1983 0
1989 -10640 685 0
-1990 -688 1983 0
-1990 10641 688 0
1990 -688 -1983 0
1990 -10641 688 0
1991 -10642 1833 0
1991 10114 -1833 -1992 0
-1991 -1833 1992 0
-1991 10642 1833 0
-1991 -10114 -1833 0
1992 694 -1993 1994 0
1992 -10640 -1993 1994 0
-1992 -1994 0
-1992 1993 0
-1992 10640 -694 0
-1993 10641 692 0
1993 -10641 0
1993 -692 0
-1994 699 1995 1996 0
-1994 -10638 1995 1996 0
1994 -1996 0
1994 -1995 0
1994 10638 -699 0
1995 10639 -697 0
-1995 -10639 0
-1995 697 0
-1996 704 1997 1998 0
-1996 -10636 1997 1998 0
1996 -1998 0
1996 -1997 0
1996 10636 -704 0
1997 10637 -702 0
-1997 -10637 0
-1997 702 0
-1998 -10635 649 0
-1998 -10634 706 0
-1998 -10634 -10635 0
-1998 649 706 0
1998 10635 -706 0
1998 10634 -649 0
-1999 10643 302 0
-1999 10525 -302 0
1999 -10643 302 0
1999 -10525 -302 0
-2000 10644 304 0
-2000 10525 -304 0
2000 -10644 304 0
2000 -10525 -304 0
-2001 10645 306 0
-2001 10525 -306 0
2001 -10645 306 0
2001 -10525 -306 0
-2002 10646 309 0
-2002 10525 -309 0
2002 -10646 309 0
2002 -10525 -309 0
-2003 10647 311 0
-2003 10525 -311 0
2003 -10647 311 0
2003 -10525 -311 0
-2004 10648 314 0
-2004 10525 -314 0
2004 -10648 314 0
2004 -10525 -314 0
-2005 10649 316 0
-2005 10525 -316 0
2005 -10649 316 0
2005 -10525 -316 0
-2006 10650 319 0
-2006 10525 -319 0
2006 -10650 319 0
2006 -10525 -319 0
-2007 10651 2008 0
-2007 -321 2008 0
2007 -2008 0
2007 -10651 321 0
2008 -10650 -324 2009 0
2008 -324 -389 2009 0
-2008 -2009 0
-2008 324 0
-2008 10650 389 0
-2009 394 2010 2011 0
-2009 -10648 2010 2011 0
2009 -2011 0
2009 -2010 0
2009 10648 -394 0
2010 10649 -393 0
-2010 -10649 0
-2010 393 0
-2011 399 2012 2013 0
-2011 -10646 2012 2013 0
2011 -2013 0
2011 -2012 0
2011 10646 -399 0
2012 10647 -398 0
-2012 -10647 0
-2012 398 0
-2013 -10645 2014 0
-2013 402 2014 0
2013 -2014 0
2013 10645 -402 0
-2014 -10644 286 0
-2014 -10643 404 0
-2014 -10643 -10644 0
-2014 286 404 0
2014 10644 -404 0
2014 10643 -286 0
-2015 10652 671 0
-2015 10651 -671 0
2015 -10652 671 0
2015 -10651 -671 0
-2016 10653 673 0
-2016 10651 -673 0
2016 -10653 673 0
2016 -10651 -673 0
-2017 10654 675 0
-2017 10651 -675 0
2017 -10654 675 0
2017 -10651 -675 0
-2018 10655 678 0
-2018 10651 -678 0
2018 -10655 678 0
2018 -10651 -678 0
-2019 10656 680 0
-2019 10651 -680 0
2019 -10656 680 0
2019 -10651 -680 0
-2020 10657 683 0
-2020 10651 -683 0
2020 -10657 683 0
2020 -10651 -683 0
-2021 10658 685 0
-2021 10651 -685 0
2021 -10658 685 0
2021 -10651 -685 0
-2022 10659 688 0
-2022 10651 -688 0
2022 -10659 688 0
2022 -10651 -688 0
2023 -10660 1869 0
2023 -708 -1869 -2024 0
-2023 -1869 2024 0
-2023 10660 1869 0
-2023 708 -1869 0
2024 694 -2025 2026 0
2024 -10658 -2025 2026 0
-2024 -2026 0
-2024 2025 0
-2024 10658 -694 0
-2025 10659 692 0
2025 -10659 0
2025 -692 0
-2026 699 2027 2028 0
-2026 -10656 2027 2028 0
2026 -2028 0
2026 -2027 0
2026 10656 -699 0
2027 10657 -697 0
-2027 -10657 0
-2027 697 0
-2028 704 2029 2030 0
-2028 -10654 2029 2030 0
2028 -2030 0
2028 -2029 0
2028 10654 -704 0
2029 10655 -702 0
-2029 -10655 0
-2029 702 0
-2030 -10653 649 0
-2030 -10652 706 0
-2030 -10652 -10653 0
-2030 649 706 0
2030 10653 -706 0
2030 10652 -649 0
2031 -10661 1878 0
2031 810 -1878 -2032 0
-2031 -1878 2032 0
-2031 10661 1878 0
-2031 -810 -1878 0
2032 -10660 861 0
2032 -861 -2033 0
-2032 10660 861 0
-2032 -861 2033 0
-2033 10642 0
-2033 931 1884 0
2033 -10642 -931 0
2033 -10642 -1884 0
-2034 -671 2035 0
-2034 10662 671 0
2034 -671 -2035 0
2034 -10662 671 0
2035 -9757 -1815 0
-2035 9757 0
-2035 1815 0
-2036 -673 2035 0
-2036 10663 673 0
2036 -673 -2035 0
2036 -10663 673 0
-2037 -675 2035 0
-2037 10664 675 0
2037 -675 -2035 0
2037 -10664 675 0
-2038 -678 2035 0
-2038 10665 678 0
2038 -678 -2035 0
2038 -10665 678 0
-2039 -680 2035 0
-2039 10666 680 0
2039 -680 -2035 0
2039 -10666 680 0
-2040 -683 2035 0
-2040 10667 683 0
2040 -683 -2035 0
2040 -10667 683 0
-2041 -685 2035 0
-2041 10668 685 0
2041 -685 -2035 0
2041 -10668 685 0
-2042 -688 2035 0
-2042 10669 688 0
2042 -688 -2035 0
2042 -10669 688 0
2043 -10670 1833 0
2043 10114 -1833 -2044 0
-2043 -1833 2044 0
-2043 10670 1833 0
-2043 -10114 -1833 0
2044 694 -2045 2046 0
2044 -10668 -2045 2046 0
-2044 -2046 0
-2044 2045 0
-2044 10668 -694 0
-2045 10669 692 0
2045 -10669 0
2045 -692 0
-2046 699 2047 2048 0
-2046 -10666 2047 2048 0
2046 -2048 0
2046 -2047 0
2046 10666 -699 0
2047 10667 -697 0
-2047 -10667 0
-2047 697 0
-2048 704 2049 2050 0
-2048 -10664 2049 2050 0
2048 -2050 0
2048 -2049 0
2048 10664 -704 0
2049 10665 -702 0
-2049 -10665 0
-2049 702 0
-2050 -10663 649 0
-2050 -10662 706 0
-2050 -10662 -10663 0
-2050 649 706 0
2050 10663 -706 0
2050 10662 -649 0
-2051 10671 302 0
-2051 10526 -302 0
2051 -10671 302 0
2051 -10526 -302 0
-2052 10672 304 0
-2052 10526 -304 0
2052 -10672 304 0
2052 -10526 -304 0
-2053 10673 306 0
-2053 10526 -306 0
2053 -10673 306 0
2053 -10526 -306 0
-2054 10674 309 0
-2054 10526 -309 0
2054 -10674 309 0
2054 -10526 -309 0
-2055 10675 311 0
-2055 10526 -311 0
2055 -10675 311 0
2055 -10526 -311 0
-2056 10676 314 0
-2056 10526 -314 0
2056 -10676 314 0
2056 -10526 -314 0
-2057 10677 316 0
-2057 10526 -316 0
2057 -10677 316 0
2057 -10526 -316 0
-2058 10678 319 0
-2058 10526 -319 0
2058 -10678 319 0
2058 -10526 -319 0
2059 -10679 2060 0
2059 -321 2060 0
-2059 -2060 0
-2059 10679 321 0
2060 -324 -2061 0
2060 10678 -324 389 0
-2060 324 0
-2060 -10678 2061 0
-2060 -389 2061 0
-2061 394 2062 2063 0
-2061 -10676 2062 2063 0
2061 -2063 0
2061 -2062 0
2061 10676 -394 0
2062 10677 -393 0
-2062 -10677 0
-2062 393 0
-2063 399 2064 2065 0
-2063 -10674 2064 2065 0
2063 -2065 0
2063 -2064 0
2063 10674 -399 0
2064 10675 -398 0
-2064 -10675 0
-2064 398 0
-2065 -10673 2066 0
-2065 402 2066 0
2065 -2066 0
2065 10673 -402 0
-2066 -10672 286 0
-2066 -10671 404 0
-2066 -10671 -10672 0
-2066 286 404 0
2066 10672 -404 0
2066 10671 -286 0
-2067 10680 671 0
-2067 10679 -671 0
2067 -10680 671 0
2067 -10679 -671 0
-2068 10681 673 0
-2068 10679 -673 0
2068 -10681 673 0
2068 -10679 -673 0
-2069 10682 675 0
-2069 10679 -675 0
2069 -10682 675 0
2069 -10679 -675 0
-2070 10683 678 0
-2070 10679 -678 0
2070 -10683 678 0
2070 -10679 -678 0
-2071 10684 680 0
-2071 10679 -680 0
2071 -10684 680 0
2071 -10679 -680 0
-2072 10685 683 0
-2072 10679 -683 0
2072 -10685 683 0
2072 -10679 -683 0
-2073 10686 685 0
-2073 10679 -685 0
2073 -10686 685 0
2073 -10679 -685 0
-2074 10687 688 0
-2074 10679 -688 0
2074 -10687 688 0
2074 -10679 -688 0
2075 -10688 1869 0
2075 -708 -1869 -2076 0
-2075 -1869 2076 0
-2075 10688 1869 0
-2075 708 -1869 0
2076 694 -2077 2078 0
2076 -10686 -2077 2078 0
-2076 -2078 0
-2076 2077 0
-2076 10686 -694 0
-2077 10687 692 0
2077 -10687 0
2077 -692 0
-2078 699 2079 2080 0
-2078 -10684 2079 2080 0
2078 -2080 0
2078 -2079 0
2078 10684 -699 0
2079 10685 -697 0
-2079 -10685 0
-2079 697 0
-2080 704 2081 2082 0
-2080 -10682 2081 2082 0
2080 -2082 0
2080 -2081 0
2080 10682 -704 0
2081 10683 -702 0
-2081 -10683 0
-2081 702 0
-2082 -10681 649 0
-2082 -10680 706 0
-2082 -10680 -10681 0
-2082 649 706 0
2082 10681 -706 0
2082 10680 -649 0
2083 -10689 1878 0
2083 810 -1878 -2084 0
-2083 -1878 2084 0
-2083 10689 1878 0
-2083 -810 -1878 0
2084 -10688 861 0
2084 -861 -2085 0
-2084 10688 861 0
-2084 -861 2085 0
-2085 10670 0
-2085 931 1884 0
2085 -10670 -931 0
2085 -10670 -1884 0
-2086 -671 2087 0
-2086 10690 671 0
2086 -671 -2087 0
2086 -10690 671 0
2087 -9758 -1815 0
-2087 9758 0
-2087 1815 0
-2088 -673 2087 0
-2088 10691 673 0
2088 -673 -2087 0
2088 -10691 673 0
-2089 -675 2087 0
-2089 10692 675 0
2089 -675 -2087 0
2089 -10692 675 0
-2090 -678 2087 0
-2090 10693 678 0
2090 -678 -2087 0
2090 -10693 678 0
-2091 -680 2087 0
-2091 10694 680 0
2091 -680 -2087 0
2091 -10694 680 0
-2092 -683 2087 0
-2092 10695 683 0
2092 -683 -2087 0
2092 -10695 683 0
-2093 -685 2087 0
-2093 10696 685 0
2093 -685 -2087 0
2093 -10696 685 0
-2094 -688 2087 0
-2094 10697 688 0
2094 -688 -2087 0
2094 -10697 688 0
2095 -10698 1833 0
2095 10114 -1833 -2096 0
-2095 -1833 2096 0
-2095 10698 1833 0
-2095 -10114 -1833 0
2096 694 -2097 2098 0
2096 -10696 -2097 2098 0
-2096 -2098 0
-2096 2097 0
-2096 10696 -694 0
-2097 10697 692 0
2097 -10697 0
2097 -692 0
-2098 699 2099 2100 0
-2098 -10694 2099 2100 0
2098 -2100 0
2098 -2099 0
2098 10694 -699 0
2099 10695 -697 0
-2099 -10695 0
-2099 697 0
-2100 704 2101 2102 0
-2100 -10692 2101 2102 0
2100 -2102 0
2100 -2101 0
2100 10692 -704 0
2101 10693 -702 0
-2101 -10693 0
-2101 702 0
-2102 -10691 649 0
-2102 -10690 706 0
-2102 -10690 -10691 0
-2102 649 706 0
2102 10691 -706 0
2102 10690 -649 0
-2103 10699 302 0
-2103 10527 -302 0
2103 -10699 302 0
2103 -10527 -302 0
-2104 10700 304 0
-2104 10527 -304 0
2104 -10700 304 0
2104 -10527 -304 0
-2105 10701 306 0
-2105 10527 -306 0
2105 -10701 306 0
2105 -10527 -306 0
-2106 10702 309 0
-2106 10527 -309 0
2106 -10702 309 0
2106 -10527 -309 0
-2107 10703 311 0
-2107 10527 -311 0
2107 -10703 311 0
2107 -10527 -311 0
-2108 10704 314 0
-2108 10527 -314 0
2108 -10704 314 0
2108 -10527 -314 0
-2109 10705 316 0
-2109 10527 -316 0
2109 -10705 316 0
2109 -10527 -316 0
-2110 10706 319 0
-2110 10527 -319 0
2110 -10706 319 0
2110 -10527 -319 0
-2111 10707 2112 0
-2111 -321 2112 0
2111 -2112 0
2111 -10707 321 0
2112 -10706 -324 2113 0
2112 -324 -389 2113 0
-2112 -2113 0
-2112 324 0
-2112 10706 389 0
-2113 394 2114 2115 0
-2113 -10704 2114 2115 0
2113 -2115 0
2113 -2114 0
2113 10704 -394 0
2114 10705 -393 0
-2114 -10705 0
-2114 393 0
-2115 399 2116 2117 0
-2115 -10702 2116 2117 0
2115 -2117 0
2115 -2116 0
2115 10702 -399 0
2116 10703 -398 0
-2116 -10703 0
-2116 398 0
-2117 -10701 2118 0
-2117 402 2118 0
2117 -2118 0
2117 10701 -402 0
-2118 -10700 286 0
-2118 -10699 404 0
-2118 -10699 -10700 0
-2118 286 404 0
2118 10700 -404 0
2118 10699 -286 0
-2119 10708 671 0
-2119 10707 -671 0
2119 -10708 671 0
2119 -10707 -671 0
-2120 10709 673 0
-2120 10707 -673 0
2120 -10709 673 0
2120 -10707 -673 0
-2121 10710 675 0
-2121 10707 -675 0
2121 -10710 675 0
2121 -10707 -675 0
-2122 10711 678 0
-2122 10707 -678 0
2122 -10711 678 0
2122 -10707 -678 0
-2123 10712 680 0
-2123 10707 -680 0
2123 -10712 680 0
2123 -10707 -680 0
-2124 10713 683 0
-2124 10707 -683 0
2124 -10713 683 0
2124 -10707 -683 0
-2125 10714 685 0
-2125 10707 -685 0
2125 -10714 685 0
2125 -10707 -685 0
-2126 10715 688 0
-2126 10707 -688 0
2126 -10715 688 0
2126 -10707 -688 0
2127 -10716 1869 0
2127 -708 -1869 -2128 0
-2127 -1869 2128 0
-2127 10716 1869 0
-2127 708 -1869 0
2128 694 -2129 2130 0
2128 -10714 -2129 2130 0
-2128 -2130 0
-2128 2129 0
-2128 10714 -694 0
-2129 10715 692 0
2129 -10715 0
2129 -692 0
-2130 699 2131 2132 0
-2130 -10712 2131 2132 0
2130 -2132 0
2130 -2131 0
2130 10712 -699 0
2131 10713 -697 0
-2131 -10713 0
-2131 697 0
-2132 704 2133 2134 0
-2132 -10710 2133 2134 0
2132 -2134 0
2132 -2133 0
2132 10710 -704 0
2133 10711 -702 0
-2133 -10711 0
-2133 702 0
-2134 -10709 649 0
-2134 -10708 706 0
-2134 -10708 -10709 0
-2134 649 706 0
2134 10709 -706 0
2134 10708 -649 0
2135 -10717 1878 0
2135 810 -1878 -2136 0
-2135 -1878 2136 0
-2135 10717 1878 0
-2135 -810 -1878 0
2136 -10716 861 0
2136 -861 -2137 0
-2136 10716 861 0
-2136 -861 2137 0
-2137 10698 0
-2137 931 1884 0
2137 -10698 -931 0
2137 -10698 -1884 0
-2138 -671 2139 0
-2138 10718 671 0
2138 -671 -2139 0
2138 -10718 671 0
2139 -9759 -1815 0
-2139 9759 0
-2139 1815 0
-2140 -673 2139 0
-2140 10719 673 0
2140 -673 -2139 0
2140 -10719 673 0
-2141 -675 2139 0
-2141 10720 675 0
2141 -675 -2139 0
2141 -10720 675 0
-2142 -678 2139 0
-2142 10721 678 0
2142 -678 -2139 0
2142 -10721 678 0
-2143 -680 2139 0
-2143 10722 680 0
2143 -680 -2139 0
2143 -10722 680 0
-2144 -683 2139 0
-2144 10723 683 0
2144 -683 -2139 0
2144 -10723 683 0
-2145 -685 2139 0
-2145 10724 685 0
2145 -685 -2139 0
2145 -10724 685 0
-2146 -688 2139 0
-2146 10725 688 0
2146 -688 -2139 0
2146 -10725 688 0
2147 -10726 1833 0
2147 10114 -1833 -2148 0
-2147 -1833 2148 0
-2147 10726 1833 0
-2147 -10114 -1833 0
2148 694 -2149 2150 0
2148 -10724 -2149 2150 0
-2148 -2150 0
-2148 2149 0
-2148 10724 -694 0
-2149 10725 692 0
2149 -10725 0
2149 -692 0
-2150 699 2151 2152 0
-2150 -10722 2151 2152 0
2150 -2152 0
2150 -2151 0
2150 10722 -699 0
2151 10723 -697 0
-2151 -10723 0
-2151 697 0
-2152 704 2153 2154 0
-2152 -10720 2153 2154 0
2152 -2154 0
2152 -2153 0
2152 10720 -704 0
2153 10721 -702 0
-2153 -10721 0
-2153 702 0
-2154 -10719 649 0
-2154 -10718 706 0
-2154 -10718 -10719 0
-2154 649 706 0
2154 10719 -706 0
2154 10718 -649 0
-2155 10727 302 0
-2155 10528 -302 0
2155 -10727 302 0
2155 -10528 -302 0
-2156 10728 304 0
-2156 10528 -304 0
2156 -10728 304 0
2156 -10528 -304 0
-2157 10729 306 0
-2157 10528 -306 0
2157 -10729 306 0
2157 -10528 -306 0
-2158 10730 309 0
-2158 10528 -309 0
2158 -10730 309 0
2158 -10528 -309 0
-2159 10731 311 0
-2159 10528 -311 0
2159 -10731 311 0
2159 -10528 -311 0
-2160 10732 314 0
-2160 10528 -314 0
2160 -10732 314 0
2160 -10528 -314 0
-2161 10733 316 0
-2161 10528 -316 0
2161 -10733 316 0
2161 -10528 -316 0
-2162 10734 319 0
-2162 10528 -319 0
2162 -10734 319 0
2162 -10528 -319 0
2163 -10735 2164 0
2163 -321 2164 0
-2163 -2164 0
-2163 10735 321 0
2164 -324 -2165 0
2164 10734 -324 389 0
-2164 324 0
-2164 -10734 2165 0
-2164 -389 2165 0
-2165 394 2166 2167 0
-2165 -10732 2166 2167 0
2165 -2167 0
2165 -2166 0
2165 10732 -394 0
2166 10733 -393 0
-2166 -10733 0
-2166 393 0
-2167 399 2168 2169 0
-2167 -10730 2168 2169 0
2167 -2169 0
2167 -2168 0
2167 10730 -399 0
2168 10731 -398 0
-2168 -10731 0
-2168 398 0
-2169 -10729 2170 0
-2169 402 2170 0
2169 -2170 0
2169 10729 -402 0
-2170 -10728 286 0
-2170 -10727 404 0
-2170 -10727 -10728 0
-2170 286 404 0
2170 10728 -404 0
2170 10727 -286 0
-2171 10736 671 0
-2171 10735 -671 0
2171 -10736 671 0
2171 -10735 -671 0
-2172 10737 673 0
-2172 10735 -673 0
2172 -10737 673 0
2172 -10735 -673 0
-2173 10738 675 0
-2173 10735 -675 0
2173 -10738 675 0
2173 -10735 -675 0
-2174 10739 678 0
-2174 10735 -678 0
2174 -10739 678 0
2174 -10735 -678 0
-2175 10740 680 0
-2175 10735 -680 0
2175 -10740 680 0
2175 -10735 -680 0
-2176 10741 683 0
-2176 10735 -683 0
2176 -10741 683 0
2176 -10735 -683 0
-2177 10742 685 0
-2177 10735 -685 0
2177 -10742 685 0
2177 -10735 -685 0
-2178 10743 688 0
-2178 10735 -688 0
2178 -10743 688 0
2178 -10735 -688 0
2179 -10744 1869 0
2179 -708 -1869 -2180 0
-2179 -1869 2180 0
-2179 10744 1869 0
-2179 708 -1869 0
2180 694 -2181 2182 0
2180 -10742 -2181 2182 0
-2180 -2182 0
-2180 2181 0
-2180 10742 -694 0
-2181 10743 692 0
2181 -10743 0
2181 -692 0
-2182 699 2183 2184 0
-2182 -10740 2183 2184 0
2182 -2184 0
2182 -2183 0
2182 10740 -699 0
2183 10741 -697 0
-2183 -10741 0
-2183 697 0
-2184 704 2185 2186 0
-2184 -10738 2185 2186 0
2184 -2186 0
2184 -2185 0
2184 10738 -704 0
2185 10739 -702 0
-2185 -10739 0
-2185 702 0
-2186 -10737 649 0
-2186 -10736 706 0
-2186 -10736 -10737 0
-2186 649 706 0
2186 10737 -706 0
2186 10736 -649 0
2187 -10745 1878 0
2187 810 -1878 -2188 0
-2187 -1878 2188 0
-2187 10745 1878 0
-2187 -810 -1878 0
2188 -10744 861 0
2188 -861 -2189 0
-2188 10744 861 0
-2188 -861 2189 0
-2189 10726 0
-2189 931 1884 0
2189 -10726 -931 0
2189 -10726 -1884 0
-2190 -671 2191 0
-2190 10746 671 0
2190 -671 -2191 0
2190 -10746 671 0
2191 -9760 -1815 0
-2191 9760 0
-2191 1815 0
-2192 -673 2191 0
-2192 10747 673 0
2192 -673 -2191 0
2192 -10747 673 0
-2193 -675 2191 0
-2193 10748 675 0
2193 -675 -2191 0
2193 -10748 675 0
-2194 -678 2191 0
-2194 10749 678 0
2194 -678 -2191 0
2194 -10749 678 0
-2195 -680 2191 0
-2195 10750 680 0
2195 -680 -2191 0
2195 -10750 680 0
-2196 -683 2191 0
-2196 10751 683 0
2196 -683 -2191 0
2196 -10751 683 0
-2197 -685 2191 0
-2197 10752 685 0
2197 -685 -2191 0
2197 -10752 685 0
-2198 -688 2191 0
-2198 10753 688 0
2198 -688 -2191 0
2198 -10753 688 0
2199 -10754 1833 0
2199 10114 -1833 -2200 0
-2199 -1833 2200 0
-2199 10754 1833 0
-2199 -10114 -1833 0
2200 694 -2201 2202 0
2200 -10752 -2201 2202 0
-2200 -2202 0
-2200 2201 0
-2200 10752 -694 0
-2201 10753 692 0
2201 -10753 0
2201 -692 0
-2202 699 2203 2204 0
-2202 -10750 2203 2204 0
2202 -2204 0
2202 -2203 0
2202 10750 -699 0
2203 10751 -697 0
-2203 -10751 0
-2203 697 0
-2204 704 2205 2206 0
-2204 -10748 2205 2206 0
2204 -2206 0
2204 -2205 0
2204 10748 -704 0
2205 10749 -702 0
-2205 -10749 0
-2205 702 0
-2206 -10747 649 0
-2206 -10746 706 0
-2206 -10746 -10747 0
-2206 649 706 0
2206 10747 -706 0
2206 10746 -649 0
-2207 10755 302 0
-2207 10529 -302 0
2207 -10755 302 0
2207 -10529 -302 0
-2208 10756 304 0
-2208 10529 -304 0
2208 -10756 304 0
2208 -10529 -304 0
-2209 10757 306 0
-2209 10529 -306 0
2209 -10757 306 0
2209 -10529 -306 0
-2210 10758 309 0
-2210 10529 -309 0
2210 -10758 309 0
2210 -10529 -309 0
-2211 10759 311 0
-2211 10529 -311 0
2211 -10759 311 0
2211 -10529 -311 0
-2212 10760 314 0
-2212 10529 -314 0
2212 -10760 314 0
2212 -10529 -314 0
-2213 10761 316 0
-2213 10529 -316 0
2213 -10761 316 0
2213 -10529 -316 0
-2214 10762 319 0
-2214 10529 -319 0
2214 -10762 319 0
2214 -10529 -319 0
-2215 10763 2216 0
-2215 -321 2216 0
2215 -2216 0
2215 -10763 321 0
2216 -10762 -324 2217 0
2216 -324 -389 2217 0
-2216 -2217 0
-2216 324 0
-2216 10762 389 0
-2217 394 2218 2219 0
-2217 -10760 2218 2219 0
2217 -2219 0
2217 -2218 0
2217 10760 -394 0
2218 10761 -393 0
-2218 -10761 0
-2218 393 0
-2219 399 2220 2221 0
-2219 -10758 2220 2221 0
2219 -2221 0
2219 -2220 0
2219 10758 -399 0
2220 10759 -398 0
-2220 -10759 0
-2220 398 0
-2221 -10757 2222 0
-2221 402 2222 0
2221 -2222 0
2221 10757 -402 0
-2222 -10756 286 0
-2222 -10755 404 0
-2222 -10755 -10756 0
-2222 286 404 0
2222 10756 -404 0
2222 10755 -286 0
-2223 10764 671 0
-2223 10763 -671 0
2223 -10764 671 0
2223 -10763 -671 0
-2224 10765 673 0
-2224 10763 -673 0
2224 -10765 673 0
2224 -10763 -673 0
-2225 10766 675 0
-2225 10763 -675 0
2225 -10766 675 0
2225 -10763 -675 0
-2226 10767 678 0
-2226 10763 -678 0
2226 -10767 678 0
2226 -10763 -678 0
-2227 10768 680 0
-2227 10763 -680 0
2227 -10768 680 0
2227 -10763 -680 0
-2228 10769 683 0
-2228 10763 -683 0
2228 -10769 683 0
2228 -10763 -683 0
-2229 10770 685 0
-2229 10763 -685 0
2229 -10770 685 0
2229 -10763 -685 0
-2230 10771 688 0
-2230 10763 -688 0
2230 -10771 688 0
2230 -10763 -688 0
2231 -10772 1869 0
2231 -708 -1869 -2232 0
-2231 -1869 2232 0
-2231 10772 1869 0
-2231 708 -1869 0
2232 694 -2233 2234 0
2232 -10770 -2233 2234 0
-2232 -2234 0
-2232 2233 0
-2232 10770 -694 0
-2233 10771 692 0
2233 -10771 0
2233 -692 0
-2234 699 2235 2236 0
-2234 -10768 2235 2236 0
2234 -2236 0
2234 -2235 0
2234 10768 -699 0
2235 10769 -697 0
-2235 -10769 0
-2235 697 0
-2236 704 2237 2238 0
-2236 -10766 2237 2238 0
2236 -2238 0
2236 -2237 0
2236 10766 -704 0
2237 10767 -702 0
-2237 -10767 0
-2237 702 0
-2238 -10765 649 0
-2238 -10764 706 0
-2238 -10764 -10765 0
-2238 649 706 0
2238 10765 -706 0
2238 10764 -649 0
2239 -10773 1878 0
2239 810 -1878 -2240 0
-2239 -1878 2240 0
-2239 10773 1878 0
-2239 -810 -1878 0
2240 -10772 861 0
2240 -861 -2241 0
-2240 10772 861 0
-2240 -861 2241 0
-2241 10754 0
-2241 931 1884 0
2241 -10754 -931 0
2241 -10754 -1884 0
-2242 -671 2243 0
-2242 10774 671 0
2242 -671 -2243 0
2242 -10774 671 0
2243 -9761 -1815 0
-2243 9761 0
-2243 1815 0
-2244 -673 2243 0
-2244 10775 673 0
2244 -673 -2243 0
2244 -10775 673 0
-2245 -675 2243 0
-2245 10776 675 0
2245 -675 -2243 0
2245 -10776 675 0
-2246 -678 2243 0
-2246 10777 678 0
2246 -678 -2243 0
2246 -10777 678 0
-2247 -680 2243 0
-2247 10778 680 0
2247 -680 -2243 0
2247 -10778 680 0
-2248 -683 2243 0
-2248 10779 683 0
2248 -683 -2243 0
2248 -10779 683 0
-2249 -685 2243 0
-2249 10780 685 0
2249 -685 -2243 0
2249 -10780 685 0
-2250 -688 2243 0
-2250 10781 688 0
2250 -688 -2243 0
2250 -10781 688 0
2251 -10782 1833 0
2251 10114 -1833 -2252 0
-2251 -1833 2252 0
-2251 10782 1833 0
-2251 -10114 -1833 0
2252 694 -2253 2254 0
2252 -10780 -2253 2254 0
-2252 -2254 0
-2252 2253 0
-2252 10780 -694 0
-2253 10781 692 0
2253 -10781 0
2253 -692 0
-2254 699 2255 2256 0
-2254 -10778 2255 2256 0
2254 -2256 0
2254 -2255 0
2254 10778 -699 0
2255 10779 -697 0
-2255 -10779 0
-2255 697 0
-2256 704 2257 2258 0
-2256 -10776 2257 2258 0
2256 -2258 0
2256 -2257 0
2256 10776 -704 0
2257 10777 -702 0
-2257 -10777 0
-2257 702 0
-2258 -10775 649 0
-2258 -10774 706 0
-2258 -10774 -10775 0
-2258 649 706 0
2258 10775 -706 0
2258 10774 -649 0
2259 -10783 1869 0
2259 -708 -883 -1869 0
-2259 708 -1869 0
-2259 10783 1869 0
-2259 883 -1869 0
2260 -10784 1878 0
2260 -1878 -2261 0
2260 -1878 -1885 0
-2260 10784 1878 0
-2260 -1878 1885 2261 0
2261 -10783 810 861 0
2261 810 -861 -2262 0
-2261 -810 0
-2261 -861 2262 0
-2261 10783 861 0
-2262 10782 0
-2262 931 1884 0
2262 -10782 -931 0
2262 -10782 -1884 0
-2263 -671 2264 0
-2263 10785 671 0
2263 -671 -2264 0
2263 -10785 671 0
2264 -9762 -1815 0
-2264 9762 0
-2264 1815 0
-2265 -673 2264 0
-2265 10786 673 0
2265 -673 -2264 0
2265 -10786 673 0
-2266 -675 2264 0
-2266 10787 675 0
2266 -675 -2264 0
2266 -10787 675 0
-2267 -678 2264 0
-2267 10788 678 0
2267 -678 -2264 0
2267 -10788 678 0
-2268 -680 2264 0
-2268 10789 680 0
2268 -680 -2264 0
2268 -10789 680 0
-2269 -683 2264 0
-2269 10790 683 0
2269 -683 -2264 0
2269 -10790 683 0
-2270 -685 2264 0
-2270 10791 685 0
2270 -685 -2264 0
2270 -10791 685 0
-2271 -688 2264 0
-2271 10792 688 0
2271 -688 -2264 0
2271 -10792 688 0
2272 -10793 1833 0
2272 10114 -1833 -2273 0
-2272 -1833 2273 0
-2272 10793 1833 0
-2272 -10114 -1833 0
2273 694 -2274 2275 0
2273 -10791 -2274 2275 0
-2273 -2275 0
-2273 2274 0
-2273 10791 -694 0
-2274 10792 692 0
2274 -10792 0
2274 -692 0
-2275 699 2276 2277 0
-2275 -10789 2276 2277 0
2275 -2277 0
2275 -2276 0
2275 10789 -699 0
2276 10790 -697 0
-2276 -10790 0
-2276 697 0
-2277 704 2278 2279 0
-2277 -10787 2278 2279 0
2277 -2279 0
2277 -2278 0
2277 10787 -704 0
2278 10788 -702 0
-2278 -10788 0
-2278 702 0
-2279 -10786 649 0
-2279 -10785 706 0
-2279 -10785 -10786 0
-2279 649 706 0
2279 10786 -706 0
2279 10785 -649 0
2280 -10794 1869 0
2280 -690 -708 -1869 0
-2280 690 -1869 0
-2280 10794 1869 0
-2280 708 -1869 0
2281 -10795 1878 0
2281 810 -1878 -2282 0
-2281 -1878 2282 0
-2281 10795 1878 0
-2281 -810 -1878 0
2282 -10794 861 0
2282 -861 -2283 0
-2282 10794 861 0
-2282 -861 2283 0
-2283 10793 0
-2283 931 1884 0
2283 -10793 -931 0
2283 -10793 -1884 0
-2284 -671 2285 0
-2284 10796 671 0
2284 -671 -2285 0
2284 -10796 671 0
2285 -9763 -1815 0
-2285 9763 0
-2285 1815 0
-2286 -673 2285 0
-2286 10797 673 0
2286 -673 -2285 0
2286 -10797 673 0
-2287 -675 2285 0
-2287 10798 675 0
2287 -675 -2285 0
2287 -10798 675 0
-2288 -678 2285 0
-2288 10799 678 0
2288 -678 -2285 0
2288 -10799 678 0
-2289 -680 2285 0
-2289 10800 680 0
2289 -680 -2285 0
2289 -10800 680 0
-2290 -683 2285 0
-2290 10801 683 0
2290 -683 -2285 0
2290 -10801 683 0
-2291 -685 2285 0
-2291 10802 685 0
2291 -685 -2285 0
2291 -10802 685 0
-2292 -688 2285 0
-2292 10803 688 0
2292 -688 -2285 0
2292 -10803 688 0
2293 -10804 1833 0
2293 10114 -1833 -2294 0
-2293 -1833 2294 0
-2293 10804 1833 0
-2293 -10114 -1833 0
2294 694 -2295 2296 0
2294 -10802 -2295 2296 0
-2294 -2296 0
-2294 2295 0
-2294 10802 -694 0
-2295 10803 692 0
2295 -10803 0
2295 -692 0
-2296 699 2297 2298 0
-2296 -10800 2297 2298 0
2296 -2298 0
2296 -2297 0
2296 10800 -699 0
2297 10801 -697 0
-2297 -10801 0
-2297 697 0
-2298 704 2299 2300 0
-2298 -10798 2299 2300 0
2298 -2300 0
2298 -2299 0
2298 10798 -704 0
2299 10799 -702 0
-2299 -10799 0
-2299 702 0
-2300 -10797 649 0
-2300 -10796 706 0
-2300 -10796 -10797 0
-2300 649 706 0
2300 10797 -706 0
2300 10796 -649 0
2301 -10805 1869 0
2301 -708 -718 -1869 0
-2301 708 -1869 0
-2301 10805 1869 0
-2301 718 -1869 0
2302 -10806 1878 0
2302 810 -1878 -2303 0
-2302 -1878 2303 0
-2302 10806 1878 0
-2302 -810 -1878 0
2303 -10805 861 0
2303 -861 -2304 0
-2303 10805 861 0
-2303 -861 2304 0
-2304 10804 0
-2304 931 1884 0
2304 -10804 -931 0
2304 -10804 -1884 0
-2305 -671 2306 0
-2305 10807 671 0
2305 -671 -2306 0
2305 -10807 671 0
2306 -9764 -1815 0
-2306 9764 0
-2306 1815 0
-2307 -673 2306 0
-2307 10808 673 0
2307 -673 -2306 0
2307 -10808 673 0
-2308 -675 2306 0
-2308 10809 675 0
2308 -675 -2306 0
2308 -10809 675 0
-2309 -678 2306 0
-2309 10810 678 0
2309 -678 -2306 0
2309 -10810 678 0
-2310 -680 2306 0
-2310 10811 680 0
2310 -680 -2306 0
2310 -10811 680 0
-2311 -683 2306 0
-2311 10812 683 0
2311 -683 -2306 0
2311 -10812 683 0
-2312 -685 2306 0
-2312 10813 685 0
2312 -685 -2306 0
2312 -10813 685 0
-2313 -688 2306 0
-2313 10814 688 0
2313 -688 -2306 0
2313 -10814 688 0
2314 -10815 1833 0
2314 10114 -1833 -2315 0
-2314 -1833 2315 0
-2314 10815 1833 0
-2314 -10114 -1833 0
2315 694 -2316 2317 0
2315 -10813 -2316 2317 0
-2315 -2317 0
-2315 2316 0
-2315 10813 -694 0
-2316 10814 692 0
2316 -10814 0
2316 -692 0
-2317 699 2318 2319 0
-2317 -10811 2318 2319 0
2317 -2319 0
2317 -2318 0
2317 10811 -699 0
2318 10812 -697 0
-2318 -10812 0
-2318 697 0
-2319 704 2320 2321 0
-2319 -10809 2320 2321 0
2319 -2321 0
2319 -2320 0
2319 10809 -704 0
2320 10810 -702 0
-2320 -10810 0
-2320 702 0
-2321 -10808 649 0
-2321 -10807 706 0
-2321 -10807 -10808 0
-2321 649 706 0
2321 10808 -706 0
2321 10807 -649 0
2322 -10816 1869 0
2322 -708 -734 -1869 0
-2322 708 -1869 0
-2322 10816 1869 0
-2322 734 -1869 0
2323 -10817 1878 0
2323 810 -1878 -2324 0
-2323 -1878 2324 0
-2323 10817 1878 0
-2323 -810 -1878 0
2324 -10816 861 0
2324 -861 -2325 0
-2324 10816 861 0
-2324 -861 2325 0
-2325 10815 0
-2325 931 1884 0
2325 -10815 -931 0
2325 -10815 -1884 0
-2326 -671 2327 0
-2326 10818 671 0
2326 -671 -2327 0
2326 -10818 671 0
2327 -9765 -1815 0
-2327 9765 0
-2327 1815 0
-2328 -673 2327 0
-2328 10819 673 0
2328 -673 -2327 0
2328 -10819 673 0
-2329 -675 2327 0
-2329 10820 675 0
2329 -675 -2327 0
2329 -10820 675 0
-2330 -678 2327 0
-2330 10821 678 0
2330 -678 -2327 0
2330 -10821 678 0
-2331 -680 2327 0
-2331 10822 680 0
2331 -680 -2327 0
2331 -10822 680 0
-2332 -683 2327 0
-2332 10823 683 0
2332 -683 -2327 0
2332 -10823 683 0
-2333 -685 2327 0
-2333 10824 685 0
2333 -685 -2327 0
2333 -10824 685 0
-2334 -688 2327 0
-2334 10825 688 0
2334 -688 -2327 0
2334 -10825 688 0
2335 -10826 1833 0
2335 10114 -1833 -2336 0
-2335 -1833 2336 0
-2335 10826 1833 0
-2335 -10114 -1833 0
2336 694 -2337 2338 0
2336 -10824 -2337 2338 0
-2336 -2338 0
-2336 2337 0
-2336 10824 -694 0
-2337 10825 692 0
2337 -10825 0
2337 -692 0
-2338 699 2339 2340 0
-2338 -10822 2339 2340 0
2338 -2340 0
2338 -2339 0
2338 10822 -699 0
2339 10823 -697 0
-2339 -10823 0
-2339 697 0
-2340 704 2341 2342 0
-2340 -10820 2341 2342 0
2340 -2342 0
2340 -2341 0
2340 10820 -704 0
2341 10821 -702 0
-2341 -10821 0
-2341 702 0
-2342 -10819 649 0
-2342 -10818 706 0
-2342 -10818 -10819 0
-2342 649 706 0
2342 10819 -706 0
2342 10818 -649 0
2343 -10827 1869 0
2343 -708 -750 -1869 0
-2343 708 -1869 0
-2343 10827 1869 0
-2343 750 -1869 0
2344 -10828 1878 0
2344 810 -1878 -2345 0
-2344 -1878 2345 0
-2344 10828 1878 0
-2344 -810 -1878 0
2345 -10827 861 0
2345 -861 -2346 0
-2345 10827 861 0
-2345 -861 2346 0
-2346 10826 0
-2346 931 1884 0
2346 -10826 -931 0
2346 -10826 -1884 0
-2347 -671 2348 0
-2347 10829 671 0
2347 -671 -2348 0
2347 -10829 671 0
2348 -9766 -1815 0
-2348 9766 0
-2348 1815 0
-2349 -673 2348 0
-2349 10830 673 0
2349 -673 -2348 0
2349 -10830 673 0
-2350 -675 2348 0
-2350 10831 675 0
2350 -675 -2348 0
2350 -10831 675 0
-2351 -678 2348 0
-2351 10832 678 0
2351 -678 -2348 0
2351 -10832 678 0
-2352 -680 2348 0
-2352 10833 680 0
2352 -680 -2348 0
2352 -10833 680 0
-2353 -683 2348 0
-2353 10834 683 0
2353 -683 -2348 0
2353 -10834 683 0
-2354 -685 2348 0
-2354 10835 685 0
2354 -685 -2348 0
2354 -10835 685 0
-2355 -688 2348 0
-2355 10836 688 0
2355 -688 -2348 0
2355 -10836 688 0
2356 -10837 1833 0
2356 10114 -1833 -2357 0
-2356 -1833 2357 0
-2356 10837 1833 0
-2356 -10114 -1833 0
2357 694 -2358 2359 0
2357 -10835 -2358 2359 0
-2357 -2359 0
-2357 2358 0
-2357 10835 -694 0
-2358 10836 692 0
2358 -10836 0
2358 -692 0
-2359 699 2360 2361 0
-2359 -10833 2360 2361 0
2359 -2361 0
2359 -2360 0
2359 10833 -699 0
2360 10834 -697 0
-2360 -10834 0
-2360 697 0
-2361 704 2362 2363 0
-2361 -10831 2362 2363 0
2361 -2363 0
2361 -2362 0
2361 10831 -704 0
2362 10832 -702 0
-2362 -10832 0
-2362 702 0
-2363 -10830 649 0
-2363 -10829 706 0
-2363 -10829 -10830 0
-2363 649 706 0
2363 10830 -706 0
2363 10829 -649 0
2364 -10838 1869 0
2364 -708 -766 -1869 0
-2364 708 -1869 0
-2364 10838 1869 0
-2364 766 -1869 0
2365 -10839 1878 0
2365 810 -1878 -2366 0
-2365 -1878 2366 0
-2365 10839 1878 0
-2365 -810 -1878 0
2366 -10838 861 0
2366 -861 -2367 0
-2366 10838 861 0
-2366 -861 2367 0
-2367 10837 0
-2367 931 1884 0
2367 -10837 -931 0
2367 -10837 -1884 0
-2368 -671 2369 0
-2368 10840 671 0
2368 -671 -2369 0
2368 -10840 671 0
2369 -9767 -1815 0
-2369 9767 0
-2369 1815 0
-2370 -673 2369 0
-2370 10841 673 0
2370 -673 -2369 0
2370 -10841 673 0
-2371 -675 2369 0
-2371 10842 675 0
2371 -675 -2369 0
2371 -10842 675 0
-2372 -678 2369 0
-2372 10843 678 0
2372 -678 -2369 0
2372 -10843 678 0
-2373 -680 2369 0
-2373 10844 680 0
2373 -680 -2369 0
2373 -10844 680 0
-2374 -683 2369 0
-2374 10845 683 0
2374 -683 -2369 0
2374 -10845 683 0
-2375 -685 2369 0
-2375 10846 685 0
2375 -685 -2369 0
2375 -10846 685 0
-2376 -688 2369 0
-2376 10847 688 0
2376 -688 -2369 0
2376 -10847 688 0
2377 -10848 1833 0
2377 10114 -1833 -2378 0
-2377 -1833 2378 0
-2377 10848 1833 0
-2377 -10114 -1833 0
2378 694 -2379 2380 0
2378 -10846 -2379 2380 0
-2378 -2380 0
-2378 2379 0
-2378 10846 -694 0
-2379 10847 692 0
2379 -10847 0
2379 -692 0
-2380 699 2381 2382 0
-2380 -10844 2381 2382 0
2380 -2382 0
2380 -2381 0
2380 10844 -699 0
2381 10845 -697 0
-2381 -10845 0
-2381 697 0
-2382 704 2383 2384 0
-2382 -10842 2383 2384 0
2382 -2384 0
2382 -2383 0
2382 10842 -704 0
2383 10843 -702 0
-2383 -10843 0
-2383 702 0
-2384 -10841 649 0
-2384 -10840 706 0
-2384 -10840 -10841 0
-2384 649 706 0
2384 10841 -706 0
2384 10840 -649 0
2385 -10849 1869 0
2385 -708 -798 -1869 0
-2385 708 -1869 0
-2385 10849 1869 0
-2385 798 -1869 0
2386 -10850 1878 0
2386 810 -1878 -2387 0
-2386 -1878 2387 0
-2386 10850 1878 0
-2386 -810 -1878 0
2387 -10849 861 0
2387 -861 -2388 0
-2387 10849 861 0
-2387 -861 2388 0
-2388 10848 0
-2388 931 1884 0
2388 -10848 -931 0
2388 -10848 -1884 0
-2389 -671 2390 0
-2389 10851 671 0
2389 -671 -2390 0
2389 -10851 671 0
2390 -9768 -1815 0
-2390 9768 0
-2390 1815 0
-2391 -673 2390 0
-2391 10852 673 0
2391 -673 -2390 0
2391 -10852 673 0
-2392 -675 2390 0
-2392 10853 675 0
2392 -675 -2390 0
2392 -10853 675 0
-2393 -678 2390 0
-2393 10854 678 0
2393 -678 -2390 0
2393 -10854 678 0
-2394 -680 2390 0
-2394 10855 680 0
2394 -680 -2390 0
2394 -10855 680 0
-2395 -683 2390 0
-2395 10856 683 0
2395 -683 -2390 0
2395 -10856 683 0
-2396 -685 2390 0
-2396 10857 685 0
2396 -685 -2390 0
2396 -10857 685 0
-2397 -688 2390 0
-2397 10858 688 0
2397 -688 -2390 0
2397 -10858 688 0
2398 -10859 1833 0
2398 10114 -1833 -2399 0
-2398 -1833 2399 0
-2398 10859 1833 0
-2398 -10114 -1833 0
2399 694 -2400 2401 0
2399 -10857 -2400 2401 0
-2399 -2401 0
-2399 2400 0
-2399 10857 -694 0
-2400 10858 692 0
2400 -10858 0
2400 -692 0
-2401 699 2402 2403 0
-2401 -10855 2402 2403 0
2401 -2403 0
2401 -2402 0
2401 10855 -699 0
2402 10856 -697 0
-2402 -10856 0
-2402 697 0
-2403 704 2404 2405 0
-2403 -10853 2404 2405 0
2403 -2405 0
2403 -2404 0
2403 10853 -704 0
2404 10854 -702 0
-2404 -10854 0
-2404 702 0
-2405 -10852 649 0
-2405 -10851 706 0
-2405 -10851 -10852 0
-2405 649 706 0
2405 10852 -706 0
2405 10851 -649 0
2406 -10860 1869 0
2406 -708 -782 -1869 0
-2406 708 -1869 0
-2406 10860 1869 0
-2406 782 -1869 0
2407 -10861 1878 0
2407 810 -1878 -2408 0
-2407 -1878 2408 0
-2407 10861 1878 0
-2407 -810 -1878 0
2408 -10860 861 0
2408 -861 -2409 0
-2408 10860 861 0
-2408 -861 2409 0
-2409 10859 0
-2409 931 1884 0
2409 -10859 -931 0
2409 -10859 -1884 0
-2410 -671 2411 0
-2410 10862 671 0
2410 -671 -2411 0
2410 -10862 671 0
2411 -9769 -1815 0
-2411 9769 0
-2411 1815 0
-2412 -673 2411 0
-2412 10863 673 0
2412 -673 -2411 0
2412 -10863 673 0
-2413 -675 2411 0
-2413 10864 675 0
2413 -675 -2411 0
2413 -10864 675 0
-2414 -678 2411 0
-2414 10865 678 0
2414 -678 -2411 0
2414 -10865 678 0
-2415 -680 2411 0
-2415 10866 680 0
2415 -680 -2411 0
2415 -10866 680 0
-2416 -683 2411 0
-2416 10867 683 0
2416 -683 -2411 0
2416 -10867 683 0
-2417 -685 2411 0
-2417 10868 685 0
2417 -685 -2411 0
2417 -10868 685 0
-2418 -688 2411 0
-2418 10869 688 0
2418 -688 -2411 0
2418 -10869 688 0
2419 -10870 1833 0
2419 10114 -1833 -2420 0
-2419 -1833 2420 0
-2419 10870 1833 0
-2419 -10114 -1833 0
2420 694 -2421 2422 0
2420 -10868 -2421 2422 0
-2420 -2422 0
-2420 2421 0
-2420 10868 -694 0
-2421 10869 692 0
2421 -10869 0
2421 -692 0
-2422 699 2423 2424 0
-2422 -10866 2423 2424 0
2422 -2424 0
2422 -2423 0
2422 10866 -699 0
2423 10867 -697 0
-2423 -10867 0
-2423 697 0
-2424 704 2425 2426 0
-2424 -10864 2425 2426 0
2424 -2426 0
2424 -2425 0
2424 10864 -704 0
2425 10865 -702 0
-2425 -10865 0
-2425 702 0
-2426 -10863 649 0
-2426 -10862 706 0
-2426 -10862 -10863 0
-2426 649 706 0
2426 10863 -706 0
2426 10862 -649 0
2427 -10871 1878 0
2427 -1878 -2428 0
2427 -1878 -1885 0
-2427 10871 1878 0
-2427 -1878 1885 2428 0
2428 810 -861 -2429 0
-2428 -810 0
-2428 2429 0
-2428 861 0
-2429 10870 0
-2429 931 1884 0
2429 -10870 -931 0
2429 -10870 -1884 0
-2430 -671 2431 0
-2430 10872 671 0
2430 -671 -2431 0
2430 -10872 671 0
2431 -9770 -1815 0
-2431 9770 0
-2431 1815 0
-2432 -673 2431 0
-2432 10873 673 0
2432 -673 -2431 0
2432 -10873 673 0
-2433 -675 2431 0
-2433 10874 675 0
2433 -675 -2431 0
2433 -10874 675 0
-2434 -678 2431 0
-2434 10875 678 0
2434 -678 -2431 0
2434 -10875 678 0
-2435 -680 2431 0
-2435 10876 680 0
2435 -680 -2431 0
2435 -10876 680 0
-2436 -683 2431 0
-2436 10877 683 0
2436 -683 -2431 0
2436 -10877 683 0
-2437 -685 2431 0
-2437 10878 685 0
2437 -685 -2431 0
2437 -10878 685 0
-2438 -688 2431 0
-2438 10879 688 0
2438 -688 -2431 0
2438 -10879 688 0
2439 -10880 1833 0
2439 10114 -1833 -2440 0
-2439 -1833 2440 0
-2439 10880 1833 0
-2439 -10114 -1833 0
2440 694 -2441 2442 0
2440 -10878 -2441 2442 0
-2440 -2442 0
-2440 2441 0
-2440 10878 -694 0
-2441 10879 692 0
2441 -10879 0
2441 -692 0
-2442 699 2443 2444 0
-2442 -10876 2443 2444 0
2442 -2444 0
2442 -2443 0
2442 10876 -699 0
2443 10877 -697 0
-2443 -10877 0
-2443 697 0
-2444 704 2445 2446 0
-2444 -10874 2445 2446 0
2444 -2446 0
2444 -2445 0
2444 10874 -704 0
2445 10875 -702 0
-2445 -10875 0
-2445 702 0
-2446 -10873 649 0
-2446 -10872 706 0
-2446 -10872 -10873 0
-2446 649 706 0
2446 10873 -706 0
2446 10872 -649 0
2447 -10881 1878 0
2447 810 -1878 -2448 0
-2447 -1878 2448 0
-2447 10881 1878 0
-2447 -810 -1878 0
2448 -10880 -861 -931 0
2448 -10880 -861 -1884 0
-2448 10880 0
-2448 861 0
-2448 931 1884 0
-2449 -671 2450 0
-2449 10882 671 0
2449 -671 -2450 0
2449 -10882 671 0
2450 -9771 -1815 0
-2450 9771 0
-2450 1815 0
-2451 -673 2450 0
-2451 10883 673 0
2451 -673 -2450 0
2451 -10883 673 0
-2452 -675 2450 0
-2452 10884 675 0
2452 -675 -2450 0
2452 -10884 675 0
-2453 -678 2450 0
-2453 10885 678 0
2453 -678 -2450 0
2453 -10885 678 0
-2454 -680 2450 0
-2454 10886 680 0
2454 -680 -2450 0
2454 -10886 680 0
-2455 -683 2450 0
-2455 10887 683 0
2455 -683 -2450 0
2455 -10887 683 0
-2456 -685 2450 0
-2456 10888 685 0
2456 -685 -2450 0
2456 -10888 685 0
-2457 -688 2450 0
-2457 10889 688 0
2457 -688 -2450 0
2457 -10889 688 0
2458 -10890 1833 0
2458 10114 -1833 -2459 0
-2458 -1833 2459 0
-2458 10890 1833 0
-2458 -10114 -1833 0
2459 694 -2460 2461 0
2459 -10888 -2460 2461 0
-2459 -2461 0
-2459 2460 0
-2459 10888 -694 0
-2460 10889 692 0
2460 -10889 0
2460 -692 0
-2461 699 2462 2463 0
-2461 -10886 2462 2463 0
2461 -2463 0
2461 -2462 0
2461 10886 -699 0
2462 10887 -697 0
-2462 -10887 0
-2462 697 0
-2463 704 2464 2465 0
-2463 -10884 2464 2465 0
2463 -2465 0
2463 -2464 0
2463 10884 -704 0
2464 10885 -702 0
-2464 -10885 0
-2464 702 0
-2465 -10883 649 0
-2465 -10882 706 0
-2465 -10882 -10883 0
-2465 649 706 0
2465 10883 -706 0
2465 10882 -649 0
2466 -10891 1878 0
2466 810 -1878 -2467 0
-2466 -1878 2467 0
-2466 10891 1878 0
-2466 -810 -1878 0
2467 -10890 -861 -931 0
2467 -10890 -861 -1884 0
-2467 10890 0
-2467 861 0
-2467 931 1884 0
-2468 -671 2469 0
-2468 10892 671 0
2468 -671 -2469 0
2468 -10892 671 0
2469 -9772 -1815 0
-2469 9772 0
-2469 1815 0
-2470 -673 2469 0
-2470 10893 673 0
2470 -673 -2469 0
2470 -10893 673 0
-2471 -675 2469 0
-2471 10894 675 0
2471 -675 -2469 0
2471 -10894 675 0
-2472 -678 2469 0
-2472 10895 678 0
2472 -678 -2469 0
2472 -10895 678 0
-2473 -680 2469 0
-2473 10896 680 0
2473 -680 -2469 0
2473 -10896 680 0
-2474 -683 2469 0
-2474 10897 683 0
2474 -683 -2469 0
2474 -10897 683 0
-2475 -685 2469 0
-2475 10898 685 0
2475 -685 -2469 0
2475 -10898 685 0
-2476 -688 2469 0
-2476 10899 688 0
2476 -688 -2469 0
2476 -10899 688 0
2477 -10900 1833 0
2477 10114 -1833 -2478 0
-2477 -1833 2478 0
-2477 10900 1833 0
-2477 -10114 -1833 0
2478 694 -2479 2480 0
2478 -10898 -2479 2480 0
-2478 -2480 0
-2478 2479 0
-2478 10898 -694 0
-2479 10899 692 0
2479 -10899 0
2479 -692 0
-2480 699 2481 2482 0
-2480 -10896 2481 2482 0
2480 -2482 0
2480 -2481 0
2480 10896 -699 0
2481 10897 -697 0
-2481 -10897 0
-2481 697 0
-2482 704 2483 2484 0
-2482 -10894 2483 2484 0
2482 -2484 0
2482 -2483 0
2482 10894 -704 0
2483 10895 -702 0
-2483 -10895 0
-2483 702 0
-2484 -10893 649 0
-2484 -10892 706 0
-2484 -10892 -10893 0
-2484 649 706 0
2484 10893 -706 0
2484 10892 -649 0
2485 -10901 1878 0
2485 810 -1878 -2486 0
-2485 -1878 2486 0
-2485 10901 1878 0
-2485 -810 -1878 0
2486 -10900 -861 -931 0
2486 -10900 -861 -1884 0
-2486 10900 0
-2486 861 0
-2486 931 1884 0
-2487 -671 2488 0
-2487 10902 671 0
2487 -671 -2488 0
2487 -10902 671 0
2488 -9773 -1815 0
-2488 9773 0
-2488 1815 0
-2489 -673 2488 0
-2489 10903 673 0
2489 -673 -2488 0
2489 -10903 673 0
-2490 -675 2488 0
-2490 10904 675 0
2490 -675 -2488 0
2490 -10904 675 0
-2491 -678 2488 0
-2491 10905 678 0
2491 -678 -2488 0
2491 -10905 678 0
-2492 -680 2488 0
-2492 10906 680 0
2492 -680 -2488 0
2492 -10906 680 0
-2493 -683 2488 0
-2493 10907 683 0
2493 -683 -2488 0
2493 -10907 683 0
-2494 -685 2488 0
-2494 10908 685 0
2494 -685 -2488 0
2494 -10908 685 0
-2495 -688 2488 0
-2495 10909 688 0
2495 -688 -2488 0
2495 -10909 688 0
2496 -10910 1833 0
2496 10114 -1833 -2497 0
-2496 -1833 2497 0
-2496 10910 1833 0
-2496 -10114 -1833 0
2497 694 -2498 2499 0
2497 -10908 -2498 2499 0
-2497 -2499 0
-2497 2498 0
-2497 10908 -694 0
-2498 10909 692 0
2498 -10909 0
2498 -692 0
-2499 699 2500 2501 0
-2499 -10906 2500 2501 0
2499 -2501 0
2499 -2500 0
2499 10906 -699 0
2500 10907 -697 0
-2500 -10907 0
-2500 697 0
-2501 704 2502 2503 0
-2501 -10904 2502 2503 0
2501 -2503 0
2501 -2502 0
2501 10904 -704 0
2502 10905 -702 0
-2502 -10905 0
-2502 702 0
-2503 -10903 649 0
-2503 -10902 706 0
-2503 -10902 -10903 0
-2503 649 706 0
2503 10903 -706 0
2503 10902 -649 0
2504 -10911 1878 0
2504 810 -1878 -2505 0
-2504 -1878 2505 0
-2504 10911 1878 0
-2504 -810 -1878 0
2505 -10910 -861 -931 0
2505 -10910 -861 -1884 0
-2505 10910 0
-2505 861 0
-2505 931 1884 0
-2506 -671 2507 0
-2506 10912 671 0
2506 -671 -2507 0
2506 -10912 671 0
2507 -9774 -1815 0
-2507 9774 0
-2507 1815 0
-2508 -673 2507 0
-2508 10913 673 0
2508 -673 -2507 0
2508 -10913 673 0
-2509 -675 2507 0
-2509 10914 675 0
2509 -675 -2507 0
2509 -10914 675 0
-2510 -678 2507 0
-2510 10915 678 0
2510 -678 -2507 0
2510 -10915 678 0
-2511 -680 2507 0
-2511 10916 680 0
2511 -680 -2507 0
2511 -10916 680 0
-2512 -683 2507 0
-2512 10917 683 0
2512 -683 -2507 0
2512 -10917 683 0
-2513 -685 2507 0
-2513 10918 685 0
2513 -685 -2507 0
2513 -10918 685 0
-2514 -688 2507 0
-2514 10919 688 0
2514 -688 -2507 0
2514 -10919 688 0
2515 -10920 1833 0
2515 10114 -1833 -2516 0
-2515 -1833 2516 0
-2515 10920 1833 0
-2515 -10114 -1833 0
2516 694 -2517 2518 0
2516 -10918 -2517 2518 0
-2516 -2518 0
-2516 2517 0
-2516 10918 -694 0
-2517 10919 692 0
2517 -10919 0
2517 -692 0
-2518 699 2519 2520 0
-2518 -10916 2519 2520 0
2518 -2520 0
2518 -2519 0
2518 10916 -699 0
2519 10917 -697 0
-2519 -10917 0
-2519 697 0
-2520 704 2521 2522 0
-2520 -10914 2521 2522 0
2520 -2522 0
2520 -2521 0
2520 10914 -704 0
2521 10915 -702 0
-2521 -10915 0
-2521 702 0
-2522 -10913 649 0
-2522 -10912 706 0
-2522 -10912 -10913 0
-2522 649 706 0
2522 10913 -706 0
2522 10912 -649 0
2523 -10921 1878 0
2523 810 -1878 -2524 0
-2523 -1878 2524 0
-2523 10921 1878 0
-2523 -810 -1878 0
2524 -10920 -861 -931 0
2524 -10920 -861 -1884 0
-2524 10920 0
-2524 861 0
-2524 931 1884 0
-2525 -671 2526 0
-2525 10922 671 0
2525 -671 -2526 0
2525 -10922 671 0
2526 -9775 -1815 0
-2526 9775 0
-2526 1815 0
-2527 -673 2526 0
-2527 10923 673 0
2527 -673 -2526 0
2527 -10923 673 0
-2528 -675 2526 0
-2528 10924 675 0
2528 -675 -2526 0
2528 -10924 675 0
-2529 -678 2526 0
-2529 10925 678 0
2529 -678 -2526 0
2529 -10925 678 0
-2530 -680 2526 0
-2530 10926 680 0
2530 -680 -2526 0
2530 -10926 680 0
-2531 -683 2526 0
-2531 10927 683 0
2531 -683 -2526 0
2531 -10927 683 0
-2532 -685 2526 0
-2532 10928 685 0
2532 -685 -2526 0
2532 -10928 685 0
-2533 -688 2526 0
-2533 10929 688 0
2533 -688 -2526 0
2533 -10929 688 0
2534 -10930 1833 0
2534 10114 -1833 -2535 0
-2534 -1833 2535 0
-2534 10930 1833 0
-2534 -10114 -1833 0
2535 694 -2536 2537 0
2535 -10928 -2536 2537 0
-2535 -2537 0
-2535 2536 0
-2535 10928 -694 0
-2536 10929 692 0
2536 -10929 0
2536 -692 0
-2537 699 2538 2539 0
-2537 -10926 2538 2539 0
2537 -2539 0
2537 -2538 0
2537 10926 -699 0
2538 10927 -697 0
-2538 -10927 0
-2538 697 0
-2539 704 2540 2541 0
-2539 -10924 2540 2541 0
2539 -2541 0
2539 -2540 0
2539 10924 -704 0
2540 10925 -702 0
-2540 -10925 0
-2540 702 0
-2541 -10923 649 0
-2541 -10922 706 0
-2541 -10922 -10923 0
-2541 649 706 0
2541 10923 -706 0
2541 10922 -649 0
2542 -10931 1878 0
2542 810 -1878 -2543 0
-2542 -1878 2543 0
-2542 10931 1878 0
-2542 -810 -1878 0
2543 -10930 -861 -931 0
2543 -10930 -861 -1884 0
-2543 10930 0
-2543 861 0
-2543 931 1884 0
-2544 -671 2545 0
-2544 10932 671 0
2544 -671 -2545 0
2544 -10932 671 0
2545 -9776 -1815 0
-2545 9776 0
-2545 1815 0
-2546 -673 2545 0
-2546 10933 673 0
2546 -673 -2545 0
2546 -10933 673 0
-2547 -675 2545 0
-2547 10934 675 0
2547 -675 -2545 0
2547 -10934 675 0
-2548 -678 2545 0
-2548 10935 678 0
2548 -678 -2545 0
2548 -10935 678 0
-2549 -680 2545 0
-2549 10936 680 0
2549 -680 -2545 0
2549 -10936 680 0
-2550 -683 2545 0
-2550 10937 683 0
2550 -683 -2545 0
2550 -10937 683 0
-2551 -685 2545 0
-2551 10938 685 0
2551 -685 -2545 0
2551 -10938 685 0
-2552 -688 2545 0
-2552 10939 688 0
2552 -688 -2545 0
2552 -10939 688 0
2553 -10940 1833 0
2553 10114 -1833 -2554 0
-2553 -1833 2554 0
-2553 10940 1833 0
-2553 -10114 -1833 0
2554 694 -2555 2556 0
2554 -10938 -2555 2556 0
-2554 -2556 0
-2554 2555 0
-2554 10938 -694 0
-2555 10939 692 0
2555 -10939 0
2555 -692 0
-2556 699 2557 2558 0
-2556 -10936 2557 2558 0
2556 -2558 0
2556 -2557 0
2556 10936 -699 0
2557 10937 -697 0
-2557 -10937 0
-2557 697 0
-2558 704 2559 2560 0
-2558 -10934 2559 2560 0
2558 -2560 0
2558 -2559 0
2558 10934 -704 0
2559 10935 -702 0
-2559 -10935 0
-2559 702 0
-2560 -10933 649 0
-2560 -10932 706 0
-2560 -10932 -10933 0
-2560 649 706 0
2560 10933 -706 0
2560 10932 -649 0
2561 -10941 1878 0
2561 810 -1878 -2562 0
-2561 -1878 2562 0
-2561 10941 1878 0
-2561 -810 -1878 0
2562 -10940 -861 -931 0
2562 -10940 -861 -1884 0
-2562 10940 0
-2562 861 0
-2562 931 1884 0
-2563 -671 2564 0
-2563 10942 671 0
2563 -671 -2564 0
2563 -10942 671 0
2564 -9777 -1815 0
-2564 9777 0
-2564 1815 0
-2565 -673 2564 0
-2565 10943 673 0
2565 -673 -2564 0
2565 -10943 673 0
-2566 -675 2564 0
-2566 10944 675 0
2566 -675 -2564 0
2566 -10944 675 0
-2567 -678 2564 0
-2567 10945 678 0
2567 -678 -2564 0
2567 -10945 678 0
-2568 -680 2564 0
-2568 10946 680 0
2568 -680 -2564 0
2568 -10946 680 0
-2569 -683 2564 0
-2569 10947 683 0
2569 -683 -2564 0
2569 -10947 683 0
-2570 -685 2564 0
-2570 10948 685 0
2570 -685 -2564 0
2570 -10948 685 0
-2571 -688 2564 0
-2571 10949 688 0
2571 -688 -2564 0
2571 -10949 688 0
2572 -10950 1833 0
2572 10114 -1833 -2573 0
-2572 -1833 2573 0
-2572 10950 1833 0
-2572 -10114 -1833 0
2573 694 -2574 2575 0
2573 -10948 -2574 2575 0
-2573 -2575 0
-2573 2574 0
-2573 10948 -694 0
-2574 10949 692 0
2574 -10949 0
2574 -692 0
-2575 699 2576 2577 0
-2575 -10946 2576 2577 0
2575 -2577 0
2575 -2576 0
2575 10946 -699 0
2576 10947 -697 0
-2576 -10947 0
-2576 697 0
-2577 704 2578 2579 0
-2577 -10944 2578 2579 0
2577 -2579 0
2577 -2578 0
2577 10944 -704 0
2578 10945 -702 0
-2578 -10945 0
-2578 702 0
-2579 -10943 649 0
-2579 -10942 706 0
-2579 -10942 -10943 0
-2579 649 706 0
2579 10943 -706 0
2579 10942 -649 0
2580 -10951 1878 0
2580 -1878 -2581 0
2580 -1878 -1885 0
-2580 10951 1878 0
-2580 -1878 1885 2581 0
2581 810 -861 -2582 0
-2581 -810 0
-2581 2582 0
-2581 861 0
-2582 10950 0
-2582 931 1884 0
2582 -10950 -931 0
2582 -10950 -1884 0
-2583 -671 2584 0
-2583 10952 671 0
2583 -671 -2584 0
2583 -10952 671 0
2584 -9778 -1815 0
-2584 9778 0
-2584 1815 0
-2585 -673 2584 0
-2585 10953 673 0
2585 -673 -2584 0
2585 -10953 673 0
-2586 -675 2584 0
-2586 10954 675 0
2586 -675 -2584 0
2586 -10954 675 0
-2587 -678 2584 0
-2587 10955 678 0
2587 -678 -2584 0
2587 -10955 678 0
-2588 -680 2584 0
-2588 10956 680 0
2588 -680 -2584 0
2588 -10956 680 0
-2589 -683 2584 0
-2589 10957 683 0
2589 -683 -2584 0
2589 -10957 683 0
-2590 -685 2584 0
-2590 10958 685 0
2590 -685 -2584 0
2590 -10958 685 0
-2591 -688 2584 0
-2591 10959 688 0
2591 -688 -2584 0
2591 -10959 688 0
2592 -10960 1833 0
2592 10114 -1833 -2593 0
-2592 -1833 2593 0
-2592 10960 1833 0
-2592 -10114 -1833 0
2593 694 -2594 2595 0
2593 -10958 -2594 2595 0
-2593 -2595 0
-2593 2594 0
-2593 10958 -694 0
-2594 10959 692 0
2594 -10959 0
2594 -692 0
-2595 699 2596 2597 0
-2595 -10956 2596 2597 0
2595 -2597 0
2595 -2596 0
2595 10956 -699 0
2596 10957 -697 0
-2596 -10957 0
-2596 697 0
-2597 704 2598 2599 0
-2597 -10954 2598 2599 0
2597 -2599 0
2597 -2598 0
2597 10954 -704 0
2598 10955 -702 0
-2598 -10955 0
-2598 702 0
-2599 -10953 649 0
-2599 -10952 706 0
-2599 -10952 -10953 0
-2599 649 706 0
2599 10953 -706 0
2599 10952 -649 0
2600 -10961 1878 0
2600 810 -1878 -2601 0
-2600 -1878 2601 0
-2600 10961 1878 0
-2600 -810 -1878 0
2601 -10960 -861 -931 0
2601 -10960 -861 -1884 0
-2601 10960 0
-2601 861 0
-2601 931 1884 0
-2602 -671 2603 0
-2602 10962 671 0
2602 -671 -2603 0
2602 -10962 671 0
2603 -9779 -1815 0
-2603 9779 0
-2603 1815 0
-2604 -673 2603 0
-2604 10963 673 0
2604 -673 -2603 0
2604 -10963 673 0
-2605 -675 2603 0
-2605 10964 675 0
2605 -675 -2603 0
2605 -10964 675 0
-2606 -678 2603 0
-2606 10965 678 0
2606 -678 -2603 0
2606 -10965 678 0
-2607 -680 2603 0
-2607 10966 680 0
2607 -680 -2603 0
2607 -10966 680 0
-2608 -683 2603 0
-2608 10967 683 0
2608 -683 -2603 0
2608 -10967 683 0
-2609 -685 2603 0
-2609 10968 685 0
2609 -685 -2603 0
2609 -10968 685 0
-2610 -688 2603 0
-2610 10969 688 0
2610 -688 -2603 0
2610 -10969 688 0
2611 -10970 1833 0
2611 10114 -1833 -2612 0
-2611 -1833 2612 0
-2611 10970 1833 0
-2611 -10114 -1833 0
2612 694 -2613 2614 0
2612 -10968 -2613 2614 0
-2612 -2614 0
-2612 2613 0
-2612 10968 -694 0
-2613 10969 692 0
2613 -10969 0
2613 -692 0
-2614 699 2615 2616 0
-2614 -10966 2615 2616 0
2614 -2616 0
2614 -2615 0
2614 10966 -699 0
2615 10967 -697 0
-2615 -10967 0
-2615 697 0
-2616 704 2617 2618 0
-2616 -10964 2617 2618 0
2616 -2618 0
2616 -2617 0
2616 10964 -704 0
2617 10965 -702 0
-2617 -10965 0
-2617 702 0
-2618 -10963 649 0
-2618 -10962 706 0
-2618 -10962 -10963 0
-2618 649 706 0
2618 10963 -706 0
2618 10962 -649 0
2619 -10971 1878 0
2619 810 -1878 -2620 0
-2619 -1878 2620 0
-2619 10971 1878 0
-2619 -810 -1878 0
2620 -10970 -861 -931 0
2620 -10970 -861 -1884 0
-2620 10970 0
-2620 861 0
-2620 931 1884 0
-2621 -671 2622 0
-2621 10972 671 0
2621 -671 -2622 0
2621 -10972 671 0
2622 -9780 -1815 0
-2622 9780 0
-2622 1815 0
-2623 -673 2622 0
-2623 10973 673 0
2623 -673 -2622 0
2623 -10973 673 0
-2624 -675 2622 0
-2624 10974 675 0
2624 -675 -2622 0
2624 -10974 675 0
-2625 -678 2622 0
-2625 10975 678 0
2625 -678 -2622 0
2625 -10975 678 0
-2626 -680 2622 0
-2626 10976 680 0
2626 -680 -2622 0
2626 -10976 680 0
-2627 -683 2622 0
-2627 10977 683 0
2627 -683 -2622 0
2627 -10977 683 0
-2628 -685 2622 0
-2628 10978 685 0
2628 -685 -2622 0
2628 -10978 685 0
-2629 -688 2622 0
-2629 10979 688 0
2629 -688 -2622 0
2629 -10979 688 0
2630 -10980 1833 0
2630 10114 -1833 -2631 0
-2630 -1833 2631 0
-2630 10980 1833 0
-2630 -10114 -1833 0
2631 694 -2632 2633 0
2631 -10978 -2632 2633 0
-2631 -2633 0
-2631 2632 0
-2631 10978 -694 0
-2632 10979 692 0
2632 -10979 0
2632 -692 0
-2633 699 2634 2635 0
-2633 -10976 2634 2635 0
2633 -2635 0
2633 -2634 0
2633 10976 -699 0
2634 10977 -697 0
-2634 -10977 0
-2634 697 0
-2635 704 2636 2637 0
-2635 -10974 2636 2637 0
2635 -2637 0
2635 -2636 0
2635 10974 -704 0
2636 10975 -702 0
-2636 -10975 0
-2636 702 0
-2637 -10973 649 0
-2637 -10972 706 0
-2637 -10972 -10973 0
-2637 649 706 0
2637 10973 -706 0
2637 10972 -649 0
2638 -10981 1878 0
2638 810 -1878 -2639 0
-2638 -1878 2639 0
-2638 10981 1878 0
-2638 -810 -1878 0
2639 -10980 -861 -931 0
2639 -10980 -861 -1884 0
-2639 10980 0
-2639 861 0
-2639 931 1884 0
-2640 -671 2641 0
-2640 10982 671 0
2640 -671 -2641 0
2640 -10982 671 0
2641 -9781 -1815 0
-2641 9781 0
-2641 1815 0
-2642 -673 2641 0
-2642 10983 673 0
2642 -673 -2641 0
2642 -10983 673 0
-2643 -675 2641 0
-2643 10984 675 0
2643 -675 -2641 0
2643 -10984 675 0
-2644 -678 2641 0
-2644 10985 678 0
2644 -678 -2641 0
2644 -10985 678 0
-2645 -680 2641 0
-2645 10986 680 0
2645 -680 -2641 0
2645 -10986 680 0
-2646 -683 2641 0
-2646 10987 683 0
2646 -683 -2641 0
2646 -10987 683 0
-2647 -685 2641 0
-2647 10988 685 0
2647 -685 -2641 0
2647 -10988 685 0
-2648 -688 2641 0
-2648 10989 688 0
2648 -688 -2641 0
2648 -10989 688 0
2649 -10990 1833 0
2649 10114 -1833 -2650 0
-2649 -1833 2650 0
-2649 10990 1833 0
-2649 -10114 -1833 0
2650 694 -2651 2652 0
2650 -10988 -2651 2652 0
-2650 -2652 0
-2650 2651 0
-2650 10988 -694 0
-2651 10989 692 0
2651 -10989 0
2651 -692 0
-2652 699 2653 2654 0
-2652 -10986 2653 2654 0
2652 -2654 0
2652 -2653 0
2652 10986 -699 0
2653 10987 -697 0
-2653 -10987 0
-2653 697 0
-2654 704 2655 2656 0
-2654 -10984 2655 2656 0
2654 -2656 0
2654 -2655 0
2654 10984 -704 0
2655 10985 -702 0
-2655 -10985 0
-2655 702 0
-2656 -10983 649 0
-2656 -10982 706 0
-2656 -10982 -10983 0
-2656 649 706 0
2656 10983 -706 0
2656 10982 -649 0
2657 -10991 1878 0
2657 810 -1878 -2658 0
-2657 -1878 2658 0
-2657 10991 1878 0
-2657 -810 -1878 0
2658 -10990 -861 -931 0
2658 -10990 -861 -1884 0
-2658 10990 0
-2658 861 0
-2658 931 1884 0
-2659 -671 2660 0
-2659 10992 671 0
2659 -671 -2660 0
2659 -10992 671 0
2660 -9782 -1815 0
-2660 9782 0
-2660 1815 0
-2661 -673 2660 0
-2661 10993 673 0
2661 -673 -2660 0
2661 -10993 673 0
-2662 -675 2660 0
-2662 10994 675 0
2662 -675 -2660 0
2662 -10994 675 0
-2663 -678 2660 0
-2663 10995 678 0
2663 -678 -2660 0
2663 -10995 678 0
-2664 -680 2660 0
-2664 10996 680 0
2664 -680 -2660 0
2664 -10996 680 0
-2665 -683 2660 0
-2665 10997 683 0
2665 -683 -2660 0
2665 -10997 683 0
-2666 -685 2660 0
-2666 10998 685 0
2666 -685 -2660 0
2666 -10998 685 0
-2667 -688 2660 0
-2667 10999 688 0
2667 -688 -2660 0
2667 -10999 688 0
2668 -11000 1833 0
2668 10114 -1833 -2669 0
-2668 -1833 2669 0
-2668 11000 1833 0
-2668 -10114 -1833 0
2669 694 -2670 2671 0
2669 -10998 -2670 2671 0
-2669 -2671 0
-2669 2670 0
-2669 10998 -694 0
-2670 10999 692 0
2670 -10999 0
2670 -692 0
-2671 699 2672 2673 0
-2671 -10996 2672 2673 0
2671 -2673 0
2671 -2672 0
2671 10996 -699 0
2672 10997 -697 0
-2672 -10997 0
-2672 697 0
-2673 704 2674 2675 0
-2673 -10994 2674 2675 0
2673 -2675 0
2673 -2674 0
2673 10994 -704 0
2674 10995 -702 0
-2674 -10995 0
-2674 702 0
-2675 -10993 649 0
-2675 -10992 706 0
-2675 -10992 -10993 0
-2675 649 706 0
2675 10993 -706 0
2675 10992 -649 0
2676 -11001 1878 0
2676 810 -1878 -2677 0
-2676 -1878 2677 0
-2676 11001 1878 0
-2676 -810 -1878 0
2677 -11000 -861 -931 0
2677 -11000 -861 -1884 0
-2677 11000 0
-2677 861 0
-2677 931 1884 0
-2678 -671 2679 0
-2678 11002 671 0
2678 -671 -2679 0
2678 -11002 671 0
2679 -9783 -1815 0
-2679 9783 0
-2679 1815 0
-2680 -673 2679 0
-2680 11003 673 0
2680 -673 -2679 0
2680 -11003 673 0
-2681 -675 2679 0
-2681 11004 675 0
2681 -675 -2679 0
2681 -11004 675 0
-2682 -678 2679 0
-2682 11005 678 0
2682 -678 -2679 0
2682 -11005 678 0
-2683 -680 2679 0
-2683 11006 680 0
2683 -680 -2679 0
2683 -11006 680 0
-2684 -683 2679 0
-2684 11007 683 0
2684 -683 -2679 0
2684 -11007 683 0
-2685 -685 2679 0
-2685 11008 685 0
2685 -685 -2679 0
2685 -11008 685 0
-2686 -688 2679 0
-2686 11009 688 0
2686 -688 -2679 0
2686 -11009 688 0
2687 -11010 1833 0
2687 10114 -1833 -2688 0
-2687 -1833 2688 0
-2687 11010 1833 0
-2687 -10114 -1833 0
2688 694 -2689 2690 0
2688 -11008 -2689 2690 0
-2688 -2690 0
-2688 2689 0
-2688 11008 -694 0
-2689 11009 692 0
2689 -11009 0
2689 -692 0
-2690 699 2691 2692 0
-2690 -11006 2691 2692 0
2690 -2692 0
2690 -2691 0
2690 11006 -699 0
2691 11007 -697 0
-2691 -11007 0
-2691 697 0
-2692 704 2693 2694 0
-2692 -11004 2693 2694 0
2692 -2694 0
2692 -2693 0
2692 11004 -704 0
2693 11005 -702 0
-2693 -11005 0
-2693 702 0
-2694 -11003 649 0
-2694 -11002 706 0
-2694 -11002 -11003 0
-2694 649 706 0
2694 11003 -706 0
2694 11002 -649 0
2695 -11011 1878 0
2695 810 -1878 -2696 0
-2695 -1878 2696 0
-2695 11011 1878 0
-2695 -810 -1878 0
2696 -11010 -861 -931 0
2696 -11010 -861 -1884 0
-2696 11010 0
-2696 861 0
-2696 931 1884 0
-2697 -671 2698 0
-2697 11012 671 0
2697 -671 -2698 0
2697 -11012 671 0
2698 -9784 -1815 0
-2698 9784 0
-2698 1815 0
-2699 -673 2698 0
-2699 11013 673 0
2699 -673 -2698 0
2699 -11013 673 0
-2700 -675 2698 0
-2700 11014 675 0
2700 -675 -2698 0
2700 -11014 675 0
-2701 -678 2698 0
-2701 11015 678 0
2701 -678 -2698 0
2701 -11015 678 0
-2702 -680 2698 0
-2702 11016 680 0
2702 -680 -2698 0
2702 -11016 680 0
-2703 -683 2698 0
-2703 11017 683 0
2703 -683 -2698 0
2703 -11017 683 0
-2704 -685 2698 0
-2704 11018 685 0
2704 -685 -2698 0
2704 -11018 685 0
-2705 -688 2698 0
-2705 11019 688 0
2705 -688 -2698 0
2705 -11019 688 0
2706 -11020 1833 0
2706 10114 -1833 -2707 0
-2706 -1833 2707 0
-2706 11020 1833 0
-2706 -10114 -1833 0
2707 694 -2708 2709 0
2707 -11018 -2708 2709 0
-2707 -2709 0
-2707 2708 0
-2707 11018 -694 0
-2708 11019 692 0
2708 -11019 0
2708 -692 0
-2709 699 2710 2711 0
-2709 -11016 2710 2711 0
2709 -2711 0
2709 -2710 0
2709 11016 -699 0
2710 11017 -697 0
-2710 -11017 0
-2710 697 0
-2711 704 2712 2713 0
-2711 -11014 2712 2713 0
2711 -2713 0
2711 -2712 0
2711 11014 -704 0
2712 11015 -702 0
-2712 -11015 0
-2712 702 0
-2713 -11013 649 0
-2713 -11012 706 0
-2713 -11012 -11013 0
-2713 649 706 0
2713 11013 -706 0
2713 11012 -649 0
2714 -11021 1878 0
2714 810 -1878 -2715 0
-2714 -1878 2715 0
-2714 11021 1878 0
-2714 -810 -1878 0
2715 -11020 -861 -931 0
2715 -11020 -861 -1884 0
-2715 11020 0
-2715 861 0
-2715 931 1884 0
-2716 -671 2717 0
-2716 11022 671 0
2716 -671 -2717 0
2716 -11022 671 0
2717 -9785 -1815 0
-2717 9785 0
-2717 1815 0
-2718 -673 2717 0
-2718 11023 673 0
2718 -673 -2717 0
2718 -11023 673 0
-2719 -675 2717 0
-2719 11024 675 0
2719 -675 -2717 0
2719 -11024 675 0
-2720 -678 2717 0
-2720 11025 678 0
2720 -678 -2717 0
2720 -11025 678 0
-2721 -680 2717 0
-2721 11026 680 0
2721 -680 -2717 0
2721 -11026 680 0
-2722 -683 2717 0
-2722 11027 683 0
2722 -683 -2717 0
2722 -11027 683 0
-2723 -685 2717 0
-2723 11028 685 0
2723 -685 -2717 0
2723 -11028 685 0
-2724 -688 2717 0
-2724 11029 688 0
2724 -688 -2717 0
2724 -11029 688 0
2725 -11030 1833 0
2725 10114 -1833 -2726 0
-2725 -1833 2726 0
-2725 11030 1833 0
-2725 -10114 -1833 0
2726 694 -2727 2728 0
2726 -11028 -2727 2728 0
-2726 -2728 0
-2726 2727 0
-2726 11028 -694 0
-2727 11029 692 0
2727 -11029 0
2727 -692 0
-2728 699 2729 2730 0
-2728 -11026 2729 2730 0
2728 -2730 0
2728 -2729 0
2728 11026 -699 0
2729 11027 -697 0
-2729 -11027 0
-2729 697 0
-2730 704 2731 2732 0
-2730 -11024 2731 2732 0
2730 -2732 0
2730 -2731 0
2730 11024 -704 0
2731 11025 -702 0
-2731 -11025 0
-2731 702 0
-2732 -11023 649 0
-2732 -11022 706 0
-2732 -11022 -11023 0
-2732 649 706 0
2732 11023 -706 0
2732 11022 -649 0
2733 -11031 1878 0
2733 -1878 -2734 0
2733 -1878 -1885 0
-2733 11031 1878 0
-2733 -1878 1885 2734 0
2734 810 -861 -2735 0
-2734 -810 0
-2734 2735 0
-2734 861 0
-2735 11030 0
-2735 931 1884 0
2735 -11030 -931 0
2735 -11030 -1884 0
-2736 -671 2737 0
-2736 11032 671 0
2736 -671 -2737 0
2736 -11032 671 0
2737 -9786 -1815 0
-2737 9786 0
-2737 1815 0
-2738 -673 2737 0
-2738 11033 673 0
2738 -673 -2737 0
2738 -11033 673 0
-2739 -675 2737 0
-2739 11034 675 0
2739 -675 -2737 0
2739 -11034 675 0
-2740 -678 2737 0
-2740 11035 678 0
2740 -678 -2737 0
2740 -11035 678 0
-2741 -680 2737 0
-2741 11036 680 0
2741 -680 -2737 0
2741 -11036 680 0
-2742 -683 2737 0
-2742 11037 683 0
2742 -683 -2737 0
2742 -11037 683 0
-2743 -685 2737 0
-2743 11038 685 0
2743 -685 -2737 0
2743 -11038 685 0
-2744 -688 2737 0
-2744 11039 688 0
2744 -688 -2737 0
2744 -11039 688 0
2745 -11040 1833 0
2745 10114 -1833 -2746 0
-2745 -1833 2746 0
-2745 11040 1833 0
-2745 -10114 -1833 0
2746 694 -2747 2748 0
2746 -11038 -2747 2748 0
-2746 -2748 0
-2746 2747 0
-2746 11038 -694 0
-2747 11039 692 0
2747 -11039 0
2747 -692 0
-2748 699 2749 2750 0
-2748 -11036 2749 2750 0
2748 -2750 0
2748 -2749 0
2748 11036 -699 0
2749 11037 -697 0
-2749 -11037 0
-2749 697 0
-2750 704 2751 2752 0
-2750 -11034 2751 2752 0
2750 -2752 0
2750 -2751 0
2750 11034 -704 0
2751 11035 -702 0
-2751 -11035 0
-2751 702 0
-2752 -11033 649 0
-2752 -11032 706 0
-2752 -11032 -11033 0
-2752 649 706 0
2752 11033 -706 0
2752 11032 -649 0
2753 -11041 1878 0
2753 810 -1878 -2754 0
-2753 -1878 2754 0
-2753 11041 1878 0
-2753 -810 -1878 0
2754 -11040 -861 -931 0
2754 -11040 -861 -1884 0
-2754 11040 0
-2754 861 0
-2754 931 1884 0
-2755 -671 2756 0
-2755 11042 671 0
2755 -671 -2756 0
2755 -11042 671 0
2756 -9787 -1815 0
-2756 9787 0
-2756 1815 0
-2757 -673 2756 0
-2757 11043 673 0
2757 -673 -2756 0
2757 -11043 673 0
-2758 -675 2756 0
-2758 11044 675 0
2758 -675 -2756 0
2758 -11044 675 0
-2759 -678 2756 0
-2759 11045 678 0
2759 -678 -2756 0
2759 -11045 678 0
-2760 -680 2756 0
-2760 11046 680 0
2760 -680 -2756 0
2760 -11046 680 0
-2761 -683 2756 0
-2761 11047 683 0
2761 -683 -2756 0
2761 -11047 683 0
-2762 -685 2756 0
-2762 11048 685 0
2762 -685 -2756 0
2762 -11048 685 0
-2763 -688 2756 0
-2763 11049 688 0
2763 -688 -2756 0
2763 -11049 688 0
2764 -11050 1833 0
2764 10114 -1833 -2765 0
-2764 -1833 2765 0
-2764 11050 1833 0
-2764 -10114 -1833 0
2765 694 -2766 2767 0
2765 -11048 -2766 2767 0
-2765 -2767 0
-2765 2766 0
-2765 11048 -694 0
-2766 11049 692 0
2766 -11049 0
2766 -692 0
-2767 699 2768 2769 0
-2767 -11046 2768 2769 0
2767 -2769 0
2767 -2768 0
2767 11046 -699 0
2768 11047 -697 0
-2768 -11047 0
-2768 697 0
-2769 704 2770 2771 0
-2769 -11044 2770 2771 0
2769 -2771 0
2769 -2770 0
2769 11044 -704 0
2770 11045 -702 0
-2770 -11045 0
-2770 702 0
-2771 -11043 649 0
-2771 -11042 706 0
-2771 -11042 -11043 0
-2771 649 706 0
2771 11043 -706 0
2771 11042 -649 0
2772 -11051 1878 0
2772 810 -1878 -2773 0
-2772 -1878 2773 0
-2772 11051 1878 0
-2772 -810 -1878 0
2773 -11050 -861 -931 0
2773 -11050 -861 -1884 0
-2773 11050 0
-2773 861 0
-2773 931 1884 0
-2774 -671 2775 0
-2774 11052 671 0
2774 -671 -2775 0
2774 -11052 671 0
2775 -9788 -1815 0
-2775 9788 0
-2775 1815 0
-2776 -673 2775 0
-2776 11053 673 0
2776 -673 -2775 0
2776 -11053 673 0
-2777 -675 2775 0
-2777 11054 675 0
2777 -675 -2775 0
2777 -11054 675 0
-2778 -678 2775 0
-2778 11055 678 0
2778 -678 -2775 0
2778 -11055 678 0
-2779 -680 2775 0
-2779 11056 680 0
2779 -680 -2775 0
2779 -11056 680 0
-2780 -683 2775 0
-2780 11057 683 0
2780 -683 -2775 0
2780 -11057 683 0
-2781 -685 2775 0
-2781 11058 685 0
2781 -685 -2775 0
2781 -11058 685 0
-2782 -688 2775 0
-2782 11059 688 0
2782 -688 -2775 0
2782 -11059 688 0
2783 -11060 1833 0
2783 10114 -1833 -2784 0
-2783 -1833 2784 0
-2783 11060 1833 0
-2783 -10114 -1833 0
2784 694 -2785 2786 0
2784 -11058 -2785 2786 0
-2784 -2786 0
-2784 2785 0
-2784 11058 -694 0
-2785 11059 692 0
2785 -11059 0
2785 -692 0
-2786 699 2787 2788 0
-2786 -11056 2787 2788 0
2786 -2788 0
2786 -2787 0
2786 11056 -699 0
2787 11057 -697 0
-2787 -11057 0
-2787 697 0
-2788 704 2789 2790 0
-2788 -11054 2789 2790 0
2788 -2790 0
2788 -2789 0
2788 11054 -704 0
2789 11055 -702 0
-2789 -11055 0
-2789 702 0
-2790 -11053 649 0
-2790 -11052 706 0
-2790 -11052 -11053 0
-2790 649 706 0
2790 11053 -706 0
2790 11052 -649 0
2791 -11061 1878 0
2791 810 -1878 -2792 0
-2791 -1878 2792 0
-2791 11061 1878 0
-2791 -810 -1878 0
2792 -11060 -861 -931 0
2792 -11060 -861 -1884 0
-2792 11060 0
-2792 861 0
-2792 931 1884 0
-2793 -671 2794 0
-2793 11062 671 0
2793 -671 -2794 0
2793 -11062 671 0
2794 -9789 -1815 0
-2794 9789 0
-2794 1815 0
-2795 -673 2794 0
-2795 11063 673 0
2795 -673 -2794 0
2795 -11063 673 0
-2796 -675 2794 0
-2796 11064 675 0
2796 -675 -2794 0
2796 -11064 675 0
-2797 -678 2794 0
-2797 11065 678 0
2797 -678 -2794 0
2797 -11065 678 0
-2798 -680 2794 0
-2798 11066 680 0
2798 -680 -2794 0
2798 -11066 680 0
-2799 -683 2794 0
-2799 11067 683 0
2799 -683 -2794 0
2799 -11067 683 0
-2800 -685 2794 0
-2800 11068 685 0
2800 -685 -2794 0
2800 -11068 685 0
-2801 -688 2794 0
-2801 11069 688 0
2801 -688 -2794 0
2801 -11069 688 0
2802 -11070 1833 0
2802 10114 -1833 -2803 0
-2802 -1833 2803 0
-2802 11070 1833 0
-2802 -10114 -1833 0
2803 694 -2804 2805 0
2803 -11068 -2804 2805 0
-2803 -2805 0
-2803 2804 0
-2803 11068 -694 0
-2804 11069 692 0
2804 -11069 0
2804 -692 0
-2805 699 2806 2807 0
-2805 -11066 2806 2807 0
2805 -2807 0
2805 -2806 0
2805 11066 -699 0
2806 11067 -697 0
-2806 -11067 0
-2806 697 0
-2807 704 2808 2809 0
-2807 -11064 2808 2809 0
2807 -2809 0
2807 -2808 0
2807 11064 -704 0
2808 11065 -702 0
-2808 -11065 0
-2808 702 0
-2809 -11063 649 0
-2809 -11062 706 0
-2809 -11062 -11063 0
-2809 649 706 0
2809 11063 -706 0
2809 11062 -649 0
2810 -11071 1878 0
2810 810 -1878 -2811 0
-2810 -1878 2811 0
-2810 11071 1878 0
-2810 -810 -1878 0
2811 -11070 -861 -931 0
2811 -11070 -861 -1884 0
-2811 11070 0
-2811 861 0
-2811 931 1884 0
-2812 -671 2813 0
-2812 11072 671 0
2812 -671 -2813 0
2812 -11072 671 0
2813 -9790 -1815 0
-2813 9790 0
-2813 1815 0
-2814 -673 2813 0
-2814 11073 673 0
2814 -673 -2813 0
2814 -11073 673 0
-2815 -675 2813 0
-2815 11074 675 0
2815 -675 -2813 0
2815 -11074 675 0
-2816 -678 2813 0
-2816 11075 678 0
2816 -678 -2813 0
2816 -11075 678 0
-2817 -680 2813 0
-2817 11076 680 0
2817 -680 -2813 0
2817 -11076 680 0
-2818 -683 2813 0
-2818 11077 683 0
2818 -683 -2813 0
2818 -11077 683 0
-2819 -685 2813 0
-2819 11078 685 0
2819 -685 -2813 0
2819 -11078 685 0
-2820 -688 2813 0
-2820 11079 688 0
2820 -688 -2813 0
2820 -11079 688 0
2821 -11080 1833 0
2821 10114 -1833 -2822 0
-2821 -1833 2822 0
-2821 11080 1833 0
-2821 -10114 -1833 0
2822 694 -2823 2824 0
2822 -11078 -2823 2824 0
-2822 -2824 0
-2822 2823 0
-2822 11078 -694 0
-2823 11079 692 0
2823 -11079 0
2823 -692 0
-2824 699 2825 2826 0
-2824 -11076 2825 2826 0
2824 -2826 0
2824 -2825 0
2824 11076 -699 0
2825 11077 -697 0
-2825 -11077 0
-2825 697 0
-2826 704 2827 2828 0
-2826 -11074 2827 2828 0
2826 -2828 0
2826 -2827 0
2826 11074 -704 0
2827 11075 -702 0
-2827 -11075 0
-2827 702 0
-2828 -11073 649 0
-2828 -11072 706 0
-2828 -11072 -11073 0
-2828 649 706 0
2828 11073 -706 0
2828 11072 -649 0
2829 -11081 1878 0
2829 810 -1878 -2830 0
-2829 -1878 2830 0
-2829 11081 1878 0
-2829 -810 -1878 0
2830 -11080 -861 -931 0
2830 -11080 -861 -1884 0
-2830 11080 0
-2830 861 0
-2830 931 1884 0
-2831 -671 2832 0
-2831 11082 671 0
2831 -671 -2832 0
2831 -11082 671 0
2832 -9791 -1815 0
-2832 9791 0
-2832 1815 0
-2833 -673 2832 0
-2833 11083 673 0
2833 -673 -2832 0
2833 -11083 673 0
-2834 -675 2832 0
-2834 11084 675 0
2834 -675 -2832 0
2834 -11084 675 0
-2835 -678 2832 0
-2835 11085 678 0
2835 -678 -2832 0
2835 -11085 678 0
-2836 -680 2832 0
-2836 11086 680 0
2836 -680 -2832 0
2836 -11086 680 0
-2837 -683 2832 0
-2837 11087 683 0
2837 -683 -2832 0
2837 -11087 683 0
-2838 -685 2832 0
-2838 11088 685 0
2838 -685 -2832 0
2838 -11088 685 0
-2839 -688 2832 0
-2839 11089 688 0
2839 -688 -2832 0
2839 -11089 688 0
2840 -11090 1833 0
2840 10114 -1833 -2841 0
-2840 -1833 2841 0
-2840 11090 1833 0
-2840 -10114 -1833 0
2841 694 -2842 2843 0
2841 -11088 -2842 2843 0
-2841 -2843 0
-2841 2842 0
-2841 11088 -694 0
-2842 11089 692 0
2842 -11089 0
2842 -692 0
-2843 699 2844 2845 0
-2843 -11086 2844 2845 0
2843 -2845 0
2843 -2844 0
2843 11086 -699 0
2844 11087 -697 0
-2844 -11087 0
-2844 697 0
-2845 704 2846 2847 0
-2845 -11084 2846 2847 0
2845 -2847 0
2845 -2846 0
2845 11084 -704 0
2846 11085 -702 0
-2846 -11085 0
-2846 702 0
-2847 -11083 649 0
-2847 -11082 706 0
-2847 -11082 -11083 0
-2847 649 706 0
2847 11083 -706 0
2847 11082 -649 0
2848 -11091 1878 0
2848 810 -1878 -2849 0
-2848 -1878 2849 0
-2848 11091 1878 0
-2848 -810 -1878 0
2849 -11090 -861 -931 0
2849 -11090 -861 -1884 0
-2849 11090 0
-2849 861 0
-2849 931 1884 0
-2850 -671 2851 0
-2850 11092 671 0
2850 -671 -2851 0
2850 -11092 671 0
2851 -9792 -1815 0
-2851 9792 0
-2851 1815 0
-2852 -673 2851 0
-2852 11093 673 0
2852 -673 -2851 0
2852 -11093 673 0
-2853 -675 2851 0
-2853 11094 675 0
2853 -675 -2851 0
2853 -11094 675 0
-2854 -678 2851 0
-2854 11095 678 0
2854 -678 -2851 0
2854 -11095 678 0
-2855 -680 2851 0
-2855 11096 680 0
2855 -680 -2851 0
2855 -11096 680 0
-2856 -683 2851 0
-2856 11097 683 0
2856 -683 -2851 0
2856 -11097 683 0
-2857 -685 2851 0
-2857 11098 685 0
2857 -685 -2851 0
2857 -11098 685 0
-2858 -688 2851 0
-2858 11099 688 0
2858 -688 -2851 0
2858 -11099 688 0
2859 -11100 1833 0
2859 10114 -1833 -2860 0
-2859 -1833 2860 0
-2859 11100 1833 0
-2859 -10114 -1833 0
2860 694 -2861 2862 0
2860 -11098 -2861 2862 0
-2860 -2862 0
-2860 2861 0
-2860 11098 -694 0
-2861 11099 692 0
2861 -11099 0
2861 -692 0
-2862 699 2863 2864 0
-2862 -11096 2863 2864 0
2862 -2864 0
2862 -2863 0
2862 11096 -699 0
2863 11097 -697 0
-2863 -11097 0
-2863 697 0
-2864 704 2865 2866 0
-2864 -11094 2865 2866 0
2864 -2866 0
2864 -2865 0
2864 11094 -704 0
2865 11095 -702 0
-2865 -11095 0
-2865 702 0
-2866 -11093 649 0
-2866 -11092 706 0
-2866 -11092 -11093 0
-2866 649 706 0
2866 11093 -706 0
2866 11092 -649 0
2867 -11101 1878 0
2867 810 -1878 -2868 0
-2867 -1878 2868 0
-2867 11101 1878 0
-2867 -810 -1878 0
2868 -11100 -861 -931 0
2868 -11100 -861 -1884 0
-2868 11100 0
-2868 861 0
-2868 931 1884 0
-2869 -671 2870 0
-2869 11102 671 0
2869 -671 -2870 0
2869 -11102 671 0
2870 -9793 -1815 0
-2870 9793 0
-2870 1815 0
-2871 -673 2870 0
-2871 11103 673 0
2871 -673 -2870 0
2871 -11103 673 0
-2872 -675 2870 0
-2872 11104 675 0
2872 -675 -2870 0
2872 -11104 675 0
-2873 -678 2870 0
-2873 11105 678 0
2873 -678 -2870 0
2873 -11105 678 0
-2874 -680 2870 0
-2874 11106 680 0
2874 -680 -2870 0
2874 -11106 680 0
-2875 -683 2870 0
-2875 11107 683 0
2875 -683 -2870 0
2875 -11107 683 0
-2876 -685 2870 0
-2876 11108 685 0
2876 -685 -2870 0
2876 -11108 685 0
-2877 -688 2870 0
-2877 11109 688 0
2877 -688 -2870 0
2877 -11109 688 0
2878 -11110 1833 0
2878 10114 -1833 -2879 0
-2878 -1833 2879 0
-2878 11110 1833 0
-2878 -10114 -1833 0
2879 694 -2880 2881 0
2879 -11108 -2880 2881 0
-2879 -2881 0
-2879 2880 0
-2879 11108 -694 0
-2880 11109 692 0
2880 -11109 0
2880 -692 0
-2881 699 2882 2883 0
-2881 -11106 2882 2883 0
2881 -2883 0
2881 -2882 0
2881 11106 -699 0
2882 11107 -697 0
-2882 -11107 0
-2882 697 0
-2883 704 2884 2885 0
-2883 -11104 2884 2885 0
2883 -2885 0
2883 -2884 0
2883 11104 -704 0
2884 11105 -702 0
-2884 -11105 0
-2884 702 0
-2885 -11103 649 0
-2885 -11102 706 0
-2885 -11102 -11103 0
-2885 649 706 0
2885 11103 -706 0
2885 11102 -649 0
2886 -11111 1878 0
2886 -1878 -2887 0
2886 -1878 -1885 0
-2886 11111 1878 0
-2886 -1878 1885 2887 0
2887 810 -861 -2888 0
-2887 -810 0
-2887 2888 0
-2887 861 0
-2888 11110 0
-2888 931 1884 0
2888 -11110 -931 0
2888 -11110 -1884 0
-2889 -671 2890 0
-2889 11112 671 0
2889 -671 -2890 0
2889 -11112 671 0
2890 -9794 -1815 0
-2890 9794 0
-2890 1815 0
-2891 -673 2890 0
-2891 11113 673 0
2891 -673 -2890 0
2891 -11113 673 0
-2892 -675 2890 0
-2892 11114 675 0
2892 -675 -2890 0
2892 -11114 675 0
-2893 -678 2890 0
-2893 11115 678 0
2893 -678 -2890 0
2893 -11115 678 0
-2894 -680 2890 0
-2894 11116 680 0
2894 -680 -2890 0
2894 -11116 680 0
-2895 -683 2890 0
-2895 11117 683 0
2895 -683 -2890 0
2895 -11117 683 0
-2896 -685 2890 0
-2896 11118 685 0
2896 -685 -2890 0
2896 -11118 685 0
-2897 -688 2890 0
-2897 11119 688 0
2897 -688 -2890 0
2897 -11119 688 0
2898 -11120 1833 0
2898 10114 -1833 -2899 0
-2898 -1833 2899 0
-2898 11120 1833 0
-2898 -10114 -1833 0
2899 694 -2900 2901 0
2899 -11118 -2900 2901 0
-2899 -2901 0
-2899 2900 0
-2899 11118 -694 0
-2900 11119 692 0
2900 -11119 0
2900 -692 0
-2901 699 2902 2903 0
-2901 -11116 2902 2903 0
2901 -2903 0
2901 -2902 0
2901 11116 -699 0
2902 11117 -697 0
-2902 -11117 0
-2902 697 0
-2903 704 2904 2905 0
-2903 -11114 2904 2905 0
2903 -2905 0
2903 -2904 0
2903 11114 -704 0
2904 11115 -702 0
-2904 -11115 0
-2904 702 0
-2905 -11113 649 0
-2905 -11112 706 0
-2905 -11112 -11113 0
-2905 649 706 0
2905 11113 -706 0
2905 11112 -649 0
2906 -11121 1878 0
2906 810 -1878 -2907 0
-2906 -1878 2907 0
-2906 11121 1878 0
-2906 -810 -1878 0
2907 -11120 -861 -931 0
2907 -11120 -861 -1884 0
-2907 11120 0
-2907 861 0
-2907 931 1884 0
-2908 -671 2909 0
-2908 11122 671 0
2908 -671 -2909 0
2908 -11122 671 0
2909 -9795 -1815 0
-2909 9795 0
-2909 1815 0
-2910 -673 2909 0
-2910 11123 673 0
2910 -673 -2909 0
2910 -11123 673 0
-2911 -675 2909 0
-2911 11124 675 0
2911 -675 -2909 0
2911 -11124 675 0
-2912 -678 2909 0
-2912 11125 678 0
2912 -678 -2909 0
2912 -11125 678 0
-2913 -680 2909 0
-2913 11126 680 0
2913 -680 -2909 0
2913 -11126 680 0
-2914 -683 2909 0
-2914 11127 683 0
2914 -683 -2909 0
2914 -11127 683 0
-2915 -685 2909 0
-2915 11128 685 0
2915 -685 -2909 0
2915 -11128 685 0
-2916 -688 2909 0
-2916 11129 688 0
2916 -688 -2909 0
2916 -11129 688 0
2917 -11130 1833 0
2917 10114 -1833 -2918 0
-2917 -1833 2918 0
-2917 11130 1833 0
-2917 -10114 -1833 0
2918 694 -2919 2920 0
2918 -11128 -2919 2920 0
-2918 -2920 0
-2918 2919 0
-2918 11128 -694 0
-2919 11129 692 0
2919 -11129 0
2919 -692 0
-2920 699 2921 2922 0
-2920 -11126 2921 2922 0
2920 -2922 0
2920 -2921 0
2920 11126 -699 0
2921 11127 -697 0
-2921 -11127 0
-2921 697 0
-2922 704 2923 2924 0
-2922 -11124 2923 2924 0
2922 -2924 0
2922 -2923 0
2922 11124 -704 0
2923 11125 -702 0
-2923 -11125 0
-2923 702 0
-2924 -11123 649 0
-2924 -11122 706 0
-2924 -11122 -11123 0
-2924 649 706 0
2924 11123 -706 0
2924 11122 -649 0
2925 -11131 1878 0
2925 810 -1878 -2926 0
-2925 -1878 2926 0
-2925 11131 1878 0
-2925 -810 -1878 0
2926 -11130 -861 -931 0
2926 -11130 -861 -1884 0
-2926 11130 0
-2926 861 0
-2926 931 1884 0
-2927 -671 2928 0
-2927 11132 671 0
2927 -671 -2928 0
2927 -11132 671 0
2928 -9796 -1815 0
-2928 9796 0
-2928 1815 0
-2929 -673 2928 0
-2929 11133 673 0
2929 -673 -2928 0
2929 -11133 673 0
-2930 -675 2928 0
-2930 11134 675 0
2930 -675 -2928 0
2930 -11134 675 0
-2931 -678 2928 0
-2931 11135 678 0
2931 -678 -2928 0
2931 -11135 678 0
-2932 -680 2928 0
-2932 11136 680 0
2932 -680 -2928 0
2932 -11136 680 0
-2933 -683 2928 0
-2933 11137 683 0
2933 -683 -2928 0
2933 -11137 683 0
-2934 -685 2928 0
-2934 11138 685 0
2934 -685 -2928 0
2934 -11138 685 0
-2935 -688 2928 0
-2935 11139 688 0
2935 -688 -2928 0
2935 -11139 688 0
2936 -11140 1833 0
2936 10114 -1833 -2937 0
-2936 -1833 2937 0
-2936 11140 1833 0
-2936 -10114 -1833 0
2937 694 -2938 2939 0
2937 -11138 -2938 2939 0
-2937 -2939 0
-2937 2938 0
-2937 11138 -694 0
-2938 11139 692 0
2938 -11139 0
2938 -692 0
-2939 699 2940 2941 0
-2939 -11136 2940 2941 0
2939 -2941 0
2939 -2940 0
2939 11136 -699 0
2940 11137 -697 0
-2940 -11137 0
-2940 697 0
-2941 704 2942 2943 0
-2941 -11134 2942 2943 0
2941 -2943 0
2941 -2942 0
2941 11134 -704 0
2942 11135 -702 0
-2942 -11135 0
-2942 702 0
-2943 -11133 649 0
-2943 -11132 706 0
-2943 -11132 -11133 0
-2943 649 706 0
2943 11133 -706 0
2943 11132 -649 0
2944 -11141 1878 0
2944 810 -1878 -2945 0
-2944 -1878 2945 0
-2944 11141 1878 0
-2944 -810 -1878 0
2945 -11140 -861 -931 0
2945 -11140 -861 -1884 0
-2945 11140 0
-2945 861 0
-2945 931 1884 0
-2946 -671 2947 0
-2946 11142 671 0
2946 -671 -2947 0
2946 -11142 671 0
2947 -9797 -1815 0
-2947 9797 0
-2947 1815 0
-2948 -673 2947 0
-2948 11143 673 0
2948 -673 -2947 0
2948 -11143 673 0
-2949 -675 2947 0
-2949 11144 675 0
2949 -675 -2947 0
2949 -11144 675 0
-2950 -678 2947 0
-2950 11145 678 0
2950 -678 -2947 0
2950 -11145 678 0
-2951 -680 2947 0
-2951 11146 680 0
2951 -680 -2947 0
2951 -11146 680 0
-2952 -683 2947 0
-2952 11147 683 0
2952 -683 -2947 0
2952 -11147 683 0
-2953 -685 2947 0
-2953 11148 685 0
2953 -685 -2947 0
2953 -11148 685 0
-2954 -688 2947 0
-2954 11149 688 0
2954 -688 -2947 0
2954 -11149 688 0
2955 -11150 1833 0
2955 10114 -1833 -2956 0
-2955 -1833 2956 0
-2955 11150 1833 0
-2955 -10114 -1833 0
2956 694 -2957 2958 0
2956 -11148 -2957 2958 0
-2956 -2958 0
-2956 2957 0
-2956 11148 -694 0
-2957 11149 692 0
2957 -11149 0
2957 -692 0
-2958 699 2959 2960 0
-2958 -11146 2959 2960 0
2958 -2960 0
2958 -2959 0
2958 11146 -699 0
2959 11147 -697 0
-2959 -11147 0
-2959 697 0
-2960 704 2961 2962 0
-2960 -11144 2961 2962 0
2960 -2962 0
2960 -2961 0
2960 11144 -704 0
2961 11145 -702 0
-2961 -11145 0
-2961 702 0
-2962 -11143 649 0
-2962 -11142 706 0
-2962 -11142 -11143 0
-2962 649 706 0
2962 11143 -706 0
2962 11142 -649 0
2963 -11151 1878 0
2963 810 -1878 -2964 0
-2963 -1878 2964 0
-2963 11151 1878 0
-2963 -810 -1878 0
2964 -11150 -861 -931 0
2964 -11150 -861 -1884 0
-2964 11150 0
-2964 861 0
-2964 931 1884 0
-2965 -671 2966 0
-2965 11152 671 0
2965 -671 -2966 0
2965 -11152 671 0
2966 -9798 -1815 0
-2966 9798 0
-2966 1815 0
-2967 -673 2966 0
-2967 11153 673 0
2967 -673 -2966 0
2967 -11153 673 0
-2968 -675 2966 0
-2968 11154 675 0
2968 -675 -2966 0
2968 -11154 675 0
-2969 -678 2966 0
-2969 11155 678 0
2969 -678 -2966 0
2969 -11155 678 0
-2970 -680 2966 0
-2970 11156 680 0
2970 -680 -2966 0
2970 -11156 680 0
-2971 -683 2966 0
-2971 11157 683 0
2971 -683 -2966 0
2971 -11157 683 0
-2972 -685 2966 0
-2972 11158 685 0
2972 -685 -2966 0
2972 -11158 685 0
-2973 -688 2966 0
-2973 11159 688 0
2973 -688 -2966 0
2973 -11159 688 0
2974 -11160 1833 0
2974 10114 -1833 -2975 0
-2974 -1833 2975 0
-2974 11160 1833 0
-2974 -10114 -1833 0
2975 694 -2976 2977 0
2975 -11158 -2976 2977 0
-2975 -2977 0
-2975 2976 0
-2975 11158 -694 0
-2976 11159 692 0
2976 -11159 0
2976 -692 0
-2977 699 2978 2979 0
-2977 -11156 2978 2979 0
2977 -2979 0
2977 -2978 0
2977 11156 -699 0
2978 11157 -697 0
-2978 -11157 0
-2978 697 0
-2979 704 2980 2981 0
-2979 -11154 2980 2981 0
2979 -2981 0
2979 -2980 0
2979 11154 -704 0
2980 11155 -702 0
-2980 -11155 0
-2980 702 0
-2981 -11153 649 0
-2981 -11152 706 0
-2981 -11152 -11153 0
-2981 649 706 0
2981 11153 -706 0
2981 11152 -649 0
2982 -11161 1878 0
2982 810 -1878 -2983 0
-2982 -1878 2983 0
-2982 11161 1878 0
-2982 -810 -1878 0
2983 -11160 -861 -931 0
2983 -11160 -861 -1884 0
-2983 11160 0
-2983 861 0
-2983 931 1884 0
-2984 -671 2985 0
-2984 11162 671 0
2984 -671 -2985 0
2984 -11162 671 0
2985 -9799 -1815 0
-2985 9799 0
-2985 1815 0
-2986 -673 2985 0
-2986 11163 673 0
2986 -673 -2985 0
2986 -11163 673 0
-2987 -675 2985 0
-2987 11164 675 0
2987 -675 -2985 0
2987 -11164 675 0
-2988 -678 2985 0
-2988 11165 678 0
2988 -678 -2985 0
2988 -11165 678 0
-2989 -680 2985 0
-2989 11166 680 0
2989 -680 -2985 0
2989 -11166 680 0
-2990 -683 2985 0
-2990 11167 683 0
2990 -683 -2985 0
2990 -11167 683 0
-2991 -685 2985 0
-2991 11168 685 0
2991 -685 -2985 0
2991 -11168 685 0
-2992 -688 2985 0
-2992 11169 688 0
2992 -688 -2985 0
2992 -11169 688 0
2993 -11170 1833 0
2993 10114 -1833 -2994 0
-2993 -1833 2994 0
-2993 11170 1833 0
-2993 -10114 -1833 0
2994 694 -2995 2996 0
2994 -11168 -2995 2996 0
-2994 -2996 0
-2994 2995 0
-2994 11168 -694 0
-2995 11169 692 0
2995 -11169 0
2995 -692 0
-2996 699 2997 2998 0
-2996 -11166 2997 2998 0
2996 -2998 0
2996 -2997 0
2996 11166 -699 0
2997 11167 -697 0
-2997 -11167 0
-2997 697 0
-2998 704 2999 3000 0
-2998 -11164 2999 3000 0
2998 -3000 0
2998 -2999 0
2998 11164 -704 0
2999 11165 -702 0
-2999 -11165 0
-2999 702 0
-3000 -11163 649 0
-3000 -11162 706 0
-3000 -11162 -11163 0
-3000 649 706 0
3000 11163 -706 0
3000 11162 -649 0
3001 -11171 1878 0
3001 810 -1878 -3002 0
-3001 -1878 3002 0
-3001 11171 1878 0
-3001 -810 -1878 0
3002 -11170 -861 -931 0
3002 -11170 -861 -1884 0
-3002 11170 0
-3002 861 0
-3002 931 1884 0
-3003 -671 3004 0
-3003 11172 671 0
3003 -671 -3004 0
3003 -11172 671 0
3004 -9800 -1815 0
-3004 9800 0
-3004 1815 0
-3005 -673 3004 0
-3005 11173 673 0
3005 -673 -3004 0
3005 -11173 673 0
-3006 -675 3004 0
-3006 11174 675 0
3006 -675 -3004 0
3006 -11174 675 0
-3007 -678 3004 0
-3007 11175 678 0
3007 -678 -3004 0
3007 -11175 678 0
-3008 -680 3004 0
-3008 11176 680 0
3008 -680 -3004 0
3008 -11176 680 0
-3009 -683 3004 0
-3009 11177 683 0
3009 -683 -3004 0
3009 -11177 683 0
-3010 -685 3004 0
-3010 11178 685 0
3010 -685 -3004 0
3010 -11178 685 0
-3011 -688 3004 0
-3011 11179 688 0
3011 -688 -3004 0
3011 -11179 688 0
3012 -11180 1833 0
3012 10114 -1833 -3013 0
-3012 -1833 3013 0
-3012 11180 1833 0
-3012 -10114 -1833 0
3013 694 -3014 3015 0
3013 -11178 -3014 3015 0
-3013 -3015 0
-3013 3014 0
-3013 11178 -694 0
-3014 11179 692 0
3014 -11179 0
3014 -692 0
-3015 699 3016 3017 0
-3015 -11176 3016 3017 0
3015 -3017 0
3015 -3016 0
3015 11176 -699 0
3016 11177 -697 0
-3016 -11177 0
-3016 697 0
-3017 704 3018 3019 0
-3017 -11174 3018 3019 0
3017 -3019 0
3017 -3018 0
3017 11174 -704 0
3018 11175 -702 0
-3018 -11175 0
-3018 702 0
-3019 -11173 649 0
-3019 -11172 706 0
-3019 -11172 -11173 0
-3019 649 706 0
3019 11173 -706 0
3019 11172 -649 0
3020 -11181 1878 0
3020 810 -1878 -3021 0
-3020 -1878 3021 0
-3020 11181 1878 0
-3020 -810 -1878 0
3021 -11180 -861 -931 0
3021 -11180 -861 -1884 0
-3021 11180 0
-3021 861 0
-3021 931 1884 0
-3022 -671 3023 0
-3022 11182 671 0
3022 -671 -3023 0
3022 -11182 671 0
3023 -9801 -1815 0
-3023 9801 0
-3023 1815 0
-3024 -673 3023 0
-3024 11183 673 0
3024 -673 -3023 0
3024 -11183 673 0
-3025 -675 3023 0
-3025 11184 675 0
3025 -675 -3023 0
3025 -11184 675 0
-3026 -678 3023 0
-3026 11185 678 0
3026 -678 -3023 0
3026 -11185 678 0
-3027 -680 3023 0
-3027 11186 680 0
3027 -680 -3023 0
3027 -11186 680 0
-3028 -683 3023 0
-3028 11187 683 0
3028 -683 -3023 0
3028 -11187 683 0
-3029 -685 3023 0
-3029 11188 685 0
3029 -685 -3023 0
3029 -11188 685 0
-3030 -688 3023 0
-3030 11189 688 0
3030 -688 -3023 0
3030 -11189 688 0
3031 -11190 1833 0
3031 10114 -1833 -3032 0
-3031 -1833 3032 0
-3031 11190 1833 0
-3031 -10114 -1833 0
3032 694 -3033 3034 0
3032 -11188 -3033 3034 0
-3032 -3034 0
-3032 3033 0
-3032 11188 -694 0
-3033 11189 692 0
3033 -11189 0
3033 -692 0
-3034 699 3035 3036 0
-3034 -11186 3035 3036 0
3034 -3036 0
3034 -3035 0
3034 11186 -699 0
3035 11187 -697 0
-3035 -11187 0
-3035 697 0
-3036 704 3037 3038 0
-3036 -11184 3037 3038 0
3036 -3038 0
3036 -3037 0
3036 11184 -704 0
3037 11185 -702 0
-3037 -11185 0
-3037 702 0
-3038 -11183 649 0
-3038 -11182 706 0
-3038 -11182 -11183 0
-3038 649 706 0
3038 11183 -706 0
3038 11182 -649 0
3039 -11191 1878 0
3039 -1878 -3040 0
3039 -1878 -1885 0
-3039 11191 1878 0
-3039 -1878 1885 3040 0
3040 810 -861 -3041 0
-3040 -810 0
-3040 3041 0
-3040 861 0
-3041 11190 0
-3041 931 1884 0
3041 -11190 -931 0
3041 -11190 -1884 0
-3042 -671 3043 0
-3042 11192 671 0
3042 -671 -3043 0
3042 -11192 671 0
3043 -9802 -1815 0
-3043 9802 0
-3043 1815 0
-3044 -673 3043 0
-3044 11193 673 0
3044 -673 -3043 0
3044 -11193 673 0
-3045 -675 3043 0
-3045 11194 675 0
3045 -675 -3043 0
3045 -11194 675 0
-3046 -678 3043 0
-3046 11195 678 0
3046 -678 -3043 0
3046 -11195 678 0
-3047 -680 3043 0
-3047 11196 680 0
3047 -680 -3043 0
3047 -11196 680 0
-3048 -683 3043 0
-3048 11197 683 0
3048 -683 -3043 0
3048 -11197 683 0
-3049 -685 3043 0
-3049 11198 685 0
3049 -685 -3043 0
3049 -11198 685 0
-3050 -688 3043 0
-3050 11199 688 0
3050 -688 -3043 0
3050 -11199 688 0
3051 -11200 1833 0
3051 10114 -1833 -3052 0
-3051 -1833 3052 0
-3051 11200 1833 0
-3051 -10114 -1833 0
3052 694 -3053 3054 0
3052 -11198 -3053 3054 0
-3052 -3054 0
-3052 3053 0
-3052 11198 -694 0
-3053 11199 692 0
3053 -11199 0
3053 -692 0
-3054 699 3055 3056 0
-3054 -11196 3055 3056 0
3054 -3056 0
3054 -3055 0
3054 11196 -699 0
3055 11197 -697 0
-3055 -11197 0
-3055 697 0
-3056 704 3057 3058 0
-3056 -11194 3057 3058 0
3056 -3058 0
3056 -3057 0
3056 11194 -704 0
3057 11195 -702 0
-3057 -11195 0
-3057 702 0
-3058 -11193 649 0
-3058 -11192 706 0
-3058 -11192 -11193 0
-3058 649 706 0
3058 11193 -706 0
3058 11192 -649 0
3059 -11201 1878 0
3059 810 -1878 -3060 0
-3059 -1878 3060 0
-3059 11201 1878 0
-3059 -810 -1878 0
3060 -11200 -861 -931 0
3060 -11200 -861 -1884 0
-3060 11200 0
-3060 861 0
-3060 931 1884 0
-3061 -671 3062 0
-3061 11202 671 0
3061 -671 -3062 0
3061 -11202 671 0
3062 -9803 -1815 0
-3062 9803 0
-3062 1815 0
-3063 -673 3062 0
-3063 11203 673 0
3063 -673 -3062 0
3063 -11203 673 0
-3064 -675 3062 0
-3064 11204 675 0
3064 -675 -3062 0
3064 -11204 675 0
-3065 -678 3062 0
-3065 11205 678 0
3065 -678 -3062 0
3065 -11205 678 0
-3066 -680 3062 0
-3066 11206 680 0
3066 -680 -3062 0
3066 -11206 680 0
-3067 -683 3062 0
-3067 11207 683 0
3067 -683 -3062 0
3067 -11207 683 0
-3068 -685 3062 0
-3068 11208 685 0
3068 -685 -3062 0
3068 -11208 685 0
-3069 -688 3062 0
-3069 11209 688 0
3069 -688 -3062 0
3069 -11209 688 0
3070 -11210 1833 0
3070 10114 -1833 -3071 0
-3070 -1833 3071 0
-3070 11210 1833 0
-3070 -10114 -1833 0
3071 694 -3072 3073 0
3071 -11208 -3072 3073 0
-3071 -3073 0
-3071 3072 0
-3071 11208 -694 0
-3072 11209 692 0
3072 -11209 0
3072 -692 0
-3073 699 3074 3075 0
-3073 -11206 3074 3075 0
3073 -3075 0
3073 -3074 0
3073 11206 -699 0
3074 11207 -697 0
-3074 -11207 0
-3074 697 0
-3075 704 3076 3077 0
-3075 -11204 3076 3077 0
3075 -3077 0
3075 -3076 0
3075 11204 -704 0
3076 11205 -702 0
-3076 -11205 0
-3076 702 0
-3077 -11203 649 0
-3077 -11202 706 0
-3077 -11202 -11203 0
-3077 649 706 0
3077 11203 -706 0
3077 11202 -649 0
3078 -11211 1878 0
3078 810 -1878 -3079 0
-3078 -1878 3079 0
-3078 11211 1878 0
-3078 -810 -1878 0
3079 -11210 -861 -931 0
3079 -11210 -861 -1884 0
-3079 11210 0
-3079 861 0
-3079 931 1884 0
-3080 -671 3081 0
-3080 11212 671 0
3080 -671 -3081 0
3080 -11212 671 0
3081 -9804 -1815 0
-3081 9804 0
-3081 1815 0
-3082 -673 3081 0
-3082 11213 673 0
3082 -673 -3081 0
3082 -11213 673 0
-3083 -675 3081 0
-3083 11214 675 0
3083 -675 -3081 0
3083 -11214 675 0
-3084 -678 3081 0
-3084 11215 678 0
3084 -678 -3081 0
3084 -11215 678 0
-3085 -680 3081 0
-3085 11216 680 0
3085 -680 -3081 0
3085 -11216 680 0
-3086 -683 3081 0
-3086 11217 683 0
3086 -683 -3081 0
3086 -11217 683 0
-3087 -685 3081 0
-3087 11218 685 0
3087 -685 -3081 0
3087 -11218 685 0
-3088 -688 3081 0
-3088 11219 688 0
3088 -688 -3081 0
3088 -11219 688 0
3089 -11220 1833 0
3089 10114 -1833 -3090 0
-3089 -1833 3090 0
-3089 11220 1833 0
-3089 -10114 -1833 0
3090 694 -3091 3092 0
3090 -11218 -3091 3092 0
-3090 -3092 0
-3090 3091 0
-3090 11218 -694 0
-3091 11219 692 0
3091 -11219 0
3091 -692 0
-3092 699 3093 3094 0
-3092 -11216 3093 3094 0
3092 -3094 0
3092 -3093 0
3092 11216 -699 0
3093 11217 -697 0
-3093 -11217 0
-3093 697 0
-3094 704 3095 3096 0
-3094 -11214 3095 3096 0
3094 -3096 0
3094 -3095 0
3094 11214 -704 0
3095 11215 -702 0
-3095 -11215 0
-3095 702 0
-3096 -11213 649 0
-3096 -11212 706 0
-3096 -11212 -11213 0
-3096 649 706 0
3096 11213 -706 0
3096 11212 -649 0
3097 -11221 1878 0
3097 810 -1878 -3098 0
-3097 -1878 3098 0
-3097 11221 1878 0
-3097 -810 -1878 0
3098 -11220 -861 -931 0
3098 -11220 -861 -1884 0
-3098 11220 0
-3098 861 0
-3098 931 1884 0
-3099 -671 3100 0
-3099 11222 671 0
3099 -671 -3100 0
3099 -11222 671 0
3100 -9805 -1815 0
-3100 9805 0
-3100 1815 0
-3101 -673 3100 0
-3101 11223 673 0
3101 -673 -3100 0
3101 -11223 673 0
-3102 -675 3100 0
-3102 11224 675 0
3102 -675 -3100 0
3102 -11224 675 0
-3103 -678 3100 0
-3103 11225 678 0
3103 -678 -3100 0
3103 -11225 678 0
-3104 -680 3100 0
-3104 11226 680 0
3104 -680 -3100 0
3104 -11226 680 0
-3105 -683 3100 0
-3105 11227 683 0
3105 -683 -3100 0
3105 -11227 683 0
-3106 -685 3100 0
-3106 11228 685 0
3106 -685 -3100 0
3106 -11228 685 0
-3107 -688 3100 0
-3107 11229 688 0
3107 -688 -3100 0
3107 -11229 688 0
3108 -11230 1833 0
3108 10114 -1833 -3109 0
-3108 -1833 3109 0
-3108 11230 1833 0
-3108 -10114 -1833 0
3109 694 -3110 3111 0
3109 -11228 -3110 3111 0
-3109 -3111 0
-3109 3110 0
-3109 11228 -694 0
-3110 11229 692 0
3110 -11229 0
3110 -692 0
-3111 699 3112 3113 0
-3111 -11226 3112 3113 0
3111 -3113 0
3111 -3112 0
3111 11226 -699 0
3112 11227 -697 0
-3112 -11227 0
-3112 697 0
-3113 704 3114 3115 0
-3113 -11224 3114 3115 0
3113 -3115 0
3113 -3114 0
3113 11224 -704 0
3114 11225 -702 0
-3114 -11225 0
-3114 702 0
-3115 -11223 649 0
-3115 -11222 706 0
-3115 -11222 -11223 0
-3115 649 706 0
3115 11223 -706 0
3115 11222 -649 0
3116 -11231 1878 0
3116 810 -1878 -3117 0
-3116 -1878 3117 0
-3116 11231 1878 0
-3116 -810 -1878 0
3117 -11230 -861 -931 0
3117 -11230 -861 -1884 0
-3117 11230 0
-3117 861 0
-3117 931 1884 0
-3118 -671 3119 0
-3118 11232 671 0
3118 -671 -3119 0
3118 -11232 671 0
3119 -9806 -1815 0
-3119 9806 0
-3119 1815 0
-3120 -673 3119 0
-3120 11233 673 0
3120 -673 -3119 0
3120 -11233 673 0
-3121 -675 3119 0
-3121 11234 675 0
3121 -675 -3119 0
3121 -11234 675 0
-3122 -678 3119 0
-3122 11235 678 0
3122 -678 -3119 0
3122 -11235 678 0
-3123 -680 3119 0
-3123 11236 680 0
3123 -680 -3119 0
3123 -11236 680 0
-3124 -683 3119 0
-3124 11237 683 0
3124 -683 -3119 0
3124 -11237 683 0
-3125 -685 3119 0
-3125 11238 685 0
3125 -685 -3119 0
3125 -11238 685 0
-3126 -688 3119 0
-3126 11239 688 0
3126 -688 -3119 0
3126 -11239 688 0
3127 -11240 1833 0
3127 10114 -1833 -3128 0
-3127 -1833 3128 0
-3127 11240 1833 0
-3127 -10114 -1833 0
3128 694 -3129 3130 0
3128 -11238 -3129 3130 0
-3128 -3130 0
-3128 3129 0
-3128 11238 -694 0
-3129 11239 692 0
3129 -11239 0
3129 -692 0
-3130 699 3131 3132 0
-3130 -11236 3131 3132 0
3130 -3132 0
3130 -3131 0
3130 11236 -699 0
3131 11237 -697 0
-3131 -11237 0
-3131 697 0
-3132 704 3133 3134 0
-3132 -11234 3133 3134 0
3132 -3134 0
3132 -3133 0
3132 11234 -704 0
3133 11235 -702 0
-3133 -11235 0
-3133 702 0
-3134 -11233 649 0
-3134 -11232 706 0
-3134 -11232 -11233 0
-3134 649 706 0
3134 11233 -706 0
3134 11232 -649 0
3135 -11241 1878 0
3135 810 -1878 -3136 0
-3135 -1878 3136 0
-3135 11241 1878 0
-3135 -810 -1878 0
3136 -11240 -861 -931 0
3136 -11240 -861 -1884 0
-3136 11240 0
-3136 861 0
-3136 931 1884 0
-3137 -671 3138 0
-3137 11242 671 0
3137 -671 -3138 0
3137 -11242 671 0
3138 -9807 -1815 0
-3138 9807 0
-3138 1815 0
-3139 -673 3138 0
-3139 11243 673 0
3139 -673 -3138 0
3139 -11243 673 0
-3140 -675 3138 0
-3140 11244 675 0
3140 -675 -3138 0
3140 -11244 675 0
-3141 -678 3138 0
-3141 11245 678 0
3141 -678 -3138 0
3141 -11245 678 0
-3142 -680 3138 0
-3142 11246 680 0
3142 -680 -3138 0
3142 -11246 680 0
-3143 -683 3138 0
-3143 11247 683 0
3143 -683 -3138 0
3143 -11247 683 0
-3144 -685 3138 0
-3144 11248 685 0
3144 -685 -3138 0
3144 -11248 685 0
-3145 -688 3138 0
-3145 11249 688 0
3145 -688 -3138 0
3145 -11249 688 0
3146 -11250 1833 0
3146 10114 -1833 -3147 0
-3146 -1833 3147 0
-3146 11250 1833 0
-3146 -10114 -1833 0
3147 694 -3148 3149 0
3147 -11248 -3148 3149 0
-3147 -3149 0
-3147 3148 0
-3147 11248 -694 0
-3148 11249 692 0
3148 -11249 0
3148 -692 0
-3149 699 3150 3151 0
-3149 -11246 3150 3151 0
3149 -3151 0
3149 -3150 0
3149 11246 -699 0
3150 11247 -697 0
-3150 -11247 0
-3150 697 0
-3151 704 3152 3153 0
-3151 -11244 3152 3153 0
3151 -3153 0
3151 -3152 0
3151 11244 -704 0
3152 11245 -702 0
-3152 -11245 0
-3152 702 0
-3153 -11243 649 0
-3153 -11242 706 0
-3153 -11242 -11243 0
-3153 649 706 0
3153 11243 -706 0
3153 11242 -649 0
3154 -11251 1878 0
3154 810 -1878 -3155 0
-3154 -1878 3155 0
-3154 11251 1878 0
-3154 -810 -1878 0
3155 -11250 -861 -931 0
3155 -11250 -861 -1884 0
-3155 11250 0
-3155 861 0
-3155 931 1884 0
-3156 -671 3157 0
-3156 11252 671 0
3156 -671 -3157 0
3156 -11252 671 0
3157 -9808 -1815 0
-3157 9808 0
-3157 1815 0
-3158 -673 3157 0
-3158 11253 673 0
3158 -673 -3157 0
3158 -11253 673 0
-3159 -675 3157 0
-3159 11254 675 0
3159 -675 -3157 0
3159 -11254 675 0
-3160 -678 3157 0
-3160 11255 678 0
3160 -678 -3157 0
3160 -11255 678 0
-3161 -680 3157 0
-3161 11256 680 0
3161 -680 -3157 0
3161 -11256 680 0
-3162 -683 3157 0
-3162 11257 683 0
3162 -683 -3157 0
3162 -11257 683 0
-3163 -685 3157 0
-3163 11258 685 0
3163 -685 -3157 0
3163 -11258 685 0
-3164 -688 3157 0
-3164 11259 688 0
3164 -688 -3157 0
3164 -11259 688 0
3165 -11260 1833 0
3165 10114 -1833 -3166 0
-3165 -1833 3166 0
-3165 11260 1833 0
-3165 -10114 -1833 0
3166 694 -3167 3168 0
3166 -11258 -3167 3168 0
-3166 -3168 0
-3166 3167 0
-3166 11258 -694 0
-3167 11259 692 0
3167 -11259 0
3167 -692 0
-3168 699 3169 3170 0
-3168 -11256 3169 3170 0
3168 -3170 0
3168 -3169 0
3168 11256 -699 0
3169 11257 -697 0
-3169 -11257 0
-3169 697 0
-3170 704 3171 3172 0
-3170 -11254 3171 3172 0
3170 -3172 0
3170 -3171 0
3170 11254 -704 0
3171 11255 -702 0
-3171 -11255 0
-3171 702 0
-3172 -11253 649 0
-3172 -11252 706 0
-3172 -11252 -11253 0
-3172 649 706 0
3172 11253 -706 0
3172 11252 -649 0
3173 -11261 1878 0
3173 810 -1878 -3174 0
-3173 -1878 3174 0
-3173 11261 1878 0
-3173 -810 -1878 0
3174 -11260 -861 -931 0
3174 -11260 -861 -1884 0
-3174 11260 0
-3174 861 0
-3174 931 1884 0
-3175 -671 3176 0
-3175 11262 671 0
3175 -671 -3176 0
3175 -11262 671 0
3176 -9809 -1815 0
-3176 9809 0
-3176 1815 0
-3177 -673 3176 0
-3177 11263 673 0
3177 -673 -3176 0
3177 -11263 673 0
-3178 -675 3176 0
-3178 11264 675 0
3178 -675 -3176 0
3178 -11264 675 0
-3179 -678 3176 0
-3179 11265 678 0
3179 -678 -3176 0
3179 -11265 678 0
-3180 -680 3176 0
-3180 11266 680 0
3180 -680 -3176 0
3180 -11266 680 0
-3181 -683 3176 0
-3181 11267 683 0
3181 -683 -3176 0
3181 -11267 683 0
-3182 -685 3176 0
-3182 11268 685 0
3182 -685 -3176 0
3182 -11268 685 0
-3183 -688 3176 0
-3183 11269 688 0
3183 -688 -3176 0
3183 -11269 688 0
3184 -11270 1833 0
3184 10114 -1833 -3185 0
-3184 -1833 3185 0
-3184 11270 1833 0
-3184 -10114 -1833 0
3185 694 -3186 3187 0
3185 -11268 -3186 3187 0
-3185 -3187 0
-3185 3186 0
-3185 11268 -694 0
-3186 11269 692 0
3186 -11269 0
3186 -692 0
-3187 699 3188 3189 0
-3187 -11266 3188 3189 0
3187 -3189 0
3187 -3188 0
3187 11266 -699 0
3188 11267 -697 0
-3188 -11267 0
-3188 697 0
-3189 704 3190 3191 0
-3189 -11264 3190 3191 0
3189 -3191 0
3189 -3190 0
3189 11264 -704 0
3190 11265 -702 0
-3190 -11265 0
-3190 702 0
-3191 -11263 649 0
-3191 -11262 706 0
-3191 -11262 -11263 0
-3191 649 706 0
3191 11263 -706 0
3191 11262 -649 0
3192 -11271 1878 0
3192 -1878 -3193 0
3192 -1878 -1885 0
-3192 11271 1878 0
-3192 -1878 1885 3193 0
3193 810 -861 -3194 0
-3193 -810 0
-3193 3194 0
-3193 861 0
-3194 11270 0
-3194 931 1884 0
3194 -11270 -931 0
3194 -11270 -1884 0
-3195 -671 3196 0
-3195 11272 671 0
3195 -671 -3196 0
3195 -11272 671 0
3196 -9810 -1815 0
-3196 9810 0
-3196 1815 0
-3197 -673 3196 0
-3197 11273 673 0
3197 -673 -3196 0
3197 -11273 673 0
-3198 -675 3196 0
-3198 11274 675 0
3198 -675 -3196 0
3198 -11274 675 0
-3199 -678 3196 0
-3199 11275 678 0
3199 -678 -3196 0
3199 -11275 678 0
-3200 -680 3196 0
-3200 11276 680 0
3200 -680 -3196 0
3200 -11276 680 0
-3201 -683 3196 0
-3201 11277 683 0
3201 -683 -3196 0
3201 -11277 683 0
-3202 -685 3196 0
-3202 11278 685 0
3202 -685 -3196 0
3202 -11278 685 0
-3203 -688 3196 0
-3203 11279 688 0
3203 -688 -3196 0
3203 -11279 688 0
3204 -11280 1833 0
3204 10114 -1833 -3205 0
-3204 -1833 3205 0
-3204 11280 1833 0
-3204 -10114 -1833 0
3205 694 -3206 3207 0
3205 -11278 -3206 3207 0
-3205 -3207 0
-3205 3206 0
-3205 11278 -694 0
-3206 11279 692 0
3206 -11279 0
3206 -692 0
-3207 699 3208 3209 0
-3207 -11276 3208 3209 0
3207 -3209 0
3207 -3208 0
3207 11276 -699 0
3208 11277 -697 0
-3208 -11277 0
-3208 697 0
-3209 704 3210 3211 0
-3209 -11274 3210 3211 0
3209 -3211 0
3209 -3210 0
3209 11274 -704 0
3210 11275 -702 0
-3210 -11275 0
-3210 702 0
-3211 -11273 649 0
-3211 -11272 706 0
-3211 -11272 -11273 0
-3211 649 706 0
3211 11273 -706 0
3211 11272 -649 0
3212 -11281 1878 0
3212 810 -1878 -3213 0
-3212 -1878 3213 0
-3212 11281 1878 0
-3212 -810 -1878 0
3213 -11280 -861 -931 0
3213 -11280 -861 -1884 0
-3213 11280 0
-3213 861 0
-3213 931 1884 0
-3214 -671 3215 0
-3214 11282 671 0
3214 -671 -3215 0
3214 -11282 671 0
3215 -9811 -1815 0
-3215 9811 0
-3215 1815 0
-3216 -673 3215 0
-3216 11283 673 0
3216 -673 -3215 0
3216 -11283 673 0
-3217 -675 3215 0
-3217 11284 675 0
3217 -675 -3215 0
3217 -11284 675 0
-3218 -678 3215 0
-3218 11285 678 0
3218 -678 -3215 0
3218 -11285 678 0
-3219 -680 3215 0
-3219 11286 680 0
3219 -680 -3215 0
3219 -11286 680 0
-3220 -683 3215 0
-3220 11287 683 0
3220 -683 -3215 0
3220 -11287 683 0
-3221 -685 3215 0
-3221 11288 685 0
3221 -685 -3215 0
3221 -11288 685 0
-3222 -688 3215 0
-3222 11289 688 0
3222 -688 -3215 0
3222 -11289 688 0
3223 -11290 1833 0
3223 10114 -1833 -3224 0
-3223 -1833 3224 0
-3223 11290 1833 0
-3223 -10114 -1833 0
3224 694 -3225 3226 0
3224 -11288 -3225 3226 0
-3224 -3226 0
-3224 3225 0
-3224 11288 -694 0
-3225 11289 692 0
3225 -11289 0
3225 -692 0
-3226 699 3227 3228 0
-3226 -11286 3227 3228 0
3226 -3228 0
3226 -3227 0
3226 11286 -699 0
3227 11287 -697 0
-3227 -11287 0
-3227 697 0
-3228 704 3229 3230 0
-3228 -11284 3229 3230 0
3228 -3230 0
3228 -3229 0
3228 11284 -704 0
3229 11285 -702 0
-3229 -11285 0
-3229 702 0
-3230 -11283 649 0
-3230 -11282 706 0
-3230 -11282 -11283 0
-3230 649 706 0
3230 11283 -706 0
3230 11282 -649 0
3231 -11291 1878 0
3231 810 -1878 -3232 0
-3231 -1878 3232 0
-3231 11291 1878 0
-3231 -810 -1878 0
3232 -11290 -861 -931 0
3232 -11290 -861 -1884 0
-3232 11290 0
-3232 861 0
-3232 931 1884 0
-3233 -671 3234 0
-3233 11292 671 0
3233 -671 -3234 0
3233 -11292 671 0
3234 -9812 -1815 0
-3234 9812 0
-3234 1815 0
-3235 -673 3234 0
-3235 11293 673 0
3235 -673 -3234 0
3235 -11293 673 0
-3236 -675 3234 0
-3236 11294 675 0
3236 -675 -3234 0
3236 -11294 675 0
-3237 -678 3234 0
-3237 11295 678 0
3237 -678 -3234 0
3237 -11295 678 0
-3238 -680 3234 0
-3238 11296 680 0
3238 -680 -3234 0
3238 -11296 680 0
-3239 -683 3234 0
-3239 11297 683 0
3239 -683 -3234 0
3239 -11297 683 0
-3240 -685 3234 0
-3240 11298 685 0
3240 -685 -3234 0
3240 -11298 685 0
-3241 -688 3234 0
-3241 11299 688 0
3241 -688 -3234 0
3241 -11299 688 0
3242 -11300 1833 0
3242 10114 -1833 -3243 0
-3242 -1833 3243 0
-3242 11300 1833 0
-3242 -10114 -1833 0
3243 694 -3244 3245 0
3243 -11298 -3244 3245 0
-3243 -3245 0
-3243 3244 0
-3243 11298 -694 0
-3244 11299 692 0
3244 -11299 0
3244 -692 0
-3245 699 3246 3247 0
-3245 -11296 3246 3247 0
3245 -3247 0
3245 -3246 0
3245 11296 -699 0
3246 11297 -697 0
-3246 -11297 0
-3246 697 0
-3247 704 3248 3249 0
-3247 -11294 3248 3249 0
3247 -3249 0
3247 -3248 0
3247 11294 -704 0
3248 11295 -702 0
-3248 -11295 0
-3248 702 0
-3249 -11293 649 0
-3249 -11292 706 0
-3249 -11292 -11293 0
-3249 649 706 0
3249 11293 -706 0
3249 11292 -649 0
3250 -11301 1878 0
3250 810 -1878 -3251 0
-3250 -1878 3251 0
-3250 11301 1878 0
-3250 -810 -1878 0
3251 -11300 -861 -931 0
3251 -11300 -861 -1884 0
-3251 11300 0
-3251 861 0
-3251 931 1884 0
-3252 -671 3253 0
-3252 11302 671 0
3252 -671 -3253 0
3252 -11302 671 0
3253 -9813 -1815 0
-3253 9813 0
-3253 1815 0
-3254 -673 3253 0
-3254 11303 673 0
3254 -673 -3253 0
3254 -11303 673 0
-3255 -675 3253 0
-3255 11304 675 0
3255 -675 -3253 0
3255 -11304 675 0
-3256 -678 3253 0
-3256 11305 678 0
3256 -678 -3253 0
3256 -11305 678 0
-3257 -680 3253 0
-3257 11306 680 0
3257 -680 -3253 0
3257 -11306 680 0
-3258 -683 3253 0
-3258 11307 683 0
3258 -683 -3253 0
3258 -11307 683 0
-3259 -685 3253 0
-3259 11308 685 0
3259 -685 -3253 0
3259 -11308 685 0
-3260 -688 3253 0
-3260 11309 688 0
3260 -688 -3253 0
3260 -11309 688 0
3261 -11310 1833 0
3261 10114 -1833 -3262 0
-3261 -1833 3262 0
-3261 11310 1833 0
-3261 -10114 -1833 0
3262 694 -3263 3264 0
3262 -11308 -3263 3264 0
-3262 -3264 0
-3262 3263 0
-3262 11308 -694 0
-3263 11309 692 0
3263 -11309 0
3263 -692 0
-3264 699 3265 3266 0
-3264 -11306 3265 3266 0
3264 -3266 0
3264 -3265 0
3264 11306 -699 0
3265 11307 -697 0
-3265 -11307 0
-3265 697 0
-3266 704 3267 3268 0
-3266 -11304 3267 3268 0
3266 -3268 0
3266 -3267 0
3266 11304 -704 0
3267 11305 -702 0
-3267 -11305 0
-3267 702 0
-3268 -11303 649 0
-3268 -11302 706 0
-3268 -11302 -11303 0
-3268 649 706 0
3268 11303 -706 0
3268 11302 -649 0
3269 -11311 1878 0
3269 810 -1878 -3270 0
-3269 -1878 3270 0
-3269 11311 1878 0
-3269 -810 -1878 0
3270 -11310 -861 -931 0
3270 -11310 -861 -1884 0
-3270 11310 0
-3270 861 0
-3270 931 1884 0
-3271 -671 3272 0
-3271 11312 671 0
3271 -671 -3272 0
3271 -11312 671 0
3272 -9814 -1815 0
-3272 9814 0
-3272 1815 0
-3273 -673 3272 0
-3273 11313 673 0
3273 -673 -3272 0
3273 -11313 673 0
-3274 -675 3272 0
-3274 11314 675 0
3274 -675 -3272 0
3274 -11314 675 0
-3275 -678 3272 0
-3275 11315 678 0
3275 -678 -3272 0
3275 -11315 678 0
-3276 -680 3272 0
-3276 11316 680 0
3276 -680 -3272 0
3276 -11316 680 0
-3277 -683 3272 0
-3277 11317 683 0
3277 -683 -3272 0
3277 -11317 683 0
-3278 -685 3272 0
-3278 11318 685 0
3278 -685 -3272 0
3278 -11318 685 0
-3279 -688 3272 0
-3279 11319 688 0
3279 -688 -3272 0
3279 -11319 688 0
3280 -11320 1833 0
3280 10114 -1833 -3281 0
-3280 -1833 3281 0
-3280 11320 1833 0
-3280 -10114 -1833 0
3281 694 -3282 3283 0
3281 -11318 -3282 3283 0
-3281 -3283 0
-3281 3282 0
-3281 11318 -694 0
-3282 11319 692 0
3282 -11319 0
3282 -692 0
-3283 699 3284 3285 0
-3283 -11316 3284 3285 0
3283 -3285 0
3283 -3284 0
3283 11316 -699 0
3284 11317 -697 0
-3284 -11317 0
-3284 697 0
-3285 704 3286 3287 0
-3285 -11314 3286 3287 0
3285 -3287 0
3285 -3286 0
3285 11314 -704 0
3286 11315 -702 0
-3286 -11315 0
-3286 702 0
-3287 -11313 649 0
-3287 -11312 706 0
-3287 -11312 -11313 0
-3287 649 706 0
3287 11313 -706 0
3287 11312 -649 0
3288 -11321 1878 0
3288 810 -1878 -3289 0
-3288 -1878 3289 0
-3288 11321 1878 0
-3288 -810 -1878 0
3289 -11320 -861 -931 0
3289 -11320 -861 -1884 0
-3289 11320 0
-3289 861 0
-3289 931 1884 0
-3290 -671 3291 0
-3290 11322 671 0
3290 -671 -3291 0
3290 -11322 671 0
3291 -9815 -1815 0
-3291 9815 0
-3291 1815 0
-3292 -673 3291 0
-3292 11323 673 0
3292 -673 -3291 0
3292 -11323 673 0
-3293 -675 3291 0
-3293 11324 675 0
3293 -675 -3291 0
3293 -11324 675 0
-3294 -678 3291 0
-3294 11325 678 0
3294 -678 -3291 0
3294 -11325 678 0
-3295 -680 3291 0
-3295 11326 680 0
3295 -680 -3291 0
3295 -11326 680 0
-3296 -683 3291 0
-3296 11327 683 0
3296 -683 -3291 0
3296 -11327 683 0
-3297 -685 3291 0
-3297 11328 685 0
3297 -685 -3291 0
3297 -11328 685 0
-3298 -688 3291 0
-3298 11329 688 0
3298 -688 -3291 0
3298 -11329 688 0
3299 -11330 1833 0
3299 10114 -1833 -3300 0
-3299 -1833 3300 0
-3299 11330 1833 0
-3299 -10114 -1833 0
3300 694 -3301 3302 0
3300 -11328 -3301 3302 0
-3300 -3302 0
-3300 3301 0
-3300 11328 -694 0
-3301 11329 692 0
3301 -11329 0
3301 -692 0
-3302 699 3303 3304 0
-3302 -11326 3303 3304 0
3302 -3304 0
3302 -3303 0
3302 11326 -699 0
3303 11327 -697 0
-3303 -11327 0
-3303 697 0
-3304 704 3305 3306 0
-3304 -11324 3305 3306 0
3304 -3306 0
3304 -3305 0
3304 11324 -704 0
3305 11325 -702 0
-3305 -11325 0
-3305 702 0
-3306 -11323 649 0
-3306 -11322 706 0
-3306 -11322 -11323 0
-3306 649 706 0
3306 11323 -706 0
3306 11322 -649 0
3307 -11331 1878 0
3307 810 -1878 -3308 0
-3307 -1878 3308 0
-3307 11331 1878 0
-3307 -810 -1878 0
3308 -11330 -861 -931 0
3308 -11330 -861 -1884 0
-3308 11330 0
-3308 861 0
-3308 931 1884 0
-3309 -671 3310 0
-3309 11332 671 0
3309 -671 -3310 0
3309 -11332 671 0
3310 -9816 -1815 0
-3310 9816 0
-3310 1815 0
-3311 -673 3310 0
-3311 11333 673 0
3311 -673 -3310 0
3311 -11333 673 0
-3312 -675 3310 0
-3312 11334 675 0
3312 -675 -3310 0
3312 -11334 675 0
-3313 -678 3310 0
-3313 11335 678 0
3313 -678 -3310 0
3313 -11335 678 0
-3314 -680 3310 0
-3314 11336 680 0
3314 -680 -3310 0
3314 -11336 680 0
-3315 -683 3310 0
-3315 11337 683 0
3315 -683 -3310 0
3315 -11337 683 0
-3316 -685 3310 0
-3316 11338 685 0
3316 -685 -3310 0
3316 -11338 685 0
-3317 -688 3310 0
-3317 11339 688 0
3317 -688 -3310 0
3317 -11339 688 0
3318 -11340 1833 0
3318 10114 -1833 -3319 0
-3318 -1833 3319 0
-3318 11340 1833 0
-3318 -10114 -1833 0
3319 694 -3320 3321 0
3319 -11338 -3320 3321 0
-3319 -3321 0
-3319 3320 0
-3319 11338 -694 0
-3320 11339 692 0
3320 -11339 0
3320 -692 0
-3321 699 3322 3323 0
-3321 -11336 3322 3323 0
3321 -3323 0
3321 -3322 0
3321 11336 -699 0
3322 11337 -697 0
-3322 -11337 0
-3322 697 0
-3323 704 3324 3325 0
-3323 -11334 3324 3325 0
3323 -3325 0
3323 -3324 0
3323 11334 -704 0
3324 11335 -702 0
-3324 -11335 0
-3324 702 0
-3325 -11333 649 0
-3325 -11332 706 0
-3325 -11332 -11333 0
-3325 649 706 0
3325 11333 -706 0
3325 11332 -649 0
3326 -11341 1878 0
3326 810 -1878 -3327 0
-3326 -1878 3327 0
-3326 11341 1878 0
-3326 -810 -1878 0
3327 -11340 -861 -931 0
3327 -11340 -861 -1884 0
-3327 11340 0
-3327 861 0
-3327 931 1884 0
-3328 -707 1837 0
-3328 11342 707 0
3328 -707 -1837 0
3328 -11342 707 0
-3329 11343 3330 0
-3329 10566 -3330 0
-3329 869 -3330 0
3329 -11343 3330 0
3329 -10566 -869 -3330 0
3330 -10103 -807 810 1884 0
-3330 -810 0
-3330 -1884 0
-3330 10103 0
-3330 807 0
-3331 11344 3332 0
-3331 -3332 3334 0
3331 -11344 3332 0
3331 -3332 -3334 0
-3332 -810 1879 0
-3332 1879 -3333 0
-3332 10103 1879 0
3332 -1879 0
3332 -10103 810 3333 0
3333 -853 -861 0
3333 807 -861 0
-3333 861 0
-3333 -807 853 0
-3334 810 3335 0
-3334 -810 1885 3337 0
3334 -810 -3337 0
3334 810 -3335 0
3334 -810 -1885 0
3335 -10566 861 0
3335 -861 -3336 0
3335 -10566 1836 0
-3335 10566 861 0
-3335 10566 3336 0
-3335 -861 -1836 3336 0
3336 -11343 -1884 0
-3336 11343 0
-3336 1884 0
3337 -11342 3338 0
-3337 11342 0
-3337 -3338 0
3338 -930 1886 0
-3338 930 0
-3338 -1886 0
-3339 -707 1887 0
-3339 11345 707 0
3339 -707 -1887 0
3339 -11345 707 0
-3340 11346 3330 0
-3340 10586 -3330 0
-3340 869 -3330 0
3340 -11346 3330 0
3340 -10586 -869 -3330 0
-3341 11347 3332 0
-3341 -3332 3342 0
3341 -11347 3332 0
3341 -3332 -3342 0
-3342 -810 -930 0
-3342 810 3343 0
-3342 11345 -810 0
3342 810 -3343 0
3342 -11345 -810 930 0
3343 -10586 861 0
3343 -861 -3344 0
3343 -10586 1836 0
-3343 10586 861 0
-3343 10586 3344 0
-3343 -861 -1836 3344 0
3344 -11346 -1884 0
-3344 11346 0
-3344 1884 0
-3345 -707 1940 0
-3345 11348 707 0
3345 -707 -1940 0
3345 -11348 707 0
-3346 11349 3330 0
-3346 10614 -3330 0
-3346 869 -3330 0
3346 -11349 3330 0
3346 -10614 -869 -3330 0
-3347 11350 3332 0
-3347 -3332 3348 0
3347 -11350 3332 0
3347 -3332 -3348 0
-3348 -810 -930 0
-3348 810 3349 0
-3348 11348 -810 0
3348 810 -3349 0
3348 -11348 -810 930 0
3349 -10614 861 0
3349 -861 -3350 0
3349 -10614 1836 0
-3349 10614 861 0
-3349 10614 3350 0
-3349 -861 -1836 3350 0
3350 -11349 -1884 0
-3350 11349 0
-3350 1884 0
-3351 -707 1992 0
-3351 11351 707 0
3351 -707 -1992 0
3351 -11351 707 0
-3352 11352 3330 0
-3352 10642 -3330 0
-3352 869 -3330 0
3352 -11352 3330 0
3352 -10642 -869 -3330 0
-3353 11353 3332 0
-3353 -3332 3354 0
3353 -11353 3332 0
3353 -3332 -3354 0
-3354 -810 -930 0
-3354 810 3355 0
-3354 11351 -810 0
3354 810 -3355 0
3354 -11351 -810 930 0
3355 -10642 861 0
3355 -861 -3356 0
3355 -10642 1836 0
-3355 10642 861 0
-3355 10642 3356 0
-3355 -861 -1836 3356 0
3356 -11352 -1884 0
-3356 11352 0
-3356 1884 0
-3357 -707 2044 0
-3357 11354 707 0
3357 -707 -2044 0
3357 -11354 707 0
-3358 11355 3330 0
-3358 10670 -3330 0
-3358 869 -3330 0
3358 -11355 3330 0
3358 -10670 -869 -3330 0
-3359 11356 3332 0
-3359 -3332 3360 0
3359 -11356 3332 0
3359 -3332 -3360 0
-3360 -810 -930 0
-3360 810 3361 0
-3360 11354 -810 0
3360 810 -3361 0
3360 -11354 -810 930 0
3361 -10670 861 0
3361 -861 -3362 0
3361 -10670 1836 0
-3361 10670 861 0
-3361 10670 3362 0
-3361 -861 -1836 3362 0
3362 -11355 -1884 0
-3362 11355 0
-3362 1884 0
-3363 -707 2096 0
-3363 11357 707 0
3363 -707 -2096 0
3363 -11357 707 0
-3364 11358 3330 0
-3364 10698 -3330 0
-3364 869 -3330 0
3364 -11358 3330 0
3364 -10698 -869 -3330 0
-3365 11359 3332 0
-3365 -3332 3366 0
3365 -11359 3332 0
3365 -3332 -3366 0
-3366 -810 -930 0
-3366 810 3367 0
-3366 11357 -810 0
3366 810 -3367 0
3366 -11357 -810 930 0
3367 -10698 861 0
3367 -861 -3368 0
3367 -10698 1836 0
-3367 10698 861 0
-3367 10698 3368 0
-3367 -861 -1836 3368 0
3368 -11358 -1884 0
-3368 11358 0
-3368 1884 0
-3369 -707 2148 0
-3369 11360 707 0
3369 -707 -2148 0
3369 -11360 707 0
-3370 11361 3330 0
-3370 10726 -3330 0
-3370 869 -3330 0
3370 -11361 3330 0
3370 -10726 -869 -3330 0
-3371 11362 3332 0
-3371 -3332 3372 0
3371 -11362 3332 0
3371 -3332 -3372 0
-3372 -810 -930 0
-3372 810 3373 0
-3372 11360 -810 0
3372 810 -3373 0
3372 -11360 -810 930 0
3373 -10726 861 0
3373 -861 -3374 0
3373 -10726 1836 0
-3373 10726 861 0
-3373 10726 3374 0
-3373 -861 -1836 3374 0
3374 -11361 -1884 0
-3374 11361 0
-3374 1884 0
-3375 -707 2200 0
-3375 11363 707 0
3375 -707 -2200 0
3375 -11363 707 0
-3376 11364 3330 0
-3376 10754 -3330 0
-3376 869 -3330 0
3376 -11364 3330 0
3376 -10754 -869 -3330 0
-3377 11365 3332 0
-3377 -3332 3378 0
3377 -11365 3332 0
3377 -3332 -3378 0
-3378 -810 -930 0
-3378 810 3379 0
-3378 11363 -810 0
3378 810 -3379 0
3378 -11363 -810 930 0
3379 -10754 861 0
3379 -861 -3380 0
3379 -10754 1836 0
-3379 10754 861 0
-3379 10754 3380 0
-3379 -861 -1836 3380 0
3380 -11364 -1884 0
-3380 11364 0
-3380 1884 0
-3381 -707 2252 0
-3381 11366 707 0
3381 -707 -2252 0
3381 -11366 707 0
-3382 11367 3330 0
-3382 10782 -3330 0
-3382 869 -3330 0
3382 -11367 3330 0
3382 -10782 -869 -3330 0
-3383 11368 3332 0
-3383 -3332 3384 0
3383 -11368 3332 0
3383 -3332 -3384 0
-3384 810 3385 0
-3384 -810 1885 3387 0
3384 -810 -3387 0
3384 810 -3385 0
3384 -810 -1885 0
3385 -10782 861 0
3385 -861 -3386 0
3385 -10782 1836 0
-3385 10782 861 0
-3385 10782 3386 0
-3385 -861 -1836 3386 0
3386 -11367 -1884 0
-3386 11367 0
-3386 1884 0
3387 -11366 3338 0
-3387 11366 0
-3387 -3338 0
-3388 -707 2273 0
-3388 11369 707 0
3388 -707 -2273 0
3388 -11369 707 0
-3389 11370 3330 0
-3389 10793 -3330 0
-3389 869 -3330 0
3389 -11370 3330 0
3389 -10793 -869 -3330 0
-3390 11371 3332 0
-3390 -3332 3391 0
3390 -11371 3332 0
3390 -3332 -3391 0
-3391 -810 -930 0
-3391 810 3392 0
-3391 11369 -810 0
3391 810 -3392 0
3391 -11369 -810 930 0
3392 -10793 861 0
3392 -861 -3393 0
3392 -10793 1836 0
-3392 10793 861 0
-3392 10793 3393 0
-3392 -861 -1836 3393 0
3393 -11370 -1884 0
-3393 11370 0
-3393 1884 0
-3394 -707 2294 0
-3394 11372 707 0
3394 -707 -2294 0
3394 -11372 707 0
-3395 11373 3330 0
-3395 10804 -3330 0
-3395 869 -3330 0
3395 -11373 3330 0
3395 -10804 -869 -3330 0
-3396 11374 3332 0
-3396 -3332 3397 0
3396 -11374 3332 0
3396 -3332 -3397 0
-3397 -810 -930 0
-3397 810 3398 0
-3397 11372 -810 0
3397 810 -3398 0
3397 -11372 -810 930 0
3398 -10804 861 0
3398 -861 -3399 0
3398 -10804 1836 0
-3398 10804 861 0
-3398 10804 3399 0
-3398 -861 -1836 3399 0
3399 -11373 -1884 0
-3399 11373 0
-3399 1884 0
-3400 -707 2315 0
-3400 11375 707 0
3400 -707 -2315 0
3400 -11375 707 0
-3401 11376 3330 0
-3401 10815 -3330 0
-3401 869 -3330 0
3401 -11376 3330 0
3401 -10815 -869 -3330 0
-3402 11377 3332 0
-3402 -3332 3403 0
3402 -11377 3332 0
3402 -3332 -3403 0
-3403 -810 -930 0
-3403 810 3404 0
-3403 11375 -810 0
3403 810 -3404 0
3403 -11375 -810 930 0
3404 -10815 861 0
3404 -861 -3405 0
3404 -10815 1836 0
-3404 10815 861 0
-3404 10815 3405 0
-3404 -861 -1836 3405 0
3405 -11376 -1884 0
-3405 11376 0
-3405 1884 0
-3406 -707 2336 0
-3406 11378 707 0
3406 -707 -2336 0
3406 -11378 707 0
-3407 11379 3330 0
-3407 10826 -3330 0
-3407 869 -3330 0
3407 -11379 3330 0
3407 -10826 -869 -3330 0
-3408 11380 3332 0
-3408 -3332 3409 0
3408 -11380 3332 0
3408 -3332 -3409 0
-3409 -810 -930 0
-3409 810 3410 0
-3409 11378 -810 0
3409 810 -3410 0
3409 -11378 -810 930 0
3410 -10826 861 0
3410 -861 -3411 0
3410 -10826 1836 0
-3410 10826 861 0
-3410 10826 3411 0
-3410 -861 -1836 3411 0
3411 -11379 -1884 0
-3411 11379 0
-3411 1884 0
-3412 -707 2357 0
-3412 11381 707 0
3412 -707 -2357 0
3412 -11381 707 0
-3413 11382 3330 0
-3413 10837 -3330 0
-3413 869 -3330 0
3413 -11382 3330 0
3413 -10837 -869 -3330 0
-3414 11383 3332 0
-3414 -3332 3415 0
3414 -11383 3332 0
3414 -3332 -3415 0
-3415 -810 -930 0
-3415 810 3416 0
-3415 11381 -810 0
3415 810 -3416 0
3415 -11381 -810 930 0
3416 -10837 861 0
3416 -861 -3417 0
3416 -10837 1836 0
-3416 10837 861 0
-3416 10837 3417 0
-3416 -861 -1836 3417 0
3417 -11382 -1884 0
-3417 11382 0
-3417 1884 0
-3418 -707 2378 0
-3418 11384 707 0
3418 -707 -2378 0
3418 -11384 707 0
-3419 11385 3330 0
-3419 10848 -3330 0
-3419 869 -3330 0
3419 -11385 3330 0
3419 -10848 -869 -3330 0
-3420 11386 3332 0
-3420 -3332 3421 0
3420 -11386 3332 0
3420 -3332 -3421 0
-3421 -810 -930 0
-3421 810 3422 0
-3421 11384 -810 0
3421 810 -3422 0
3421 -11384 -810 930 0
3422 -10848 861 0
3422 -861 -3423 0
3422 -10848 1836 0
-3422 10848 861 0
-3422 10848 3423 0
-3422 -861 -1836 3423 0
3423 -11385 -1884 0
-3423 11385 0
-3423 1884 0
-3424 -707 2399 0
-3424 11387 707 0
3424 -707 -2399 0
3424 -11387 707 0
-3425 11388 3330 0
-3425 10859 -3330 0
-3425 869 -3330 0
3425 -11388 3330 0
3425 -10859 -869 -3330 0
-3426 11389 3332 0
-3426 -3332 3427 0
3426 -11389 3332 0
3426 -3332 -3427 0
-3427 -810 -930 0
-3427 810 3428 0
-3427 11387 -810 0
3427 810 -3428 0
3427 -11387 -810 930 0
3428 -10859 861 0
3428 -861 -3429 0
3428 -10859 1836 0
-3428 10859 861 0
-3428 10859 3429 0
-3428 -861 -1836 3429 0
3429 -11388 -1884 0
-3429 11388 0
-3429 1884 0
-3430 -707 2420 0
-3430 11390 707 0
3430 -707 -2420 0
3430 -11390 707 0
-3431 11391 3330 0
-3431 10870 -3330 0
-3431 869 -3330 0
3431 -11391 3330 0
3431 -10870 -869 -3330 0
-3432 11392 3332 0
-3432 -3332 3433 0
3432 -11392 3332 0
3432 -3332 -3433 0
-3433 810 3434 0
-3433 -810 1885 3436 0
3433 -810 -3436 0
3433 810 -3434 0
3433 -810 -1885 0
3434 -10870 861 0
3434 -861 -3435 0
3434 -10870 1836 0
-3434 10870 861 0
-3434 10870 3435 0
-3434 -861 -1836 3435 0
3435 -11391 -1884 0
-3435 11391 0
-3435 1884 0
3436 -11390 3338 0
-3436 11390 0
-3436 -3338 0
-3437 -707 2440 0
-3437 11393 707 0
3437 -707 -2440 0
3437 -11393 707 0
-3438 11394 3330 0
-3438 10880 -3330 0
-3438 869 -3330 0
3438 -11394 3330 0
3438 -10880 -869 -3330 0
-3439 11395 3332 0
-3439 -3332 3440 0
3439 -11395 3332 0
3439 -3332 -3440 0
-3440 -810 -930 0
-3440 810 3441 0
-3440 11393 -810 0
3440 810 -3441 0
3440 -11393 -810 930 0
3441 -10880 861 0
3441 -861 -3442 0
3441 -10880 1836 0
-3441 10880 861 0
-3441 10880 3442 0
-3441 -861 -1836 3442 0
3442 -11394 -1884 0
-3442 11394 0
-3442 1884 0
-3443 -707 2459 0
-3443 11396 707 0
3443 -707 -2459 0
3443 -11396 707 0
-3444 11397 3330 0
-3444 10890 -3330 0
-3444 869 -3330 0
3444 -11397 3330 0
3444 -10890 -869 -3330 0
-3445 11398 3332 0
-3445 -3332 3446 0
3445 -11398 3332 0
3445 -3332 -3446 0
-3446 -810 -930 0
-3446 810 3447 0
-3446 11396 -810 0
3446 810 -3447 0
3446 -11396 -810 930 0
3447 -10890 861 0
3447 -861 -3448 0
3447 -10890 1836 0
-3447 10890 861 0
-3447 10890 3448 0
-3447 -861 -1836 3448 0
3448 -11397 -1884 0
-3448 11397 0
-3448 1884 0
-3449 -707 2478 0
-3449 11399 707 0
3449 -707 -2478 0
3449 -11399 707 0
-3450 11400 3330 0
-3450 10900 -3330 0
-3450 869 -3330 0
3450 -11400 3330 0
3450 -10900 -869 -3330 0
-3451 11401 3332 0
-3451 -3332 3452 0
3451 -11401 3332 0
3451 -3332 -3452 0
-3452 -810 -930 0
-3452 810 3453 0
-3452 11399 -810 0
3452 810 -3453 0
3452 -11399 -810 930 0
3453 -10900 861 0
3453 -861 -3454 0
3453 -10900 1836 0
-3453 10900 861 0
-3453 10900 3454 0
-3453 -861 -1836 3454 0
3454 -11400 -1884 0
-3454 11400 0
-3454 1884 0
-3455 -707 2497 0
-3455 11402 707 0
3455 -707 -2497 0
3455 -11402 707 0
-3456 11403 3330 0
-3456 10910 -3330 0
-3456 869 -3330 0
3456 -11403 3330 0
3456 -10910 -869 -3330 0
-3457 11404 3332 0
-3457 -3332 3458 0
3457 -11404 3332 0
3457 -3332 -3458 0
-3458 -810 -930 0
-3458 810 3459 0
-3458 11402 -810 0
3458 810 -3459 0
3458 -11402 -810 930 0
3459 -10910 861 0
3459 -861 -3460 0
3459 -10910 1836 0
-3459 10910 861 0
-3459 10910 3460 0
-3459 -861 -1836 3460 0
3460 -11403 -1884 0
-3460 11403 0
-3460 1884 0
-3461 -707 2516 0
-3461 11405 707 0
3461 -707 -2516 0
3461 -11405 707 0
-3462 11406 3330 0
-3462 10920 -3330 0
-3462 869 -3330 0
3462 -11406 3330 0
3462 -10920 -869 -3330 0
-3463 11407 3332 0
-3463 -3332 3464 0
3463 -11407 3332 0
3463 -3332 -3464 0
-3464 -810 -930 0
-3464 810 3465 0
-3464 11405 -810 0
3464 810 -3465 0
3464 -11405 -810 930 0
3465 -10920 861 0
3465 -861 -3466 0
3465 -10920 1836 0
-3465 10920 861 0
-3465 10920 3466 0
-3465 -861 -1836 3466 0
3466 -11406 -1884 0
-3466 11406 0
-3466 1884 0
-3467 -707 2535 0
-3467 11408 707 0
3467 -707 -2535 0
3467 -11408 707 0
-3468 11409 3330 0
-3468 10930 -3330 0
-3468 869 -3330 0
3468 -11409 3330 0
3468 -10930 -869 -3330 0
-3469 11410 3332 0
-3469 -3332 3470 0
3469 -11410 3332 0
3469 -3332 -3470 0
-3470 -810 -930 0
-3470 810 3471 0
-3470 11408 -810 0
3470 810 -3471 0
3470 -11408 -810 930 0
3471 -10930 861 0
3471 -861 -3472 0
3471 -10930 1836 0
-3471 10930 861 0
-3471 10930 3472 0
-3471 -861 -1836 3472 0
3472 -11409 -1884 0
-3472 11409 0
-3472 1884 0
-3473 -707 2554 0
-3473 11411 707 0
3473 -707 -2554 0
3473 -11411 707 0
-3474 11412 3330 0
-3474 10940 -3330 0
-3474 869 -3330 0
3474 -11412 3330 0
3474 -10940 -869 -3330 0
-3475 11413 3332 0
-3475 -3332 3476 0
3475 -11413 3332 0
3475 -3332 -3476 0
-3476 -810 -930 0
-3476 810 3477 0
-3476 11411 -810 0
3476 810 -3477 0
3476 -11411 -810 930 0
3477 -10940 861 0
3477 -861 -3478 0
3477 -10940 1836 0
-3477 10940 861 0
-3477 10940 3478 0
-3477 -861 -1836 3478 0
3478 -11412 -1884 0
-3478 11412 0
-3478 1884 0
-3479 -707 2573 0
-3479 11414 707 0
3479 -707 -2573 0
3479 -11414 707 0
-3480 11415 3330 0
-3480 10950 -3330 0
-3480 869 -3330 0
3480 -11415 3330 0
3480 -10950 -869 -3330 0
-3481 11416 3332 0
-3481 -3332 3482 0
3481 -11416 3332 0
3481 -3332 -3482 0
-3482 810 3483 0
-3482 -810 1885 3485 0
3482 -810 -3485 0
3482 810 -3483 0
3482 -810 -1885 0
3483 -10950 861 0
3483 -861 -3484 0
3483 -10950 1836 0
-3483 10950 861 0
-3483 10950 3484 0
-3483 -861 -1836 3484 0
3484 -11415 -1884 0
-3484 11415 0
-3484 1884 0
3485 -11414 3338 0
-3485 11414 0
-3485 -3338 0
-3486 -707 2593 0
-3486 11417 707 0
3486 -707 -2593 0
3486 -11417 707 0
-3487 11418 3330 0
-3487 10960 -3330 0
-3487 869 -3330 0
3487 -11418 3330 0
3487 -10960 -869 -3330 0
-3488 11419 3332 0
-3488 -3332 3489 0
3488 -11419 3332 0
3488 -3332 -3489 0
-3489 -810 -930 0
-3489 810 3490 0
-3489 11417 -810 0
3489 810 -3490 0
3489 -11417 -810 930 0
3490 -10960 861 0
3490 -861 -3491 0
3490 -10960 1836 0
-3490 10960 861 0
-3490 10960 3491 0
-3490 -861 -1836 3491 0
3491 -11418 -1884 0
-3491 11418 0
-3491 1884 0
-3492 -707 2612 0
-3492 11420 707 0
3492 -707 -2612 0
3492 -11420 707 0
-3493 11421 3330 0
-3493 10970 -3330 0
-3493 869 -3330 0
3493 -11421 3330 0
3493 -10970 -869 -3330 0
-3494 11422 3332 0
-3494 -3332 3495 0
3494 -11422 3332 0
3494 -3332 -3495 0
-3495 -810 -930 0
-3495 810 3496 0
-3495 11420 -810 0
3495 810 -3496 0
3495 -11420 -810 930 0
3496 -10970 861 0
3496 -861 -3497 0
3496 -10970 1836 0
-3496 10970 861 0
-3496 10970 3497 0
-3496 -861 -1836 3497 0
3497 -11421 -1884 0
-3497 11421 0
-3497 1884 0
-3498 -707 2631 0
-3498 11423 707 0
3498 -707 -2631 0
3498 -11423 707 0
-3499 11424 3330 0
-3499 10980 -3330 0
-3499 869 -3330 0
3499 -11424 3330 0
3499 -10980 -869 -3330 0
-3500 11425 3332 0
-3500 -3332 3501 0
3500 -11425 3332 0
3500 -3332 -3501 0
-3501 -810 -930 0
-3501 810 3502 0
-3501 11423 -810 0
3501 810 -3502 0
3501 -11423 -810 930 0
3502 -10980 861 0
3502 -861 -3503 0
3502 -10980 1836 0
-3502 10980 861 0
-3502 10980 3503 0
-3502 -861 -1836 3503 0
3503 -11424 -1884 0
-3503 11424 0
-3503 1884 0
-3504 -707 2650 0
-3504 11426 707 0
3504 -707 -2650 0
3504 -11426 707 0
-3505 11427 3330 0
-3505 10990 -3330 0
-3505 869 -3330 0
3505 -11427 3330 0
3505 -10990 -869 -3330 0
-3506 11428 3332 0
-3506 -3332 3507 0
3506 -11428 3332 0
3506 -3332 -3507 0
-3507 -810 -930 0
-3507 810 3508 0
-3507 11426 -810 0
3507 810 -3508 0
3507 -11426 -810 930 0
3508 -10990 861 0
3508 -861 -3509 0
3508 -10990 1836 0
-3508 10990 861 0
-3508 10990 3509 0
-3508 -861 -1836 3509 0
3509 -11427 -1884 0
-3509 11427 0
-3509 1884 0
-3510 -707 2669 0
-3510 11429 707 0
3510 -707 -2669 0
3510 -11429 707 0
-3511 11430 3330 0
-3511 11000 -3330 0
-3511 869 -3330 0
3511 -11430 3330 0
3511 -11000 -869 -3330 0
-3512 11431 3332 0
-3512 -3332 3513 0
3512 -11431 3332 0
3512 -3332 -3513 0
-3513 -810 -930 0
-3513 810 3514 0
-3513 11429 -810 0
3513 810 -3514 0
3513 -11429 -810 930 0
3514 -11000 861 0
3514 -861 -3515 0
3514 -11000 1836 0
-3514 11000 861 0
-3514 11000 3515 0
-3514 -861 -1836 3515 0
3515 -11430 -1884 0
-3515 11430 0
-3515 1884 0
-3516 -707 2688 0
-3516 11432 707 0
3516 -707 -2688 0
3516 -11432 707 0
-3517 11433 3330 0
-3517 11010 -3330 0
-3517 869 -3330 0
3517 -11433 3330 0
3517 -11010 -869 -3330 0
-3518 11434 3332 0
-3518 -3332 3519 0
3518 -11434 3332 0
3518 -3332 -3519 0
-3519 -810 -930 0
-3519 810 3520 0
-3519 11432 -810 0
3519 810 -3520 0
3519 -11432 -810 930 0
3520 -11010 861 0
3520 -861 -3521 0
3520 -11010 1836 0
-3520 11010 861 0
-3520 11010 3521 0
-3520 -861 -1836 3521 0
3521 -11433 -1884 0
-3521 11433 0
-3521 1884 0
-3522 -707 2707 0
-3522 11435 707 0
3522 -707 -2707 0
3522 -11435 707 0
-3523 11436 3330 0
-3523 11020 -3330 0
-3523 869 -3330 0
3523 -11436 3330 0
3523 -11020 -869 -3330 0
-3524 11437 3332 0
-3524 -3332 3525 0
3524 -11437 3332 0
3524 -3332 -3525 0
-3525 -810 -930 0
-3525 810 3526 0
-3525 11435 -810 0
3525 810 -3526 0
3525 -11435 -810 930 0
3526 -11020 861 0
3526 -861 -3527 0
3526 -11020 1836 0
-3526 11020 861 0
-3526 11020 3527 0
-3526 -861 -1836 3527 0
3527 -11436 -1884 0
-3527 11436 0
-3527 1884 0
-3528 -707 2726 0
-3528 11438 707 0
3528 -707 -2726 0
3528 -11438 707 0
-3529 11439 3330 0
-3529 11030 -3330 0
-3529 869 -3330 0
3529 -11439 3330 0
3529 -11030 -869 -3330 0
-3530 11440 3332 0
-3530 -3332 3531 0
3530 -11440 3332 0
3530 -3332 -3531 0
-3531 810 3532 0
-3531 -810 1885 3534 0
3531 -810 -3534 0
3531 810 -3532 0
3531 -810 -1885 0
3532 -11030 861 0
3532 -861 -3533 0
3532 -11030 1836 0
-3532 11030 861 0
-3532 11030 3533 0
-3532 -861 -1836 3533 0
3533 -11439 -1884 0
-3533 11439 0
-3533 1884 0
3534 -11438 3338 0
-3534 11438 0
-3534 -3338 0
-3535 -707 2746 0
-3535 11441 707 0
3535 -707 -2746 0
3535 -11441 707 0
-3536 11442 3330 0
-3536 11040 -3330 0
-3536 869 -3330 0
3536 -11442 3330 0
3536 -11040 -869 -3330 0
-3537 11443 3332 0
-3537 -3332 3538 0
3537 -11443 3332 0
3537 -3332 -3538 0
-3538 -810 -930 0
-3538 810 3539 0
-3538 11441 -810 0
3538 810 -3539 0
3538 -11441 -810 930 0
3539 -11040 861 0
3539 -861 -3540 0
3539 -11040 1836 0
-3539 11040 861 0
-3539 11040 3540 0
-3539 -861 -1836 3540 0
3540 -11442 -1884 0
-3540 11442 0
-3540 1884 0
-3541 -707 2765 0
-3541 11444 707 0
3541 -707 -2765 0
3541 -11444 707 0
-3542 11445 3330 0
-3542 11050 -3330 0
-3542 869 -3330 0
3542 -11445 3330 0
3542 -11050 -869 -3330 0
-3543 11446 3332 0
-3543 -3332 3544 0
3543 -11446 3332 0
3543 -3332 -3544 0
-3544 -810 -930 0
-3544 810 3545 0
-3544 11444 -810 0
3544 810 -3545 0
3544 -11444 -810 930 0
3545 -11050 861 0
3545 -861 -3546 0
3545 -11050 1836 0
-3545 11050 861 0
-3545 11050 3546 0
-3545 -861 -1836 3546 0
3546 -11445 -1884 0
-3546 11445 0
-3546 1884 0
-3547 -707 2784 0
-3547 11447 707 0
3547 -707 -2784 0
3547 -11447 707 0
-3548 11448 3330 0
-3548 11060 -3330 0
-3548 869 -3330 0
3548 -11448 3330 0
3548 -11060 -869 -3330 0
-3549 11449 3332 0
-3549 -3332 3550 0
3549 -11449 3332 0
3549 -3332 -3550 0
-3550 -810 -930 0
-3550 810 3551 0
-3550 11447 -810 0
3550 810 -3551 0
3550 -11447 -810 930 0
3551 -11060 861 0
3551 -861 -3552 0
3551 -11060 1836 0
-3551 11060 861 0
-3551 11060 3552 0
-3551 -861 -1836 3552 0
3552 -11448 -1884 0
-3552 11448 0
-3552 1884 0
-3553 -707 2803 0
-3553 11450 707 0
3553 -707 -2803 0
3553 -11450 707 0
-3554 11451 3330 0
-3554 11070 -3330 0
-3554 869 -3330 0
3554 -11451 3330 0
3554 -11070 -869 -3330 0
-3555 11452 3332 0
-3555 -3332 3556 0
3555 -11452 3332 0
3555 -3332 -3556 0
-3556 -810 -930 0
-3556 810 3557 0
-3556 11450 -810 0
3556 810 -3557 0
3556 -11450 -810 930 0
3557 -11070 861 0
3557 -861 -3558 0
3557 -11070 1836 0
-3557 11070 861 0
-3557 11070 3558 0
-3557 -861 -1836 3558 0
3558 -11451 -1884 0
-3558 11451 0
-3558 1884 0
-3559 -707 2822 0
-3559 11453 707 0
3559 -707 -2822 0
3559 -11453 707 0
-3560 11454 3330 0
-3560 11080 -3330 0
-3560 869 -3330 0
3560 -11454 3330 0
3560 -11080 -869 -3330 0
-3561 11455 3332 0
-3561 -3332 3562 0
3561 -11455 3332 0
3561 -3332 -3562 0
-3562 -810 -930 0
-3562 810 3563 0
-3562 11453 -810 0
3562 810 -3563 0
3562 -11453 -810 930 0
3563 -11080 861 0
3563 -861 -3564 0
3563 -11080 1836 0
-3563 11080 861 0
-3563 11080 3564 0
-3563 -861 -1836 3564 0
3564 -11454 -1884 0
-3564 11454 0
-3564 1884 0
-3565 -707 2841 0
-3565 11456 707 0
3565 -707 -2841 0
3565 -11456 707 0
-3566 11457 3330 0
-3566 11090 -3330 0
-3566 869 -3330 0
3566 -11457 3330 0
3566 -11090 -869 -3330 0
-3567 11458 3332 0
-3567 -3332 3568 0
3567 -11458 3332 0
3567 -3332 -3568 0
-3568 -810 -930 0
-3568 810 3569 0
-3568 11456 -810 0
3568 810 -3569 0
3568 -11456 -810 930 0
3569 -11090 861 0
3569 -861 -3570 0
3569 -11090 1836 0
-3569 11090 861 0
-3569 11090 3570 0
-3569 -861 -1836 3570 0
3570 -11457 -1884 0
-3570 11457 0
-3570 1884 0
-3571 -707 2860 0
-3571 11459 707 0
3571 -707 -2860 0
3571 -11459 707 0
-3572 11460 3330 0
-3572 11100 -3330 0
-3572 869 -3330 0
3572 -11460 3330 0
3572 -11100 -869 -3330 0
-3573 11461 3332 0
-3573 -3332 3574 0
3573 -11461 3332 0
3573 -3332 -3574 0
-3574 -810 -930 0
-3574 810 3575 0
-3574 11459 -810 0
3574 810 -3575 0
3574 -11459 -810 930 0
3575 -11100 861 0
3575 -861 -3576 0
3575 -11100 1836 0
-3575 11100 861 0
-3575 11100 3576 0
-3575 -861 -1836 3576 0
3576 -11460 -1884 0
-3576 11460 0
-3576 1884 0
-3577 -707 2879 0
-3577 11462 707 0
3577 -707 -2879 0
3577 -11462 707 0
-3578 11463 3330 0
-3578 11110 -3330 0
-3578 869 -3330 0
3578 -11463 3330 0
3578 -11110 -869 -3330 0
-3579 11464 3332 0
-3579 -3332 3580 0
3579 -11464 3332 0
3579 -3332 -3580 0
-3580 810 3581 0
-3580 -810 1885 3583 0
3580 -810 -3583 0
3580 810 -3581 0
3580 -810 -1885 0
3581 -11110 861 0
3581 -861 -3582 0
3581 -11110 1836 0
-3581 11110 861 0
-3581 11110 3582 0
-3581 -861 -1836 3582 0
3582 -11463 -1884 0
-3582 11463 0
-3582 1884 0
3583 -11462 3338 0
-3583 11462 0
-3583 -3338 0
-3584 -707 2899 0
-3584 11465 707 0
3584 -707 -2899 0
3584 -11465 707 0
-3585 11466 3330 0
-3585 11120 -3330 0
-3585 869 -3330 0
3585 -11466 3330 0
3585 -11120 -869 -3330 0
-3586 11467 3332 0
-3586 -3332 3587 0
3586 -11467 3332 0
3586 -3332 -3587 0
-3587 -810 -930 0
-3587 810 3588 0
-3587 11465 -810 0
3587 810 -3588 0
3587 -11465 -810 930 0
3588 -11120 861 0
3588 -861 -3589 0
3588 -11120 1836 0
-3588 11120 861 0
-3588 11120 3589 0
-3588 -861 -1836 3589 0
3589 -11466 -1884 0
-3589 11466 0
-3589 1884 0
-3590 -707 2918 0
-3590 11468 707 0
3590 -707 -2918 0
3590 -11468 707 0
-3591 11469 3330 0
-3591 11130 -3330 0
-3591 869 -3330 0
3591 -11469 3330 0
3591 -11130 -869 -3330 0
-3592 11470 3332 0
-3592 -3332 3593 0
3592 -11470 3332 0
3592 -3332 -3593 0
-3593 -810 -930 0
-3593 810 3594 0
-3593 11468 -810 0
3593 810 -3594 0
3593 -11468 -810 930 0
3594 -11130 861 0
3594 -861 -3595 0
3594 -11130 1836 0
-3594 11130 861 0
-3594 11130 3595 0
-3594 -861 -1836 3595 0
3595 -11469 -1884 0
-3595 11469 0
-3595 1884 0
-3596 -707 2937 0
-3596 11471 707 0
3596 -707 -2937 0
3596 -11471 707 0
-3597 11472 3330 0
-3597 11140 -3330 0
-3597 869 -3330 0
3597 -11472 3330 0
3597 -11140 -869 -3330 0
-3598 11473 3332 0
-3598 -3332 3599 0
3598 -11473 3332 0
3598 -3332 -3599 0
-3599 -810 -930 0
-3599 810 3600 0
-3599 11471 -810 0
3599 810 -3600 0
3599 -11471 -810 930 0
3600 -11140 861 0
3600 -861 -3601 0
3600 -11140 1836 0
-3600 11140 861 0
-3600 11140 3601 0
-3600 -861 -1836 3601 0
3601 -11472 -1884 0
-3601 11472 0
-3601 1884 0
-3602 -707 2956 0
-3602 11474 707 0
3602 -707 -2956 0
3602 -11474 707 0
-3603 11475 3330 0
-3603 11150 -3330 0
-3603 869 -3330 0
3603 -11475 3330 0
3603 -11150 -869 -3330 0
-3604 11476 3332 0
-3604 -3332 3605 0
3604 -11476 3332 0
3604 -3332 -3605 0
-3605 -810 -930 0
-3605 810 3606 0
-3605 11474 -810 0
3605 810 -3606 0
3605 -11474 -810 930 0
3606 -11150 861 0
3606 -861 -3607 0
3606 -11150 1836 0
-3606 11150 861 0
-3606 11150 3607 0
-3606 -861 -1836 3607 0
3607 -11475 -1884 0
-3607 11475 0
-3607 1884 0
-3608 -707 2975 0
-3608 11477 707 0
3608 -707 -2975 0
3608 -11477 707 0
-3609 11478 3330 0
-3609 11160 -3330 0
-3609 869 -3330 0
3609 -11478 3330 0
3609 -11160 -869 -3330 0
-3610 11479 3332 0
-3610 -3332 3611 0
3610 -11479 3332 0
3610 -3332 -3611 0
-3611 -810 -930 0
-3611 810 3612 0
-3611 11477 -810 0
3611 810 -3612 0
3611 -11477 -810 930 0
3612 -11160 861 0
3612 -861 -3613 0
3612 -11160 1836 0
-3612 11160 861 0
-3612 11160 3613 0
-3612 -861 -1836 3613 0
3613 -11478 -1884 0
-3613 11478 0
-3613 1884 0
-3614 -707 2994 0
-3614 11480 707 0
3614 -707 -2994 0
3614 -11480 707 0
-3615 11481 3330 0
-3615 11170 -3330 0
-3615 869 -3330 0
3615 -11481 3330 0
3615 -11170 -869 -3330 0
-3616 11482 3332 0
-3616 -3332 3617 0
3616 -11482 3332 0
3616 -3332 -3617 0
-3617 -810 -930 0
-3617 810 3618 0
-3617 11480 -810 0
3617 810 -3618 0
3617 -11480 -810 930 0
3618 -11170 861 0
3618 -861 -3619 0
3618 -11170 1836 0
-3618 11170 861 0
-3618 11170 3619 0
-3618 -861 -1836 3619 0
3619 -11481 -1884 0
-3619 11481 0
-3619 1884 0
-3620 -707 3013 0
-3620 11483 707 0
3620 -707 -3013 0
3620 -11483 707 0
-3621 11484 3330 0
-3621 11180 -3330 0
-3621 869 -3330 0
3621 -11484 3330 0
3621 -11180 -869 -3330 0
-3622 11485 3332 0
-3622 -3332 3623 0
3622 -11485 3332 0
3622 -3332 -3623 0
-3623 -810 -930 0
-3623 810 3624 0
-3623 11483 -810 0
3623 810 -3624 0
3623 -11483 -810 930 0
3624 -11180 861 0
3624 -861 -3625 0
3624 -11180 1836 0
-3624 11180 861 0
-3624 11180 3625 0
-3624 -861 -1836 3625 0
3625 -11484 -1884 0
-3625 11484 0
-3625 1884 0
-3626 -707 3032 0
-3626 11486 707 0
3626 -707 -3032 0
3626 -11486 707 0
-3627 11487 3330 0
-3627 11190 -3330 0
-3627 869 -3330 0
3627 -11487 3330 0
3627 -11190 -869 -3330 0
-3628 11488 3332 0
-3628 -3332 3629 0
3628 -11488 3332 0
3628 -3332 -3629 0
-3629 810 3630 0
-3629 -810 1885 3632 0
3629 -810 -3632 0
3629 810 -3630 0
3629 -810 -1885 0
3630 -11190 861 0
3630 -861 -3631 0
3630 -11190 1836 0
-3630 11190 861 0
-3630 11190 3631 0
-3630 -861 -1836 3631 0
3631 -11487 -1884 0
-3631 11487 0
-3631 1884 0
3632 -11486 3338 0
-3632 11486 0
-3632 -3338 0
-3633 -707 3052 0
-3633 11489 707 0
3633 -707 -3052 0
3633 -11489 707 0
-3634 11490 3330 0
-3634 11200 -3330 0
-3634 869 -3330 0
3634 -11490 3330 0
3634 -11200 -869 -3330 0
-3635 11491 3332 0
-3635 -3332 3636 0
3635 -11491 3332 0
3635 -3332 -3636 0
-3636 -810 -930 0
-3636 810 3637 0
-3636 11489 -810 0
3636 810 -3637 0
3636 -11489 -810 930 0
3637 -11200 861 0
3637 -861 -3638 0
3637 -11200 1836 0
-3637 11200 861 0
-3637 11200 3638 0
-3637 -861 -1836 3638 0
3638 -11490 -1884 0
-3638 11490 0
-3638 1884 0
-3639 -707 3071 0
-3639 11492 707 0
3639 -707 -3071 0
3639 -11492 707 0
-3640 11493 3330 0
-3640 11210 -3330 0
-3640 869 -3330 0
3640 -11493 3330 0
3640 -11210 -869 -3330 0
-3641 11494 3332 0
-3641 -3332 3642 0
3641 -11494 3332 0
3641 -3332 -3642 0
-3642 -810 -930 0
-3642 810 3643 0
-3642 11492 -810 0
3642 810 -3643 0
3642 -11492 -810 930 0
3643 -11210 861 0
3643 -861 -3644 0
3643 -11210 1836 0
-3643 11210 861 0
-3643 11210 3644 0
-3643 -861 -1836 3644 0
3644 -11493 -1884 0
-3644 11493 0
-3644 1884 0
-3645 -707 3090 0
-3645 11495 707 0
3645 -707 -3090 0
3645 -11495 707 0
-3646 11496 3330 0
-3646 11220 -3330 0
-3646 869 -3330 0
3646 -11496 3330 0
3646 -11220 -869 -3330 0
-3647 11497 3332 0
-3647 -3332 3648 0
3647 -11497 3332 0
3647 -3332 -3648 0
-3648 -810 -930 0
-3648 810 3649 0
-3648 11495 -810 0
3648 810 -3649 0
3648 -11495 -810 930 0
3649 -11220 861 0
3649 -861 -3650 0
3649 -11220 1836 0
-3649 11220 861 0
-3649 11220 3650 0
-3649 -861 -1836 3650 0
3650 -11496 -1884 0
-3650 11496 0
-3650 1884 0
-3651 -707 3109 0
-3651 11498 707 0
3651 -707 -3109 0
3651 -11498 707 0
-3652 11499 3330 0
-3652 11230 -3330 0
-3652 869 -3330 0
3652 -11499 3330 0
3652 -11230 -869 -3330 0
-3653 11500 3332 0
-3653 -3332 3654 0
3653 -11500 3332 0
3653 -3332 -3654 0
-3654 -810 -930 0
-3654 810 3655 0
-3654 11498 -810 0
3654 810 -3655 0
3654 -11498 -810 930 0
3655 -11230 861 0
3655 -861 -3656 0
3655 -11230 1836 0
-3655 11230 861 0
-3655 11230 3656 0
-3655 -861 -1836 3656 0
3656 -11499 -1884 0
-3656 11499 0
-3656 1884 0
-3657 -707 3128 0
-3657 11501 707 0
3657 -707 -3128 0
3657 -11501 707 0
-3658 11502 3330 0
-3658 11240 -3330 0
-3658 869 -3330 0
3658 -11502 3330 0
3658 -11240 -869 -3330 0
-3659 11503 3332 0
-3659 -3332 3660 0
3659 -11503 3332 0
3659 -3332 -3660 0
-3660 -810 -930 0
-3660 810 3661 0
-3660 11501 -810 0
3660 810 -3661 0
3660 -11501 -810 930 0
3661 -11240 861 0
3661 -861 -3662 0
3661 -11240 1836 0
-3661 11240 861 0
-3661 11240 3662 0
-3661 -861 -1836 3662 0
3662 -11502 -1884 0
-3662 11502 0
-3662 1884 0
-3663 -707 3147 0
-3663 11504 707 0
3663 -707 -3147 0
3663 -11504 707 0
-3664 11505 3330 0
-3664 11250 -3330 0
-3664 869 -3330 0
3664 -11505 3330 0
3664 -11250 -869 -3330 0
-3665 11506 3332 0
-3665 -3332 3666 0
3665 -11506 3332 0
3665 -3332 -3666 0
-3666 -810 -930 0
-3666 810 3667 0
-3666 11504 -810 0
3666 810 -3667 0
3666 -11504 -810 930 0
3667 -11250 861 0
3667 -861 -3668 0
3667 -11250 1836 0
-3667 11250 861 0
-3667 11250 3668 0
-3667 -861 -1836 3668 0
3668 -11505 -1884 0
-3668 11505 0
-3668 1884 0
-3669 -707 3166 0
-3669 11507 707 0
3669 -707 -3166 0
3669 -11507 707 0
-3670 11508 3330 0
-3670 11260 -3330 0
-3670 869 -3330 0
3670 -11508 3330 0
3670 -11260 -869 -3330 0
-3671 11509 3332 0
-3671 -3332 3672 0
3671 -11509 3332 0
3671 -3332 -3672 0
-3672 -810 -930 0
-3672 810 3673 0
-3672 11507 -810 0
3672 810 -3673 0
3672 -11507 -810 930 0
3673 -11260 861 0
3673 -861 -3674 0
3673 -11260 1836 0
-3673 11260 861 0
-3673 11260 3674 0
-3673 -861 -1836 3674 0
3674 -11508 -1884 0
-3674 11508 0
-3674 1884 0
-3675 -707 3185 0
-3675 11510 707 0
3675 -707 -3185 0
3675 -11510 707 0
-3676 11511 3330 0
-3676 11270 -3330 0
-3676 869 -3330 0
3676 -11511 3330 0
3676 -11270 -869 -3330 0
-3677 11512 3332 0
-3677 -3332 3678 0
3677 -11512 3332 0
3677 -3332 -3678 0
-3678 810 3679 0
-3678 -810 1885 3681 0
3678 -810 -3681 0
3678 810 -3679 0
3678 -810 -1885 0
3679 -11270 861 0
3679 -861 -3680 0
3679 -11270 1836 0
-3679 11270 861 0
-3679 11270 3680 0
-3679 -861 -1836 3680 0
3680 -11511 -1884 0
-3680 11511 0
-3680 1884 0
3681 -11510 3338 0
-3681 11510 0
-3681 -3338 0
-3682 -707 3205 0
-3682 11513 707 0
3682 -707 -3205 0
3682 -11513 707 0
-3683 11514 3330 0
-3683 11280 -3330 0
-3683 869 -3330 0
3683 -11514 3330 0
3683 -11280 -869 -3330 0
-3684 11515 3332 0
-3684 -3332 3685 0
3684 -11515 3332 0
3684 -3332 -3685 0
-3685 -810 -930 0
-3685 810 3686 0
-3685 11513 -810 0
3685 810 -3686 0
3685 -11513 -810 930 0
3686 -11280 861 0
3686 -861 -3687 0
3686 -11280 1836 0
-3686 11280 861 0
-3686 11280 3687 0
-3686 -861 -1836 3687 0
3687 -11514 -1884 0
-3687 11514 0
-3687 1884 0
-3688 -707 3224 0
-3688 11516 707 0
3688 -707 -3224 0
3688 -11516 707 0
-3689 11517 3330 0
-3689 11290 -3330 0
-3689 869 -3330 0
3689 -11517 3330 0
3689 -11290 -869 -3330 0
-3690 11518 3332 0
-3690 -3332 3691 0
3690 -11518 3332 0
3690 -3332 -3691 0
-3691 -810 -930 0
-3691 810 3692 0
-3691 11516 -810 0
3691 810 -3692 0
3691 -11516 -810 930 0
3692 -11290 861 0
3692 -861 -3693 0
3692 -11290 1836 0
-3692 11290 861 0
-3692 11290 3693 0
-3692 -861 -1836 3693 0
3693 -11517 -1884 0
-3693 11517 0
-3693 1884 0
-3694 -707 3243 0
-3694 11519 707 0
3694 -707 -3243 0
3694 -11519 707 0
-3695 11520 3330 0
-3695 11300 -3330 0
-3695 869 -3330 0
3695 -11520 3330 0
3695 -11300 -869 -3330 0
-3696 11521 3332 0
-3696 -3332 3697 0
3696 -11521 3332 0
3696 -3332 -3697 0
-3697 -810 -930 0
-3697 810 3698 0
-3697 11519 -810 0
3697 810 -3698 0
3697 -11519 -810 930 0
3698 -11300 861 0
3698 -861 -3699 0
3698 -11300 1836 0
-3698 11300 861 0
-3698 11300 3699 0
-3698 -861 -1836 3699 0
3699 -11520 -1884 0
-3699 11520 0
-3699 1884 0
-3700 -707 3262 0
-3700 11522 707 0
3700 -707 -3262 0
3700 -11522 707 0
-3701 11523 3330 0
-3701 11310 -3330 0
-3701 869 -3330 0
3701 -11523 3330 0
3701 -11310 -869 -3330 0
-3702 11524 3332 0
-3702 -3332 3703 0
3702 -11524 3332 0
3702 -3332 -3703 0
-3703 -810 -930 0
-3703 810 3704 0
-3703 11522 -810 0
3703 810 -3704 0
3703 -11522 -810 930 0
3704 -11310 861 0
3704 -861 -3705 0
3704 -11310 1836 0
-3704 11310 861 0
-3704 11310 3705 0
-3704 -861 -1836 3705 0
3705 -11523 -1884 0
-3705 11523 0
-3705 1884 0
-3706 -707 3281 0
-3706 11525 707 0
3706 -707 -3281 0
3706 -11525 707 0
-3707 11526 3330 0
-3707 11320 -3330 0
-3707 869 -3330 0
3707 -11526 3330 0
3707 -11320 -869 -3330 0
-3708 11527 3332 0
-3708 -3332 3709 0
3708 -11527 3332 0
3708 -3332 -3709 0
-3709 -810 -930 0
-3709 810 3710 0
-3709 11525 -810 0
3709 810 -3710 0
3709 -11525 -810 930 0
3710 -11320 861 0
3710 -861 -3711 0
3710 -11320 1836 0
-3710 11320 861 0
-3710 11320 3711 0
-3710 -861 -1836 3711 0
3711 -11526 -1884 0
-3711 11526 0
-3711 1884 0
-3712 -707 3300 0
-3712 11528 707 0
3712 -707 -3300 0
3712 -11528 707 0
-3713 11529 3330 0
-3713 11330 -3330 0
-3713 869 -3330 0
3713 -11529 3330 0
3713 -11330 -869 -3330 0
-3714 11530 3332 0
-3714 -3332 3715 0
3714 -11530 3332 0
3714 -3332 -3715 0
-3715 -810 -930 0
-3715 810 3716 0
-3715 11528 -810 0
3715 810 -3716 0
3715 -11528 -810 930 0
3716 -11330 861 0
3716 -861 -3717 0
3716 -11330 1836 0
-3716 11330 861 0
-3716 11330 3717 0
-3716 -861 -1836 3717 0
3717 -11529 -1884 0
-3717 11529 0
-3717 1884 0
-3718 -707 3319 0
-3718 11531 707 0
3718 -707 -3319 0
3718 -11531 707 0
-3719 11532 3330 0
-3719 11340 -3330 0
-3719 869 -3330 0
3719 -11532 3330 0
3719 -11340 -869 -3330 0
-3720 11533 3332 0
-3720 -3332 3721 0
3720 -11533 3332 0
3720 -3332 -3721 0
-3721 -810 -930 0
-3721 810 3722 0
-3721 11531 -810 0
3721 810 -3722 0
3721 -11531 -810 930 0
3722 -11340 861 0
3722 -861 -3723 0
3722 -11340 1836 0
-3722 11340 861 0
-3722 11340 3723 0
-3722 -861 -1836 3723 0
3723 -11532 -1884 0
-3723 11532 0
-3723 1884 0
-3724 -806 853 0
-3724 11534 806 0
3724 -806 -853 0
3724 -11534 806 0
-3725 -708 0
-3725 11535 806 0
-3725 -806 1884 0
3725 -11535 708 806 0
3725 708 -806 -1884 0
-3726 11536 302 0
-3726 10269 -302 0
3726 -11536 302 0
3726 -10269 -302 0
-3727 11537 304 0
-3727 10269 -304 0
3727 -11537 304 0
3727 -10269 -304 0
-3728 11538 306 0
-3728 10269 -306 0
3728 -11538 306 0
3728 -10269 -306 0
-3729 11539 309 0
-3729 10269 -309 0
3729 -11539 309 0
3729 -10269 -309 0
-3730 11540 311 0
-3730 10269 -311 0
3730 -11540 311 0
3730 -10269 -311 0
-3731 11541 314 0
-3731 10269 -314 0
3731 -11541 314 0
3731 -10269 -314 0
-3732 11542 316 0
-3732 10269 -316 0
3732 -11542 316 0
3732 -10269 -316 0
-3733 11543 319 0
-3733 10269 -319 0
3733 -11543 319 0
3733 -10269 -319 0
3734 -322 324 0
3734 -324 -3735 0
3734 -11544 324 0
-3734 -324 3735 0
-3734 11544 322 324 0
3735 393 -3736 3737 0
3735 -11542 -3736 3737 0
-3735 -3737 0
-3735 3736 0
-3735 11542 -393 0
-3736 11543 389 0
3736 -11543 0
3736 -389 0
-3737 398 3738 3739 0
-3737 -11540 3738 3739 0
3737 -3739 0
3737 -3738 0
3737 11540 -398 0
3738 11541 -394 0
-3738 -11541 0
-3738 394 0
-3739 402 3740 3741 0
-3739 -11538 3740 3741 0
3739 -3741 0
3739 -3740 0
3739 11538 -402 0
3740 11539 -399 0
-3740 -11539 0
-3740 399 0
-3741 -11537 286 0
-3741 -11536 404 0
-3741 -11536 -11537 0
-3741 286 404 0
3741 11537 -404 0
3741 11536 -286 0
-3742 11545 302 0
-3742 10273 -302 0
3742 -11545 302 0
3742 -10273 -302 0
-3743 11546 304 0
-3743 10273 -304 0
3743 -11546 304 0
3743 -10273 -304 0
-3744 11547 306 0
-3744 10273 -306 0
3744 -11547 306 0
3744 -10273 -306 0
-3745 11548 309 0
-3745 10273 -309 0
3745 -11548 309 0
3745 -10273 -309 0
-3746 11549 311 0
-3746 10273 -311 0
3746 -11549 311 0
3746 -10273 -311 0
-3747 11550 314 0
-3747 10273 -314 0
3747 -11550 314 0
3747 -10273 -314 0
-3748 11551 316 0
-3748 10273 -316 0
3748 -11551 316 0
3748 -10273 -316 0
-3749 11552 319 0
-3749 10273 -319 0
3749 -11552 319 0
3749 -10273 -319 0
-3750 -322 324 0
-3750 -324 3751 0
-3750 11553 324 0
3750 -324 -3751 0
3750 -11553 322 324 0
3751 393 -3752 3753 0
3751 -11551 -3752 3753 0
-3751 -3753 0
-3751 3752 0
-3751 11551 -393 0
-3752 11552 389 0
3752 -11552 0
3752 -389 0
-3753 398 3754 3755 0
-3753 -11549 3754 3755 0
3753 -3755 0
3753 -3754 0
3753 11549 -398 0
3754 11550 -394 0
-3754 -11550 0
-3754 394 0
-3755 402 3756 3757 0
-3755 -11547 3756 3757 0
3755 -3757 0
3755 -3756 0
3755 11547 -402 0
3756 11548 -399 0
-3756 -11548 0
-3756 399 0
-3757 -11546 286 0
-3757 -11545 404 0
-3757 -11545 -11546 0
-3757 286 404 0
3757 11546 -404 0
3757 11545 -286 0
-3758 11554 302 0
-3758 10277 -302 0
3758 -11554 302 0
3758 -10277 -302 0
-3759 11555 304 0
-3759 10277 -304 0
3759 -11555 304 0
3759 -10277 -304 0
-3760 11556 306 0
-3760 10277 -306 0
3760 -11556 306 0
3760 -10277 -306 0
-3761 11557 309 0
-3761 10277 -309 0
3761 -11557 309 0
3761 -10277 -309 0
-3762 11558 311 0
-3762 10277 -311 0
3762 -11558 311 0
3762 -10277 -311 0
-3763 11559 314 0
-3763 10277 -314 0
3763 -11559 314 0
3763 -10277 -314 0
-3764 11560 316 0
-3764 10277 -316 0
3764 -11560 316 0
3764 -10277 -316 0
-3765 11561 319 0
-3765 10277 -319 0
3765 -11561 319 0
3765 -10277 -319 0
3766 -322 324 0
3766 -324 -3767 0
3766 -11562 324 0
-3766 -324 3767 0
-3766 11562 322 324 0
3767 393 -3768 3769 0
3767 -11560 -3768 3769 0
-3767 -3769 0
-3767 3768 0
-3767 11560 -393 0
-3768 11561 389 0
3768 -11561 0
3768 -389 0
-3769 398 3770 3771 0
-3769 -11558 3770 3771 0
3769 -3771 0
3769 -3770 0
3769 11558 -398 0
3770 11559 -394 0
-3770 -11559 0
-3770 394 0
-3771 402 3772 3773 0
-3771 -11556 3772 3773 0
3771 -3773 0
3771 -3772 0
3771 11556 -402 0
3772 11557 -399 0
-3772 -11557 0
-3772 399 0
-3773 -11555 286 0
-3773 -11554 404 0
-3773 -11554 -11555 0
-3773 286 404 0
3773 11555 -404 0
3773 11554 -286 0
-3774 11563 302 0
-3774 10281 -302 0
3774 -11563 302 0
3774 -10281 -302 0
-3775 11564 304 0
-3775 10281 -304 0
3775 -11564 304 0
3775 -10281 -304 0
-3776 11565 306 0
-3776 10281 -306 0
3776 -11565 306 0
3776 -10281 -306 0
-3777 11566 309 0
-3777 10281 -309 0
3777 -11566 309 0
3777 -10281 -309 0
-3778 11567 311 0
-3778 10281 -311 0
3778 -11567 311 0
3778 -10281 -311 0
-3779 11568 314 0
-3779 10281 -314 0
3779 -11568 314 0
3779 -10281 -314 0
-3780 11569 316 0
-3780 10281 -316 0
3780 -11569 316 0
3780 -10281 -316 0
-3781 11570 319 0
-3781 10281 -319 0
3781 -11570 319 0
3781 -10281 -319 0
-3782 -322 324 0
-3782 -324 3783 0
-3782 11571 324 0
3782 -324 -3783 0
3782 -11571 322 324 0
3783 393 -3784 3785 0
3783 -11569 -3784 3785 0
-3783 -3785 0
-3783 3784 0
-3783 11569 -393 0
-3784 11570 389 0
3784 -11570 0
3784 -389 0
-3785 398 3786 3787 0
-3785 -11567 3786 3787 0
3785 -3787 0
3785 -3786 0
3785 11567 -398 0
3786 11568 -394 0
-3786 -11568 0
-3786 394 0
-3787 402 3788 3789 0
-3787 -11565 3788 3789 0
3787 -3789 0
3787 -3788 0
3787 11565 -402 0
3788 11566 -399 0
-3788 -11566 0
-3788 399 0
-3789 -11564 286 0
-3789 -11563 404 0
-3789 -11563 -11564 0
-3789 286 404 0
3789 11564 -404 0
3789 11563 -286 0
-3790 11572 302 0
-3790 10285 -302 0
3790 -11572 302 0
3790 -10285 -302 0
-3791 11573 304 0
-3791 10285 -304 0
3791 -11573 304 0
3791 -10285 -304 0
-3792 11574 306 0
-3792 10285 -306 0
3792 -11574 306 0
3792 -10285 -306 0
-3793 11575 309 0
-3793 10285 -309 0
3793 -11575 309 0
3793 -10285 -309 0
-3794 11576 311 0
-3794 10285 -311 0
3794 -11576 311 0
3794 -10285 -311 0
-3795 11577 314 0
-3795 10285 -314 0
3795 -11577 314 0
3795 -10285 -314 0
-3796 11578 316 0
-3796 10285 -316 0
3796 -11578 316 0
3796 -10285 -316 0
-3797 11579 319 0
-3797 10285 -319 0
3797 -11579 319 0
3797 -10285 -319 0
3798 -322 324 0
3798 -324 -3799 0
3798 -11580 324 0
-3798 -324 3799 0
-3798 11580 322 324 0
3799 393 -3800 3801 0
3799 -11578 -3800 3801 0
-3799 -3801 0
-3799 3800 0
-3799 11578 -393 0
-3800 11579 389 0
3800 -11579 0
3800 -389 0
-3801 398 3802 3803 0
-3801 -11576 3802 3803 0
3801 -3803 0
3801 -3802 0
3801 11576 -398 0
3802 11577 -394 0
-3802 -11577 0
-3802 394 0
-3803 402 3804 3805 0
-3803 -11574 3804 3805 0
3803 -3805 0
3803 -3804 0
3803 11574 -402 0
3804 11575 -399 0
-3804 -11575 0
-3804 399 0
-3805 -11573 286 0
-3805 -11572 404 0
-3805 -11572 -11573 0
-3805 286 404 0
3805 11573 -404 0
3805 11572 -286 0
-3806 11581 302 0
-3806 10289 -302 0
3806 -11581 302 0
3806 -10289 -302 0
-3807 11582 304 0
-3807 10289 -304 0
3807 -11582 304 0
3807 -10289 -304 0
-3808 11583 306 0
-3808 10289 -306 0
3808 -11583 306 0
3808 -10289 -306 0
-3809 11584 309 0
-3809 10289 -309 0
3809 -11584 309 0
3809 -10289 -309 0
-3810 11585 311 0
-3810 10289 -311 0
3810 -11585 311 0
3810 -10289 -311 0
-3811 11586 314 0
-3811 10289 -314 0
3811 -11586 314 0
3811 -10289 -314 0
-3812 11587 316 0
-3812 10289 -316 0
3812 -11587 316 0
3812 -10289 -316 0
-3813 11588 319 0
-3813 10289 -319 0
3813 -11588 319 0
3813 -10289 -319 0
-3814 -322 324 0
-3814 -324 3815 0
-3814 11589 324 0
3814 -324 -3815 0
3814 -11589 322 324 0
3815 393 -3816 3817 0
3815 -11587 -3816 3817 0
-3815 -3817 0
-3815 3816 0
-3815 11587 -393 0
-3816 11588 389 0
3816 -11588 0
3816 -389 0
-3817 398 3818 3819 0
-3817 -11585 3818 3819 0
3817 -3819 0
3817 -3818 0
3817 11585 -398 0
3818 11586 -394 0
-3818 -11586 0
-3818 394 0
-3819 402 3820 3821 0
-3819 -11583 3820 3821 0
3819 -3821 0
3819 -3820 0
3819 11583 -402 0
3820 11584 -399 0
-3820 -11584 0
-3820 399 0
-3821 -11582 286 0
-3821 -11581 404 0
-3821 -11581 -11582 0
-3821 286 404 0
3821 11582 -404 0
3821 11581 -286 0
-3822 11590 302 0
-3822 10293 -302 0
3822 -11590 302 0
3822 -10293 -302 0
-3823 11591 304 0
-3823 10293 -304 0
3823 -11591 304 0
3823 -10293 -304 0
-3824 11592 306 0
-3824 10293 -306 0
3824 -11592 306 0
3824 -10293 -306 0
-3825 11593 309 0
-3825 10293 -309 0
3825 -11593 309 0
3825 -10293 -309 0
-3826 11594 311 0
-3826 10293 -311 0
3826 -11594 311 0
3826 -10293 -311 0
-3827 11595 314 0
-3827 10293 -314 0
3827 -11595 314 0
3827 -10293 -314 0
-3828 11596 316 0
-3828 10293 -316 0
3828 -11596 316 0
3828 -10293 -316 0
-3829 11597 319 0
-3829 10293 -319 0
3829 -11597 319 0
3829 -10293 -319 0
3830 -322 324 0
3830 -324 -3831 0
3830 -11598 324 0
-3830 -324 3831 0
-3830 11598 322 324 0
3831 393 -3832 3833 0
3831 -11596 -3832 3833 0
-3831 -3833 0
-3831 3832 0
-3831 11596 -393 0
-3832 11597 389 0
3832 -11597 0
3832 -389 0
-3833 398 3834 3835 0
-3833 -11594 3834 3835 0
3833 -3835 0
3833 -3834 0
3833 11594 -398 0
3834 11595 -394 0
-3834 -11595 0
-3834 394 0
-3835 402 3836 3837 0
-3835 -11592 3836 3837 0
3835 -3837 0
3835 -3836 0
3835 11592 -402 0
3836 11593 -399 0
-3836 -11593 0
-3836 399 0
-3837 -11591 286 0
-3837 -11590 404 0
-3837 -11590 -11591 0
-3837 286 404 0
3837 11591 -404 0
3837 11590 -286 0
-3838 11599 302 0
-3838 10297 -302 0
3838 -11599 302 0
3838 -10297 -302 0
-3839 11600 304 0
-3839 10297 -304 0
3839 -11600 304 0
3839 -10297 -304 0
-3840 11601 306 0
-3840 10297 -306 0
3840 -11601 306 0
3840 -10297 -306 0
-3841 11602 309 0
-3841 10297 -309 0
3841 -11602 309 0
3841 -10297 -309 0
-3842 11603 311 0
-3842 10297 -311 0
3842 -11603 311 0
3842 -10297 -311 0
-3843 11604 314 0
-3843 10297 -314 0
3843 -11604 314 0
3843 -10297 -314 0
-3844 11605 316 0
-3844 10297 -316 0
3844 -11605 316 0
3844 -10297 -316 0
-3845 11606 319 0
-3845 10297 -319 0
3845 -11606 319 0
3845 -10297 -319 0
-3846 -322 324 0
-3846 -324 3847 0
-3846 11607 324 0
3846 -324 -3847 0
3846 -11607 322 324 0
3847 393 -3848 3849 0
3847 -11605 -3848 3849 0
-3847 -3849 0
-3847 3848 0
-3847 11605 -393 0
-3848 11606 389 0
3848 -11606 0
3848 -389 0
-3849 398 3850 3851 0
-3849 -11603 3850 3851 0
3849 -3851 0
3849 -3850 0
3849 11603 -398 0
3850 11604 -394 0
-3850 -11604 0
-3850 394 0
-3851 402 3852 3853 0
-3851 -11601 3852 3853 0
3851 -3853 0
3851 -3852 0
3851 11601 -402 0
3852 11602 -399 0
-3852 -11602 0
-3852 399 0
-3853 -11600 286 0
-3853 -11599 404 0
-3853 -11599 -11600 0
-3853 286 404 0
3853 11600 -404 0
3853 11599 -286 0
-3854 11608 302 0
-3854 10301 -302 0
3854 -11608 302 0
3854 -10301 -302 0
-3855 11609 304 0
-3855 10301 -304 0
3855 -11609 304 0
3855 -10301 -304 0
-3856 11610 306 0
-3856 10301 -306 0
3856 -11610 306 0
3856 -10301 -306 0
-3857 11611 309 0
-3857 10301 -309 0
3857 -11611 309 0
3857 -10301 -309 0
-3858 11612 311 0
-3858 10301 -311 0
3858 -11612 311 0
3858 -10301 -311 0
-3859 11613 314 0
-3859 10301 -314 0
3859 -11613 314 0
3859 -10301 -314 0
-3860 11614 316 0
-3860 10301 -316 0
3860 -11614 316 0
3860 -10301 -316 0
-3861 11615 319 0
-3861 10301 -319 0
3861 -11615 319 0
3861 -10301 -319 0
-3862 -322 324 0
-3862 -324 3863 0
-3862 11616 324 0
3862 -324 -3863 0
3862 -11616 322 324 0
3863 393 -3864 3865 0
3863 -11614 -3864 3865 0
-3863 -3865 0
-3863 3864 0
-3863 11614 -393 0
-3864 11615 389 0
3864 -11615 0
3864 -389 0
-3865 398 3866 3867 0
-3865 -11612 3866 3867 0
3865 -3867 0
3865 -3866 0
3865 11612 -398 0
3866 11613 -394 0
-3866 -11613 0
-3866 394 0
-3867 402 3868 3869 0
-3867 -11610 3868 3869 0
3867 -3869 0
3867 -3868 0
3867 11610 -402 0
3868 11611 -399 0
-3868 -11611 0
-3868 399 0
-3869 -11609 286 0
-3869 -11608 404 0
-3869 -11608 -11609 0
-3869 286 404 0
3869 11609 -404 0
3869 11608 -286 0
-3870 11617 302 0
-3870 10305 -302 0
3870 -11617 302 0
3870 -10305 -302 0
-3871 11618 304 0
-3871 10305 -304 0
3871 -11618 304 0
3871 -10305 -304 0
-3872 11619 306 0
-3872 10305 -306 0
3872 -11619 306 0
3872 -10305 -306 0
-3873 11620 309 0
-3873 10305 -309 0
3873 -11620 309 0
3873 -10305 -309 0
-3874 11621 311 0
-3874 10305 -311 0
3874 -11621 311 0
3874 -10305 -311 0
-3875 11622 314 0
-3875 10305 -314 0
3875 -11622 314 0
3875 -10305 -314 0
-3876 11623 316 0
-3876 10305 -316 0
3876 -11623 316 0
3876 -10305 -316 0
-3877 11624 319 0
-3877 10305 -319 0
3877 -11624 319 0
3877 -10305 -319 0
-3878 -322 324 0
-3878 -324 3879 0
-3878 11625 324 0
3878 -324 -3879 0
3878 -11625 322 324 0
3879 393 -3880 3881 0
3879 -11623 -3880 3881 0
-3879 -3881 0
-3879 3880 0
-3879 11623 -393 0
-3880 11624 389 0
3880 -11624 0
3880 -389 0
-3881 398 3882 3883 0
-3881 -11621 3882 3883 0
3881 -3883 0
3881 -3882 0
3881 11621 -398 0
3882 11622 -394 0
-3882 -11622 0
-3882 394 0
-3883 402 3884 3885 0
-3883 -11619 3884 3885 0
3883 -3885 0
3883 -3884 0
3883 11619 -402 0
3884 11620 -399 0
-3884 -11620 0
-3884 399 0
-3885 -11618 286 0
-3885 -11617 404 0
-3885 -11617 -11618 0
-3885 286 404 0
3885 11618 -404 0
3885 11617 -286 0
-3886 11626 302 0
-3886 10309 -302 0
3886 -11626 302 0
3886 -10309 -302 0
-3887 11627 304 0
-3887 10309 -304 0
3887 -11627 304 0
3887 -10309 -304 0
-3888 11628 306 0
-3888 10309 -306 0
3888 -11628 306 0
3888 -10309 -306 0
-3889 11629 309 0
-3889 10309 -309 0
3889 -11629 309 0
3889 -10309 -309 0
-3890 11630 311 0
-3890 10309 -311 0
3890 -11630 311 0
3890 -10309 -311 0
-3891 11631 314 0
-3891 10309 -314 0
3891 -11631 314 0
3891 -10309 -314 0
-3892 11632 316 0
-3892 10309 -316 0
3892 -11632 316 0
3892 -10309 -316 0
-3893 11633 319 0
-3893 10309 -319 0
3893 -11633 319 0
3893 -10309 -319 0
-3894 -322 324 0
-3894 -324 3895 0
-3894 11634 324 0
3894 -324 -3895 0
3894 -11634 322 324 0
3895 393 -3896 3897 0
3895 -11632 -3896 3897 0
-3895 -3897 0
-3895 3896 0
-3895 11632 -393 0
-3896 11633 389 0
3896 -11633 0
3896 -389 0
-3897 398 3898 3899 0
-3897 -11630 3898 3899 0
3897 -3899 0
3897 -3898 0
3897 11630 -398 0
3898 11631 -394 0
-3898 -11631 0
-3898 394 0
-3899 402 3900 3901 0
-3899 -11628 3900 3901 0
3899 -3901 0
3899 -3900 0
3899 11628 -402 0
3900 11629 -399 0
-3900 -11629 0
-3900 399 0
-3901 -11627 286 0
-3901 -11626 404 0
-3901 -11626 -11627 0
-3901 286 404 0
3901 11627 -404 0
3901 11626 -286 0
-3902 11635 302 0
-3902 10313 -302 0
3902 -11635 302 0
3902 -10313 -302 0
-3903 11636 304 0
-3903 10313 -304 0
3903 -11636 304 0
3903 -10313 -304 0
-3904 11637 306 0
-3904 10313 -306 0
3904 -11637 306 0
3904 -10313 -306 0
-3905 11638 309 0
-3905 10313 -309 0
3905 -11638 309 0
3905 -10313 -309 0
-3906 11639 311 0
-3906 10313 -311 0
3906 -11639 311 0
3906 -10313 -311 0
-3907 11640 314 0
-3907 10313 -314 0
3907 -11640 314 0
3907 -10313 -314 0
-3908 11641 316 0
-3908 10313 -316 0
3908 -11641 316 0
3908 -10313 -316 0
-3909 11642 319 0
-3909 10313 -319 0
3909 -11642 319 0
3909 -10313 -319 0
-3910 -322 324 0
-3910 -324 3911 0
-3910 11643 324 0
3910 -324 -3911 0
3910 -11643 322 324 0
3911 393 -3912 3913 0
3911 -11641 -3912 3913 0
-3911 -3913 0
-3911 3912 0
-3911 11641 -393 0
-3912 11642 389 0
3912 -11642 0
3912 -389 0
-3913 398 3914 3915 0
-3913 -11639 3914 3915 0
3913 -3915 0
3913 -3914 0
3913 11639 -398 0
3914 11640 -394 0
-3914 -11640 0
-3914 394 0
-3915 402 3916 3917 0
-3915 -11637 3916 3917 0
3915 -3917 0
3915 -3916 0
3915 11637 -402 0
3916 11638 -399 0
-3916 -11638 0
-3916 399 0
-3917 -11636 286 0
-3917 -11635 404 0
-3917 -11635 -11636 0
-3917 286 404 0
3917 11636 -404 0
3917 11635 -286 0
-3918 11644 302 0
-3918 10317 -302 0
3918 -11644 302 0
3918 -10317 -302 0
-3919 11645 304 0
-3919 10317 -304 0
3919 -11645 304 0
3919 -10317 -304 0
-3920 11646 306 0
-3920 10317 -306 0
3920 -11646 306 0
3920 -10317 -306 0
-3921 11647 309 0
-3921 10317 -309 0
3921 -11647 309 0
3921 -10317 -309 0
-3922 11648 311 0
-3922 10317 -311 0
3922 -11648 311 0
3922 -10317 -311 0
-3923 11649 314 0
-3923 10317 -314 0
3923 -11649 314 0
3923 -10317 -314 0
-3924 11650 316 0
-3924 10317 -316 0
3924 -11650 316 0
3924 -10317 -316 0
-3925 11651 319 0
-3925 10317 -319 0
3925 -11651 319 0
3925 -10317 -319 0
-3926 -322 324 0
-3926 -324 3927 0
-3926 11652 324 0
3926 -324 -3927 0
3926 -11652 322 324 0
3927 393 -3928 3929 0
3927 -11650 -3928 3929 0
-3927 -3929 0
-3927 3928 0
-3927 11650 -393 0
-3928 11651 389 0
3928 -11651 0
3928 -389 0
-3929 398 3930 3931 0
-3929 -11648 3930 3931 0
3929 -3931 0
3929 -3930 0
3929 11648 -398 0
3930 11649 -394 0
-3930 -11649 0
-3930 394 0
-3931 402 3932 3933 0
-3931 -11646 3932 3933 0
3931 -3933 0
3931 -3932 0
3931 11646 -402 0
3932 11647 -399 0
-3932 -11647 0
-3932 399 0
-3933 -11645 286 0
-3933 -11644 404 0
-3933 -11644 -11645 0
-3933 286 404 0
3933 11645 -404 0
3933 11644 -286 0
-3934 11653 302 0
-3934 10321 -302 0
3934 -11653 302 0
3934 -10321 -302 0
-3935 11654 304 0
-3935 10321 -304 0
3935 -11654 304 0
3935 -10321 -304 0
-3936 11655 306 0
-3936 10321 -306 0
3936 -11655 306 0
3936 -10321 -306 0
-3937 11656 309 0
-3937 10321 -309 0
3937 -11656 309 0
3937 -10321 -309 0
-3938 11657 311 0
-3938 10321 -311 0
3938 -11657 311 0
3938 -10321 -311 0
-3939 11658 314 0
-3939 10321 -314 0
3939 -11658 314 0
3939 -10321 -314 0
-3940 11659 316 0
-3940 10321 -316 0
3940 -11659 316 0
3940 -10321 -316 0
-3941 11660 319 0
-3941 10321 -319 0
3941 -11660 319 0
3941 -10321 -319 0
-3942 -322 324 0
-3942 -324 3943 0
-3942 11661 324 0
3942 -324 -3943 0
3942 -11661 322 324 0
3943 393 -3944 3945 0
3943 -11659 -3944 3945 0
-3943 -3945 0
-3943 3944 0
-3943 11659 -393 0
-3944 11660 389 0
3944 -11660 0
3944 -389 0
-3945 398 3946 3947 0
-3945 -11657 3946 3947 0
3945 -3947 0
3945 -3946 0
3945 11657 -398 0
3946 11658 -394 0
-3946 -11658 0
-3946 394 0
-3947 402 3948 3949 0
-3947 -11655 3948 3949 0
3947 -3949 0
3947 -3948 0
3947 11655 -402 0
3948 11656 -399 0
-3948 -11656 0
-3948 399 0
-3949 -11654 286 0
-3949 -11653 404 0
-3949 -11653 -11654 0
-3949 286 404 0
3949 11654 -404 0
3949 11653 -286 0
-3950 11662 302 0
-3950 10325 -302 0
3950 -11662 302 0
3950 -10325 -302 0
-3951 11663 304 0
-3951 10325 -304 0
3951 -11663 304 0
3951 -10325 -304 0
-3952 11664 306 0
-3952 10325 -306 0
3952 -11664 306 0
3952 -10325 -306 0
-3953 11665 309 0
-3953 10325 -309 0
3953 -11665 309 0
3953 -10325 -309 0
-3954 11666 311 0
-3954 10325 -311 0
3954 -11666 311 0
3954 -10325 -311 0
-3955 11667 314 0
-3955 10325 -314 0
3955 -11667 314 0
3955 -10325 -314 0
-3956 11668 316 0
-3956 10325 -316 0
3956 -11668 316 0
3956 -10325 -316 0
-3957 11669 319 0
-3957 10325 -319 0
3957 -11669 319 0
3957 -10325 -319 0
-3958 -322 324 0
-3958 -324 3959 0
-3958 11670 324 0
3958 -324 -3959 0
3958 -11670 322 324 0
3959 393 -3960 3961 0
3959 -11668 -3960 3961 0
-3959 -3961 0
-3959 3960 0
-3959 11668 -393 0
-3960 11669 389 0
3960 -11669 0
3960 -389 0
-3961 398 3962 3963 0
-3961 -11666 3962 3963 0
3961 -3963 0
3961 -3962 0
3961 11666 -398 0
3962 11667 -394 0
-3962 -11667 0
-3962 394 0
-3963 402 3964 3965 0
-3963 -11664 3964 3965 0
3963 -3965 0
3963 -3964 0
3963 11664 -402 0
3964 11665 -399 0
-3964 -11665 0
-3964 399 0
-3965 -11663 286 0
-3965 -11662 404 0
-3965 -11662 -11663 0
-3965 286 404 0
3965 11663 -404 0
3965 11662 -286 0
-3966 11671 302 0
-3966 10329 -302 0
3966 -11671 302 0
3966 -10329 -302 0
-3967 11672 304 0
-3967 10329 -304 0
3967 -11672 304 0
3967 -10329 -304 0
-3968 11673 306 0
-3968 10329 -306 0
3968 -11673 306 0
3968 -10329 -306 0
-3969 11674 309 0
-3969 10329 -309 0
3969 -11674 309 0
3969 -10329 -309 0
-3970 11675 311 0
-3970 10329 -311 0
3970 -11675 311 0
3970 -10329 -311 0
-3971 11676 314 0
-3971 10329 -314 0
3971 -11676 314 0
3971 -10329 -314 0
-3972 11677 316 0
-3972 10329 -316 0
3972 -11677 316 0
3972 -10329 -316 0
-3973 11678 319 0
-3973 10329 -319 0
3973 -11678 319 0
3973 -10329 -319 0
-3974 -322 324 0
-3974 -324 3975 0
-3974 11679 324 0
3974 -324 -3975 0
3974 -11679 322 324 0
3975 393 -3976 3977 0
3975 -11677 -3976 3977 0
-3975 -3977 0
-3975 3976 0
-3975 11677 -393 0
-3976 11678 389 0
3976 -11678 0
3976 -389 0
-3977 398 3978 3979 0
-3977 -11675 3978 3979 0
3977 -3979 0
3977 -3978 0
3977 11675 -398 0
3978 11676 -394 0
-3978 -11676 0
-3978 394 0
-3979 402 3980 3981 0
-3979 -11673 3980 3981 0
3979 -3981 0
3979 -3980 0
3979 11673 -402 0
3980 11674 -399 0
-3980 -11674 0
-3980 399 0
-3981 -11672 286 0
-3981 -11671 404 0
-3981 -11671 -11672 0
-3981 286 404 0
3981 11672 -404 0
3981 11671 -286 0
-3982 11680 302 0
-3982 10333 -302 0
3982 -11680 302 0
3982 -10333 -302 0
-3983 11681 304 0
-3983 10333 -304 0
3983 -11681 304 0
3983 -10333 -304 0
-3984 11682 306 0
-3984 10333 -306 0
3984 -11682 306 0
3984 -10333 -306 0
-3985 11683 309 0
-3985 10333 -309 0
3985 -11683 309 0
3985 -10333 -309 0
-3986 11684 311 0
-3986 10333 -311 0
3986 -11684 311 0
3986 -10333 -311 0
-3987 11685 314 0
-3987 10333 -314 0
3987 -11685 314 0
3987 -10333 -314 0
-3988 11686 316 0
-3988 10333 -316 0
3988 -11686 316 0
3988 -10333 -316 0
-3989 11687 319 0
-3989 10333 -319 0
3989 -11687 319 0
3989 -10333 -319 0
-3990 -322 324 0
-3990 -324 3991 0
-3990 11688 324 0
3990 -324 -3991 0
3990 -11688 322 324 0
3991 393 -3992 3993 0
3991 -11686 -3992 3993 0
-3991 -3993 0
-3991 3992 0
-3991 11686 -393 0
-3992 11687 389 0
3992 -11687 0
3992 -389 0
-3993 398 3994 3995 0
-3993 -11684 3994 3995 0
3993 -3995 0
3993 -3994 0
3993 11684 -398 0
3994 11685 -394 0
-3994 -11685 0
-3994 394 0
-3995 402 3996 3997 0
-3995 -11682 3996 3997 0
3995 -3997 0
3995 -3996 0
3995 11682 -402 0
3996 11683 -399 0
-3996 -11683 0
-3996 399 0
-3997 -11681 286 0
-3997 -11680 404 0
-3997 -11680 -11681 0
-3997 286 404 0
3997 11681 -404 0
3997 11680 -286 0
-3998 11689 302 0
-3998 10337 -302 0
3998 -11689 302 0
3998 -10337 -302 0
-3999 11690 304 0
-3999 10337 -304 0
3999 -11690 304 0
3999 -10337 -304 0
-4000 11691 306 0
-4000 10337 -306 0
4000 -11691 306 0
4000 -10337 -306 0
-4001 11692 309 0
-4001 10337 -309 0
4001 -11692 309 0
4001 -10337 -309 0
-4002 11693 311 0
-4002 10337 -311 0
4002 -11693 311 0
4002 -10337 -311 0
-4003 11694 314 0
-4003 10337 -314 0
4003 -11694 314 0
4003 -10337 -314 0
-4004 11695 316 0
-4004 10337 -316 0
4004 -11695 316 0
4004 -10337 -316 0
-4005 11696 319 0
-4005 10337 -319 0
4005 -11696 319 0
4005 -10337 -319 0
-4006 -322 324 0
-4006 -324 4007 0
-4006 11697 324 0
4006 -324 -4007 0
4006 -11697 322 324 0
4007 393 -4008 4009 0
4007 -11695 -4008 4009 0
-4007 -4009 0
-4007 4008 0
-4007 11695 -393 0
-4008 11696 389 0
4008 -11696 0
4008 -389 0
-4009 398 4010 4011 0
-4009 -11693 4010 4011 0
4009 -4011 0
4009 -4010 0
4009 11693 -398 0
4010 11694 -394 0
-4010 -11694 0
-4010 394 0
-4011 402 4012 4013 0
-4011 -11691 4012 4013 0
4011 -4013 0
4011 -4012 0
4011 11691 -402 0
4012 11692 -399 0
-4012 -11692 0
-4012 399 0
-4013 -11690 286 0
-4013 -11689 404 0
-4013 -11689 -11690 0
-4013 286 404 0
4013 11690 -404 0
4013 11689 -286 0
-4014 11698 302 0
-4014 10341 -302 0
4014 -11698 302 0
4014 -10341 -302 0
-4015 11699 304 0
-4015 10341 -304 0
4015 -11699 304 0
4015 -10341 -304 0
-4016 11700 306 0
-4016 10341 -306 0
4016 -11700 306 0
4016 -10341 -306 0
-4017 11701 309 0
-4017 10341 -309 0
4017 -11701 309 0
4017 -10341 -309 0
-4018 11702 311 0
-4018 10341 -311 0
4018 -11702 311 0
4018 -10341 -311 0
-4019 11703 314 0
-4019 10341 -314 0
4019 -11703 314 0
4019 -10341 -314 0
-4020 11704 316 0
-4020 10341 -316 0
4020 -11704 316 0
4020 -10341 -316 0
-4021 11705 319 0
-4021 10341 -319 0
4021 -11705 319 0
4021 -10341 -319 0
-4022 -322 324 0
-4022 -324 4023 0
-4022 11706 324 0
4022 -324 -4023 0
4022 -11706 322 324 0
4023 393 -4024 4025 0
4023 -11704 -4024 4025 0
-4023 -4025 0
-4023 4024 0
-4023 11704 -393 0
-4024 11705 389 0
4024 -11705 0
4024 -389 0
-4025 398 4026 4027 0
-4025 -11702 4026 4027 0
4025 -4027 0
4025 -4026 0
4025 11702 -398 0
4026 11703 -394 0
-4026 -11703 0
-4026 394 0
-4027 402 4028 4029 0
-4027 -11700 4028 4029 0
4027 -4029 0
4027 -4028 0
4027 11700 -402 0
4028 11701 -399 0
-4028 -11701 0
-4028 399 0
-4029 -11699 286 0
-4029 -11698 404 0
-4029 -11698 -11699 0
-4029 286 404 0
4029 11699 -404 0
4029 11698 -286 0
-4030 11707 302 0
-4030 10345 -302 0
4030 -11707 302 0
4030 -10345 -302 0
-4031 11708 304 0
-4031 10345 -304 0
4031 -11708 304 0
4031 -10345 -304 0
-4032 11709 306 0
-4032 10345 -306 0
4032 -11709 306 0
4032 -10345 -306 0
-4033 11710 309 0
-4033 10345 -309 0
4033 -11710 309 0
4033 -10345 -309 0
-4034 11711 311 0
-4034 10345 -311 0
4034 -11711 311 0
4034 -10345 -311 0
-4035 11712 314 0
-4035 10345 -314 0
4035 -11712 314 0
4035 -10345 -314 0
-4036 11713 316 0
-4036 10345 -316 0
4036 -11713 316 0
4036 -10345 -316 0
-4037 11714 319 0
-4037 10345 -319 0
4037 -11714 319 0
4037 -10345 -319 0
-4038 -322 324 0
-4038 -324 4039 0
-4038 11715 324 0
4038 -324 -4039 0
4038 -11715 322 324 0
4039 393 -4040 4041 0
4039 -11713 -4040 4041 0
-4039 -4041 0
-4039 4040 0
-4039 11713 -393 0
-4040 11714 389 0
4040 -11714 0
4040 -389 0
-4041 398 4042 4043 0
-4041 -11711 4042 4043 0
4041 -4043 0
4041 -4042 0
4041 11711 -398 0
4042 11712 -394 0
-4042 -11712 0
-4042 394 0
-4043 402 4044 4045 0
-4043 -11709 4044 4045 0
4043 -4045 0
4043 -4044 0
4043 11709 -402 0
4044 11710 -399 0
-4044 -11710 0
-4044 399 0
-4045 -11708 286 0
-4045 -11707 404 0
-4045 -11707 -11708 0
-4045 286 404 0
4045 11708 -404 0
4045 11707 -286 0
-4046 11716 302 0
-4046 10349 -302 0
4046 -11716 302 0
4046 -10349 -302 0
-4047 11717 304 0
-4047 10349 -304 0
4047 -11717 304 0
4047 -10349 -304 0
-4048 11718 306 0
-4048 10349 -306 0
4048 -11718 306 0
4048 -10349 -306 0
-4049 11719 309 0
-4049 10349 -309 0
4049 -11719 309 0
4049 -10349 -309 0
-4050 11720 311 0
-4050 10349 -311 0
4050 -11720 311 0
4050 -10349 -311 0
-4051 11721 314 0
-4051 10349 -314 0
4051 -11721 314 0
4051 -10349 -314 0
-4052 11722 316 0
-4052 10349 -316 0
4052 -11722 316 0
4052 -10349 -316 0
-4053 11723 319 0
-4053 10349 -319 0
4053 -11723 319 0
4053 -10349 -319 0
-4054 -322 324 0
-4054 -324 4055 0
-4054 11724 324 0
4054 -324 -4055 0
4054 -11724 322 324 0
4055 393 -4056 4057 0
4055 -11722 -4056 4057 0
-4055 -4057 0
-4055 4056 0
-4055 11722 -393 0
-4056 11723 389 0
4056 -11723 0
4056 -389 0
-4057 398 4058 4059 0
-4057 -11720 4058 4059 0
4057 -4059 0
4057 -4058 0
4057 11720 -398 0
4058 11721 -394 0
-4058 -11721 0
-4058 394 0
-4059 402 4060 4061 0
-4059 -11718 4060 4061 0
4059 -4061 0
4059 -4060 0
4059 11718 -402 0
4060 11719 -399 0
-4060 -11719 0
-4060 399 0
-4061 -11717 286 0
-4061 -11716 404 0
-4061 -11716 -11717 0
-4061 286 404 0
4061 11717 -404 0
4061 11716 -286 0
-4062 11725 302 0
-4062 10353 -302 0
4062 -11725 302 0
4062 -10353 -302 0
-4063 11726 304 0
-4063 10353 -304 0
4063 -11726 304 0
4063 -10353 -304 0
-4064 11727 306 0
-4064 10353 -306 0
4064 -11727 306 0
4064 -10353 -306 0
-4065 11728 309 0
-4065 10353 -309 0
4065 -11728 309 0
4065 -10353 -309 0
-4066 11729 311 0
-4066 10353 -311 0
4066 -11729 311 0
4066 -10353 -311 0
-4067 11730 314 0
-4067 10353 -314 0
4067 -11730 314 0
4067 -10353 -314 0
-4068 11731 316 0
-4068 10353 -316 0
4068 -11731 316 0
4068 -10353 -316 0
-4069 11732 319 0
-4069 10353 -319 0
4069 -11732 319 0
4069 -10353 -319 0
-4070 -322 324 0
-4070 -324 4071 0
-4070 11733 324 0
4070 -324 -4071 0
4070 -11733 322 324 0
4071 393 -4072 4073 0
4071 -11731 -4072 4073 0
-4071 -4073 0
-4071 4072 0
-4071 11731 -393 0
-4072 11732 389 0
4072 -11732 0
4072 -389 0
-4073 398 4074 4075 0
-4073 -11729 4074 4075 0
4073 -4075 0
4073 -4074 0
4073 11729 -398 0
4074 11730 -394 0
-4074 -11730 0
-4074 394 0
-4075 402 4076 4077 0
-4075 -11727 4076 4077 0
4075 -4077 0
4075 -4076 0
4075 11727 -402 0
4076 11728 -399 0
-4076 -11728 0
-4076 399 0
-4077 -11726 286 0
-4077 -11725 404 0
-4077 -11725 -11726 0
-4077 286 404 0
4077 11726 -404 0
4077 11725 -286 0
-4078 11734 302 0
-4078 10357 -302 0
4078 -11734 302 0
4078 -10357 -302 0
-4079 11735 304 0
-4079 10357 -304 0
4079 -11735 304 0
4079 -10357 -304 0
-4080 11736 306 0
-4080 10357 -306 0
4080 -11736 306 0
4080 -10357 -306 0
-4081 11737 309 0
-4081 10357 -309 0
4081 -11737 309 0
4081 -10357 -309 0
-4082 11738 311 0
-4082 10357 -311 0
4082 -11738 311 0
4082 -10357 -311 0
-4083 11739 314 0
-4083 10357 -314 0
4083 -11739 314 0
4083 -10357 -314 0
-4084 11740 316 0
-4084 10357 -316 0
4084 -11740 316 0
4084 -10357 -316 0
-4085 11741 319 0
-4085 10357 -319 0
4085 -11741 319 0
4085 -10357 -319 0
-4086 -322 324 0
-4086 -324 4087 0
-4086 11742 324 0
4086 -324 -4087 0
4086 -11742 322 324 0
4087 393 -4088 4089 0
4087 -11740 -4088 4089 0
-4087 -4089 0
-4087 4088 0
-4087 11740 -393 0
-4088 11741 389 0
4088 -11741 0
4088 -389 0
-4089 398 4090 4091 0
-4089 -11738 4090 4091 0
4089 -4091 0
4089 -4090 0
4089 11738 -398 0
4090 11739 -394 0
-4090 -11739 0
-4090 394 0
-4091 402 4092 4093 0
-4091 -11736 4092 4093 0
4091 -4093 0
4091 -4092 0
4091 11736 -402 0
4092 11737 -399 0
-4092 -11737 0
-4092 399 0
-4093 -11735 286 0
-4093 -11734 404 0
-4093 -11734 -11735 0
-4093 286 404 0
4093 11735 -404 0
4093 11734 -286 0
-4094 11743 302 0
-4094 10361 -302 0
4094 -11743 302 0
4094 -10361 -302 0
-4095 11744 304 0
-4095 10361 -304 0
4095 -11744 304 0
4095 -10361 -304 0
-4096 11745 306 0
-4096 10361 -306 0
4096 -11745 306 0
4096 -10361 -306 0
-4097 11746 309 0
-4097 10361 -309 0
4097 -11746 309 0
4097 -10361 -309 0
-4098 11747 311 0
-4098 10361 -311 0
4098 -11747 311 0
4098 -10361 -311 0
-4099 11748 314 0
-4099 10361 -314 0
4099 -11748 314 0
4099 -10361 -314 0
-4100 11749 316 0
-4100 10361 -316 0
4100 -11749 316 0
4100 -10361 -316 0
-4101 11750 319 0
-4101 10361 -319 0
4101 -11750 319 0
4101 -10361 -319 0
-4102 -322 324 0
-4102 -324 4103 0
-4102 11751 324 0
4102 -324 -4103 0
4102 -11751 322 324 0
4103 393 -4104 4105 0
4103 -11749 -4104 4105 0
-4103 -4105 0
-4103 4104 0
-4103 11749 -393 0
-4104 11750 389 0
4104 -11750 0
4104 -389 0
-4105 398 4106 4107 0
-4105 -11747 4106 4107 0
4105 -4107 0
4105 -4106 0
4105 11747 -398 0
4106 11748 -394 0
-4106 -11748 0
-4106 394 0
-4107 402 4108 4109 0
-4107 -11745 4108 4109 0
4107 -4109 0
4107 -4108 0
4107 11745 -402 0
4108 11746 -399 0
-4108 -11746 0
-4108 399 0
-4109 -11744 286 0
-4109 -11743 404 0
-4109 -11743 -11744 0
-4109 286 404 0
4109 11744 -404 0
4109 11743 -286 0
-4110 11752 302 0
-4110 10365 -302 0
4110 -11752 302 0
4110 -10365 -302 0
-4111 11753 304 0
-4111 10365 -304 0
4111 -11753 304 0
4111 -10365 -304 0
-4112 11754 306 0
-4112 10365 -306 0
4112 -11754 306 0
4112 -10365 -306 0
-4113 11755 309 0
-4113 10365 -309 0
4113 -11755 309 0
4113 -10365 -309 0
-4114 11756 311 0
-4114 10365 -311 0
4114 -11756 311 0
4114 -10365 -311 0
-4115 11757 314 0
-4115 10365 -314 0
4115 -11757 314 0
4115 -10365 -314 0
-4116 11758 316 0
-4116 10365 -316 0
4116 -11758 316 0
4116 -10365 -316 0
-4117 11759 319 0
-4117 10365 -319 0
4117 -11759 319 0
4117 -10365 -319 0
-4118 -322 324 0
-4118 -324 4119 0
-4118 11760 324 0
4118 -324 -4119 0
4118 -11760 322 324 0
4119 393 -4120 4121 0
4119 -11758 -4120 4121 0
-4119 -4121 0
-4119 4120 0
-4119 11758 -393 0
-4120 11759 389 0
4120 -11759 0
4120 -389 0
-4121 398 4122 4123 0
-4121 -11756 4122 4123 0
4121 -4123 0
4121 -4122 0
4121 11756 -398 0
4122 11757 -394 0
-4122 -11757 0
-4122 394 0
-4123 402 4124 4125 0
-4123 -11754 4124 4125 0
4123 -4125 0
4123 -4124 0
4123 11754 -402 0
4124 11755 -399 0
-4124 -11755 0
-4124 399 0
-4125 -11753 286 0
-4125 -11752 404 0
-4125 -11752 -11753 0
-4125 286 404 0
4125 11753 -404 0
4125 11752 -286 0
-4126 11761 302 0
-4126 10369 -302 0
4126 -11761 302 0
4126 -10369 -302 0
-4127 11762 304 0
-4127 10369 -304 0
4127 -11762 304 0
4127 -10369 -304 0
-4128 11763 306 0
-4128 10369 -306 0
4128 -11763 306 0
4128 -10369 -306 0
-4129 11764 309 0
-4129 10369 -309 0
4129 -11764 309 0
4129 -10369 -309 0
-4130 11765 311 0
-4130 10369 -311 0
4130 -11765 311 0
4130 -10369 -311 0
-4131 11766 314 0
-4131 10369 -314 0
4131 -11766 314 0
4131 -10369 -314 0
-4132 11767 316 0
-4132 10369 -316 0
4132 -11767 316 0
4132 -10369 -316 0
-4133 11768 319 0
-4133 10369 -319 0
4133 -11768 319 0
4133 -10369 -319 0
-4134 -322 324 0
-4134 -324 4135 0
-4134 11769 324 0
4134 -324 -4135 0
4134 -11769 322 324 0
4135 393 -4136 4137 0
4135 -11767 -4136 4137 0
-4135 -4137 0
-4135 4136 0
-4135 11767 -393 0
-4136 11768 389 0
4136 -11768 0
4136 -389 0
-4137 398 4138 4139 0
-4137 -11765 4138 4139 0
4137 -4139 0
4137 -4138 0
4137 11765 -398 0
4138 11766 -394 0
-4138 -11766 0
-4138 394 0
-4139 402 4140 4141 0
-4139 -11763 4140 4141 0
4139 -4141 0
4139 -4140 0
4139 11763 -402 0
4140 11764 -399 0
-4140 -11764 0
-4140 399 0
-4141 -11762 286 0
-4141 -11761 404 0
-4141 -11761 -11762 0
-4141 286 404 0
4141 11762 -404 0
4141 11761 -286 0
-4142 11770 302 0
-4142 10373 -302 0
4142 -11770 302 0
4142 -10373 -302 0
-4143 11771 304 0
-4143 10373 -304 0
4143 -11771 304 0
4143 -10373 -304 0
-4144 11772 306 0
-4144 10373 -306 0
4144 -11772 306 0
4144 -10373 -306 0
-4145 11773 309 0
-4145 10373 -309 0
4145 -11773 309 0
4145 -10373 -309 0
-4146 11774 311 0
-4146 10373 -311 0
4146 -11774 311 0
4146 -10373 -311 0
-4147 11775 314 0
-4147 10373 -314 0
4147 -11775 314 0
4147 -10373 -314 0
-4148 11776 316 0
-4148 10373 -316 0
4148 -11776 316 0
4148 -10373 -316 0
-4149 11777 319 0
-4149 10373 -319 0
4149 -11777 319 0
4149 -10373 -319 0
-4150 -322 324 0
-4150 -324 4151 0
-4150 11778 324 0
4150 -324 -4151 0
4150 -11778 322 324 0
4151 393 -4152 4153 0
4151 -11776 -4152 4153 0
-4151 -4153 0
-4151 4152 0
-4151 11776 -393 0
-4152 11777 389 0
4152 -11777 0
4152 -389 0
-4153 398 4154 4155 0
-4153 -11774 4154 4155 0
4153 -4155 0
4153 -4154 0
4153 11774 -398 0
4154 11775 -394 0
-4154 -11775 0
-4154 394 0
-4155 402 4156 4157 0
-4155 -11772 4156 4157 0
4155 -4157 0
4155 -4156 0
4155 11772 -402 0
4156 11773 -399 0
-4156 -11773 0
-4156 399 0
-4157 -11771 286 0
-4157 -11770 404 0
-4157 -11770 -11771 0
-4157 286 404 0
4157 11771 -404 0
4157 11770 -286 0
-4158 11779 302 0
-4158 10377 -302 0
4158 -11779 302 0
4158 -10377 -302 0
-4159 11780 304 0
-4159 10377 -304 0
4159 -11780 304 0
4159 -10377 -304 0
-4160 11781 306 0
-4160 10377 -306 0
4160 -11781 306 0
4160 -10377 -306 0
-4161 11782 309 0
-4161 10377 -309 0
4161 -11782 309 0
4161 -10377 -309 0
-4162 11783 311 0
-4162 10377 -311 0
4162 -11783 311 0
4162 -10377 -311 0
-4163 11784 314 0
-4163 10377 -314 0
4163 -11784 314 0
4163 -10377 -314 0
-4164 11785 316 0
-4164 10377 -316 0
4164 -11785 316 0
4164 -10377 -316 0
-4165 11786 319 0
-4165 10377 -319 0
4165 -11786 319 0
4165 -10377 -319 0
-4166 -322 324 0
-4166 -324 4167 0
-4166 11787 324 0
4166 -324 -4167 0
4166 -11787 322 324 0
4167 393 -4168 4169 0
4167 -11785 -4168 4169 0
-4167 -4169 0
-4167 4168 0
-4167 11785 -393 0
-4168 11786 389 0
4168 -11786 0
4168 -389 0
-4169 398 4170 4171 0
-4169 -11783 4170 4171 0
4169 -4171 0
4169 -4170 0
4169 11783 -398 0
4170 11784 -394 0
-4170 -11784 0
-4170 394 0
-4171 402 4172 4173 0
-4171 -11781 4172 4173 0
4171 -4173 0
4171 -4172 0
4171 11781 -402 0
4172 11782 -399 0
-4172 -11782 0
-4172 399 0
-4173 -11780 286 0
-4173 -11779 404 0
-4173 -11779 -11780 0
-4173 286 404 0
4173 11780 -404 0
4173 11779 -286 0
-4174 11788 302 0
-4174 10381 -302 0
4174 -11788 302 0
4174 -10381 -302 0
-4175 11789 304 0
-4175 10381 -304 0
4175 -11789 304 0
4175 -10381 -304 0
-4176 11790 306 0
-4176 10381 -306 0
4176 -11790 306 0
4176 -10381 -306 0
-4177 11791 309 0
-4177 10381 -309 0
4177 -11791 309 0
4177 -10381 -309 0
-4178 11792 311 0
-4178 10381 -311 0
4178 -11792 311 0
4178 -10381 -311 0
-4179 11793 314 0
-4179 10381 -314 0
4179 -11793 314 0
4179 -10381 -314 0
-4180 11794 316 0
-4180 10381 -316 0
4180 -11794 316 0
4180 -10381 -316 0
-4181 11795 319 0
-4181 10381 -319 0
4181 -11795 319 0
4181 -10381 -319 0
-4182 -322 324 0
-4182 -324 4183 0
-4182 11796 324 0
4182 -324 -4183 0
4182 -11796 322 324 0
4183 393 -4184 4185 0
4183 -11794 -4184 4185 0
-4183 -4185 0
-4183 4184 0
-4183 11794 -393 0
-4184 11795 389 0
4184 -11795 0
4184 -389 0
-4185 398 4186 4187 0
-4185 -11792 4186 4187 0
4185 -4187 0
4185 -4186 0
4185 11792 -398 0
4186 11793 -394 0
-4186 -11793 0
-4186 394 0
-4187 402 4188 4189 0
-4187 -11790 4188 4189 0
4187 -4189 0
4187 -4188 0
4187 11790 -402 0
4188 11791 -399 0
-4188 -11791 0
-4188 399 0
-4189 -11789 286 0
-4189 -11788 404 0
-4189 -11788 -11789 0
-4189 286 404 0
4189 11789 -404 0
4189 11788 -286 0
-4190 11797 302 0
-4190 10385 -302 0
4190 -11797 302 0
4190 -10385 -302 0
-4191 11798 304 0
-4191 10385 -304 0
4191 -11798 304 0
4191 -10385 -304 0
-4192 11799 306 0
-4192 10385 -306 0
4192 -11799 306 0
4192 -10385 -306 0
-4193 11800 309 0
-4193 10385 -309 0
4193 -11800 309 0
4193 -10385 -309 0
-4194 11801 311 0
-4194 10385 -311 0
4194 -11801 311 0
4194 -10385 -311 0
-4195 11802 314 0
-4195 10385 -314 0
4195 -11802 314 0
4195 -10385 -314 0
-4196 11803 316 0
-4196 10385 -316 0
4196 -11803 316 0
4196 -10385 -316 0
-4197 11804 319 0
-4197 10385 -319 0
4197 -11804 319 0
4197 -10385 -319 0
-4198 -322 324 0
-4198 -324 4199 0
-4198 11805 324 0
4198 -324 -4199 0
4198 -11805 322 324 0
4199 393 -4200 4201 0
4199 -11803 -4200 4201 0
-4199 -4201 0
-4199 4200 0
-4199 11803 -393 0
-4200 11804 389 0
4200 -11804 0
4200 -389 0
-4201 398 4202 4203 0
-4201 -11801 4202 4203 0
4201 -4203 0
4201 -4202 0
4201 11801 -398 0
4202 11802 -394 0
-4202 -11802 0
-4202 394 0
-4203 402 4204 4205 0
-4203 -11799 4204 4205 0
4203 -4205 0
4203 -4204 0
4203 11799 -402 0
4204 11800 -399 0
-4204 -11800 0
-4204 399 0
-4205 -11798 286 0
-4205 -11797 404 0
-4205 -11797 -11798 0
-4205 286 404 0
4205 11798 -404 0
4205 11797 -286 0
-4206 11806 302 0
-4206 10389 -302 0
4206 -11806 302 0
4206 -10389 -302 0
-4207 11807 304 0
-4207 10389 -304 0
4207 -11807 304 0
4207 -10389 -304 0
-4208 11808 306 0
-4208 10389 -306 0
4208 -11808 306 0
4208 -10389 -306 0
-4209 11809 309 0
-4209 10389 -309 0
4209 -11809 309 0
4209 -10389 -309 0
-4210 11810 311 0
-4210 10389 -311 0
4210 -11810 311 0
4210 -10389 -311 0
-4211 11811 314 0
-4211 10389 -314 0
4211 -11811 314 0
4211 -10389 -314 0
-4212 11812 316 0
-4212 10389 -316 0
4212 -11812 316 0
4212 -10389 -316 0
-4213 11813 319 0
-4213 10389 -319 0
4213 -11813 319 0
4213 -10389 -319 0
-4214 -322 324 0
-4214 -324 4215 0
-4214 11814 324 0
4214 -324 -4215 0
4214 -11814 322 324 0
4215 393 -4216 4217 0
4215 -11812 -4216 4217 0
-4215 -4217 0
-4215 4216 0
-4215 11812 -393 0
-4216 11813 389 0
4216 -11813 0
4216 -389 0
-4217 398 4218 4219 0
-4217 -11810 4218 4219 0
4217 -4219 0
4217 -4218 0
4217 11810 -398 0
4218 11811 -394 0
-4218 -11811 0
-4218 394 0
-4219 402 4220 4221 0
-4219 -11808 4220 4221 0
4219 -4221 0
4219 -4220 0
4219 11808 -402 0
4220 11809 -399 0
-4220 -11809 0
-4220 399 0
-4221 -11807 286 0
-4221 -11806 404 0
-4221 -11806 -11807 0
-4221 286 404 0
4221 11807 -404 0
4221 11806 -286 0
-4222 11815 302 0
-4222 10393 -302 0
4222 -11815 302 0
4222 -10393 -302 0
-4223 11816 304 0
-4223 10393 -304 0
4223 -11816 304 0
4223 -10393 -304 0
-4224 11817 306 0
-4224 10393 -306 0
4224 -11817 306 0
4224 -10393 -306 0
-4225 11818 309 0
-4225 10393 -309 0
4225 -11818 309 0
4225 -10393 -309 0
-4226 11819 311 0
-4226 10393 -311 0
4226 -11819 311 0
4226 -10393 -311 0
-4227 11820 314 0
-4227 10393 -314 0
4227 -11820 314 0
4227 -10393 -314 0
-4228 11821 316 0
-4228 10393 -316 0
4228 -11821 316 0
4228 -10393 -316 0
-4229 11822 319 0
-4229 10393 -319 0
4229 -11822 319 0
4229 -10393 -319 0
-4230 -322 324 0
-4230 -324 4231 0
-4230 11823 324 0
4230 -324 -4231 0
4230 -11823 322 324 0
4231 393 -4232 4233 0
4231 -11821 -4232 4233 0
-4231 -4233 0
-4231 4232 0
-4231 11821 -393 0
-4232 11822 389 0
4232 -11822 0
4232 -389 0
-4233 398 4234 4235 0
-4233 -11819 4234 4235 0
4233 -4235 0
4233 -4234 0
4233 11819 -398 0
4234 11820 -394 0
-4234 -11820 0
-4234 394 0
-4235 402 4236 4237 0
-4235 -11817 4236 4237 0
4235 -4237 0
4235 -4236 0
4235 11817 -402 0
4236 11818 -399 0
-4236 -11818 0
-4236 399 0
-4237 -11816 286 0
-4237 -11815 404 0
-4237 -11815 -11816 0
-4237 286 404 0
4237 11816 -404 0
4237 11815 -286 0
-4238 11824 302 0
-4238 10397 -302 0
4238 -11824 302 0
4238 -10397 -302 0
-4239 11825 304 0
-4239 10397 -304 0
4239 -11825 304 0
4239 -10397 -304 0
-4240 11826 306 0
-4240 10397 -306 0
4240 -11826 306 0
4240 -10397 -306 0
-4241 11827 309 0
-4241 10397 -309 0
4241 -11827 309 0
4241 -10397 -309 0
-4242 11828 311 0
-4242 10397 -311 0
4242 -11828 311 0
4242 -10397 -311 0
-4243 11829 314 0
-4243 10397 -314 0
4243 -11829 314 0
4243 -10397 -314 0
-4244 11830 316 0
-4244 10397 -316 0
4244 -11830 316 0
4244 -10397 -316 0
-4245 11831 319 0
-4245 10397 -319 0
4245 -11831 319 0
4245 -10397 -319 0
-4246 -322 324 0
-4246 -324 4247 0
-4246 11832 324 0
4246 -324 -4247 0
4246 -11832 322 324 0
4247 393 -4248 4249 0
4247 -11830 -4248 4249 0
-4247 -4249 0
-4247 4248 0
-4247 11830 -393 0
-4248 11831 389 0
4248 -11831 0
4248 -389 0
-4249 398 4250 4251 0
-4249 -11828 4250 4251 0
4249 -4251 0
4249 -4250 0
4249 11828 -398 0
4250 11829 -394 0
-4250 -11829 0
-4250 394 0
-4251 402 4252 4253 0
-4251 -11826 4252 4253 0
4251 -4253 0
4251 -4252 0
4251 11826 -402 0
4252 11827 -399 0
-4252 -11827 0
-4252 399 0
-4253 -11825 286 0
-4253 -11824 404 0
-4253 -11824 -11825 0
-4253 286 404 0
4253 11825 -404 0
4253 11824 -286 0
-4254 11833 302 0
-4254 10401 -302 0
4254 -11833 302 0
4254 -10401 -302 0
-4255 11834 304 0
-4255 10401 -304 0
4255 -11834 304 0
4255 -10401 -304 0
-4256 11835 306 0
-4256 10401 -306 0
4256 -11835 306 0
4256 -10401 -306 0
-4257 11836 309 0
-4257 10401 -309 0
4257 -11836 309 0
4257 -10401 -309 0
-4258 11837 311 0
-4258 10401 -311 0
4258 -11837 311 0
4258 -10401 -311 0
-4259 11838 314 0
-4259 10401 -314 0
4259 -11838 314 0
4259 -10401 -314 0
-4260 11839 316 0
-4260 10401 -316 0
4260 -11839 316 0
4260 -10401 -316 0
-4261 11840 319 0
-4261 10401 -319 0
4261 -11840 319 0
4261 -10401 -319 0
-4262 -322 324 0
-4262 -324 4263 0
-4262 11841 324 0
4262 -324 -4263 0
4262 -11841 322 324 0
4263 393 -4264 4265 0
4263 -11839 -4264 4265 0
-4263 -4265 0
-4263 4264 0
-4263 11839 -393 0
-4264 11840 389 0
4264 -11840 0
4264 -389 0
-4265 398 4266 4267 0
-4265 -11837 4266 4267 0
4265 -4267 0
4265 -4266 0
4265 11837 -398 0
4266 11838 -394 0
-4266 -11838 0
-4266 394 0
-4267 402 4268 4269 0
-4267 -11835 4268 4269 0
4267 -4269 0
4267 -4268 0
4267 11835 -402 0
4268 11836 -399 0
-4268 -11836 0
-4268 399 0
-4269 -11834 286 0
-4269 -11833 404 0
-4269 -11833 -11834 0
-4269 286 404 0
4269 11834 -404 0
4269 11833 -286 0
-4270 11842 302 0
-4270 10405 -302 0
4270 -11842 302 0
4270 -10405 -302 0
-4271 11843 304 0
-4271 10405 -304 0
4271 -11843 304 0
4271 -10405 -304 0
-4272 11844 306 0
-4272 10405 -306 0
4272 -11844 306 0
4272 -10405 -306 0
-4273 11845 309 0
-4273 10405 -309 0
4273 -11845 309 0
4273 -10405 -309 0
-4274 11846 311 0
-4274 10405 -311 0
4274 -11846 311 0
4274 -10405 -311 0
-4275 11847 314 0
-4275 10405 -314 0
4275 -11847 314 0
4275 -10405 -314 0
-4276 11848 316 0
-4276 10405 -316 0
4276 -11848 316 0
4276 -10405 -316 0
-4277 11849 319 0
-4277 10405 -319 0
4277 -11849 319 0
4277 -10405 -319 0
-4278 -322 324 0
-4278 -324 4279 0
-4278 11850 324 0
4278 -324 -4279 0
4278 -11850 322 324 0
4279 393 -4280 4281 0
4279 -11848 -4280 4281 0
-4279 -4281 0
-4279 4280 0
-4279 11848 -393 0
-4280 11849 389 0
4280 -11849 0
4280 -389 0
-4281 398 4282 4283 0
-4281 -11846 4282 4283 0
4281 -4283 0
4281 -4282 0
4281 11846 -398 0
4282 11847 -394 0
-4282 -11847 0
-4282 394 0
-4283 402 4284 4285 0
-4283 -11844 4284 4285 0
4283 -4285 0
4283 -4284 0
4283 11844 -402 0
4284 11845 -399 0
-4284 -11845 0
-4284 399 0
-4285 -11843 286 0
-4285 -11842 404 0
-4285 -11842 -11843 0
-4285 286 404 0
4285 11843 -404 0
4285 11842 -286 0
-4286 11851 302 0
-4286 10409 -302 0
4286 -11851 302 0
4286 -10409 -302 0
-4287 11852 304 0
-4287 10409 -304 0
4287 -11852 304 0
4287 -10409 -304 0
-4288 11853 306 0
-4288 10409 -306 0
4288 -11853 306 0
4288 -10409 -306 0
-4289 11854 309 0
-4289 10409 -309 0
4289 -11854 309 0
4289 -10409 -309 0
-4290 11855 311 0
-4290 10409 -311 0
4290 -11855 311 0
4290 -10409 -311 0
-4291 11856 314 0
-4291 10409 -314 0
4291 -11856 314 0
4291 -10409 -314 0
-4292 11857 316 0
-4292 10409 -316 0
4292 -11857 316 0
4292 -10409 -316 0
-4293 11858 319 0
-4293 10409 -319 0
4293 -11858 319 0
4293 -10409 -319 0
-4294 -322 324 0
-4294 -324 4295 0
-4294 11859 324 0
4294 -324 -4295 0
4294 -11859 322 324 0
4295 393 -4296 4297 0
4295 -11857 -4296 4297 0
-4295 -4297 0
-4295 4296 0
-4295 11857 -393 0
-4296 11858 389 0
4296 -11858 0
4296 -389 0
-4297 398 4298 4299 0
-4297 -11855 4298 4299 0
4297 -4299 0
4297 -4298 0
4297 11855 -398 0
4298 11856 -394 0
-4298 -11856 0
-4298 394 0
-4299 402 4300 4301 0
-4299 -11853 4300 4301 0
4299 -4301 0
4299 -4300 0
4299 11853 -402 0
4300 11854 -399 0
-4300 -11854 0
-4300 399 0
-4301 -11852 286 0
-4301 -11851 404 0
-4301 -11851 -11852 0
-4301 286 404 0
4301 11852 -404 0
4301 11851 -286 0
-4302 11860 302 0
-4302 10413 -302 0
4302 -11860 302 0
4302 -10413 -302 0
-4303 11861 304 0
-4303 10413 -304 0
4303 -11861 304 0
4303 -10413 -304 0
-4304 11862 306 0
-4304 10413 -306 0
4304 -11862 306 0
4304 -10413 -306 0
-4305 11863 309 0
-4305 10413 -309 0
4305 -11863 309 0
4305 -10413 -309 0
-4306 11864 311 0
-4306 10413 -311 0
4306 -11864 311 0
4306 -10413 -311 0
-4307 11865 314 0
-4307 10413 -314 0
4307 -11865 314 0
4307 -10413 -314 0
-4308 11866 316 0
-4308 10413 -316 0
4308 -11866 316 0
4308 -10413 -316 0
-4309 11867 319 0
-4309 10413 -319 0
4309 -11867 319 0
4309 -10413 -319 0
-4310 -322 324 0
-4310 -324 4311 0
-4310 11868 324 0
4310 -324 -4311 0
4310 -11868 322 324 0
4311 393 -4312 4313 0
4311 -11866 -4312 4313 0
-4311 -4313 0
-4311 4312 0
-4311 11866 -393 0
-4312 11867 389 0
4312 -11867 0
4312 -389 0
-4313 398 4314 4315 0
-4313 -11864 4314 4315 0
4313 -4315 0
4313 -4314 0
4313 11864 -398 0
4314 11865 -394 0
-4314 -11865 0
-4314 394 0
-4315 402 4316 4317 0
-4315 -11862 4316 4317 0
4315 -4317 0
4315 -4316 0
4315 11862 -402 0
4316 11863 -399 0
-4316 -11863 0
-4316 399 0
-4317 -11861 286 0
-4317 -11860 404 0
-4317 -11860 -11861 0
-4317 286 404 0
4317 11861 -404 0
4317 11860 -286 0
-4318 11869 302 0
-4318 10417 -302 0
4318 -11869 302 0
4318 -10417 -302 0
-4319 11870 304 0
-4319 10417 -304 0
4319 -11870 304 0
4319 -10417 -304 0
-4320 11871 306 0
-4320 10417 -306 0
4320 -11871 306 0
4320 -10417 -306 0
-4321 11872 309 0
-4321 10417 -309 0
4321 -11872 309 0
4321 -10417 -309 0
-4322 11873 311 0
-4322 10417 -311 0
4322 -11873 311 0
4322 -10417 -311 0
-4323 11874 314 0
-4323 10417 -314 0
4323 -11874 314 0
4323 -10417 -314 0
-4324 11875 316 0
-4324 10417 -316 0
4324 -11875 316 0
4324 -10417 -316 0
-4325 11876 319 0
-4325 10417 -319 0
4325 -11876 319 0
4325 -10417 -319 0
-4326 -322 324 0
-4326 -324 4327 0
-4326 11877 324 0
4326 -324 -4327 0
4326 -11877 322 324 0
4327 393 -4328 4329 0
4327 -11875 -4328 4329 0
-4327 -4329 0
-4327 4328 0
-4327 11875 -393 0
-4328 11876 389 0
4328 -11876 0
4328 -389 0
-4329 398 4330 4331 0
-4329 -11873 4330 4331 0
4329 -4331 0
4329 -4330 0
4329 11873 -398 0
4330 11874 -394 0
-4330 -11874 0
-4330 394 0
-4331 402 4332 4333 0
-4331 -11871 4332 4333 0
4331 -4333 0
4331 -4332 0
4331 11871 -402 0
4332 11872 -399 0
-4332 -11872 0
-4332 399 0
-4333 -11870 286 0
-4333 -11869 404 0
-4333 -11869 -11870 0
-4333 286 404 0
4333 11870 -404 0
4333 11869 -286 0
-4334 11878 302 0
-4334 10421 -302 0
4334 -11878 302 0
4334 -10421 -302 0
-4335 11879 304 0
-4335 10421 -304 0
4335 -11879 304 0
4335 -10421 -304 0
-4336 11880 306 0
-4336 10421 -306 0
4336 -11880 306 0
4336 -10421 -306 0
-4337 11881 309 0
-4337 10421 -309 0
4337 -11881 309 0
4337 -10421 -309 0
-4338 11882 311 0
-4338 10421 -311 0
4338 -11882 311 0
4338 -10421 -311 0
-4339 11883 314 0
-4339 10421 -314 0
4339 -11883 314 0
4339 -10421 -314 0
-4340 11884 316 0
-4340 10421 -316 0
4340 -11884 316 0
4340 -10421 -316 0
-4341 11885 319 0
-4341 10421 -319 0
4341 -11885 319 0
4341 -10421 -319 0
-4342 -322 324 0
-4342 -324 4343 0
-4342 11886 324 0
4342 -324 -4343 0
4342 -11886 322 324 0
4343 393 -4344 4345 0
4343 -11884 -4344 4345 0
-4343 -4345 0
-4343 4344 0
-4343 11884 -393 0
-4344 11885 389 0
4344 -11885 0
4344 -389 0
-4345 398 4346 4347 0
-4345 -11882 4346 4347 0
4345 -4347 0
4345 -4346 0
4345 11882 -398 0
4346 11883 -394 0
-4346 -11883 0
-4346 394 0
-4347 402 4348 4349 0
-4347 -11880 4348 4349 0
4347 -4349 0
4347 -4348 0
4347 11880 -402 0
4348 11881 -399 0
-4348 -11881 0
-4348 399 0
-4349 -11879 286 0
-4349 -11878 404 0
-4349 -11878 -11879 0
-4349 286 404 0
4349 11879 -404 0
4349 11878 -286 0
-4350 11887 302 0
-4350 10425 -302 0
4350 -11887 302 0
4350 -10425 -302 0
-4351 11888 304 0
-4351 10425 -304 0
4351 -11888 304 0
4351 -10425 -304 0
-4352 11889 306 0
-4352 10425 -306 0
4352 -11889 306 0
4352 -10425 -306 0
-4353 11890 309 0
-4353 10425 -309 0
4353 -11890 309 0
4353 -10425 -309 0
-4354 11891 311 0
-4354 10425 -311 0
4354 -11891 311 0
4354 -10425 -311 0
-4355 11892 314 0
-4355 10425 -314 0
4355 -11892 314 0
4355 -10425 -314 0
-4356 11893 316 0
-4356 10425 -316 0
4356 -11893 316 0
4356 -10425 -316 0
-4357 11894 319 0
-4357 10425 -319 0
4357 -11894 319 0
4357 -10425 -319 0
-4358 -322 324 0
-4358 -324 4359 0
-4358 11895 324 0
4358 -324 -4359 0
4358 -11895 322 324 0
4359 393 -4360 4361 0
4359 -11893 -4360 4361 0
-4359 -4361 0
-4359 4360 0
-4359 11893 -393 0
-4360 11894 389 0
4360 -11894 0
4360 -389 0
-4361 398 4362 4363 0
-4361 -11891 4362 4363 0
4361 -4363 0
4361 -4362 0
4361 11891 -398 0
4362 11892 -394 0
-4362 -11892 0
-4362 394 0
-4363 402 4364 4365 0
-4363 -11889 4364 4365 0
4363 -4365 0
4363 -4364 0
4363 11889 -402 0
4364 11890 -399 0
-4364 -11890 0
-4364 399 0
-4365 -11888 286 0
-4365 -11887 404 0
-4365 -11887 -11888 0
-4365 286 404 0
4365 11888 -404 0
4365 11887 -286 0
-4366 11896 302 0
-4366 10429 -302 0
4366 -11896 302 0
4366 -10429 -302 0
-4367 11897 304 0
-4367 10429 -304 0
4367 -11897 304 0
4367 -10429 -304 0
-4368 11898 306 0
-4368 10429 -306 0
4368 -11898 306 0
4368 -10429 -306 0
-4369 11899 309 0
-4369 10429 -309 0
4369 -11899 309 0
4369 -10429 -309 0
-4370 11900 311 0
-4370 10429 -311 0
4370 -11900 311 0
4370 -10429 -311 0
-4371 11901 314 0
-4371 10429 -314 0
4371 -11901 314 0
4371 -10429 -314 0
-4372 11902 316 0
-4372 10429 -316 0
4372 -11902 316 0
4372 -10429 -316 0
-4373 11903 319 0
-4373 10429 -319 0
4373 -11903 319 0
4373 -10429 -319 0
-4374 -322 324 0
-4374 -324 4375 0
-4374 11904 324 0
4374 -324 -4375 0
4374 -11904 322 324 0
4375 393 -4376 4377 0
4375 -11902 -4376 4377 0
-4375 -4377 0
-4375 4376 0
-4375 11902 -393 0
-4376 11903 389 0
4376 -11903 0
4376 -389 0
-4377 398 4378 4379 0
-4377 -11900 4378 4379 0
4377 -4379 0
4377 -4378 0
4377 11900 -398 0
4378 11901 -394 0
-4378 -11901 0
-4378 394 0
-4379 402 4380 4381 0
-4379 -11898 4380 4381 0
4379 -4381 0
4379 -4380 0
4379 11898 -402 0
4380 11899 -399 0
-4380 -11899 0
-4380 399 0
-4381 -11897 286 0
-4381 -11896 404 0
-4381 -11896 -11897 0
-4381 286 404 0
4381 11897 -404 0
4381 11896 -286 0
-4382 11905 302 0
-4382 10433 -302 0
4382 -11905 302 0
4382 -10433 -302 0
-4383 11906 304 0
-4383 10433 -304 0
4383 -11906 304 0
4383 -10433 -304 0
-4384 11907 306 0
-4384 10433 -306 0
4384 -11907 306 0
4384 -10433 -306 0
-4385 11908 309 0
-4385 10433 -309 0
4385 -11908 309 0
4385 -10433 -309 0
-4386 11909 311 0
-4386 10433 -311 0
4386 -11909 311 0
4386 -10433 -311 0
-4387 11910 314 0
-4387 10433 -314 0
4387 -11910 314 0
4387 -10433 -314 0
-4388 11911 316 0
-4388 10433 -316 0
4388 -11911 316 0
4388 -10433 -316 0
-4389 11912 319 0
-4389 10433 -319 0
4389 -11912 319 0
4389 -10433 -319 0
-4390 -322 324 0
-4390 -324 4391 0
-4390 11913 324 0
4390 -324 -4391 0
4390 -11913 322 324 0
4391 393 -4392 4393 0
4391 -11911 -4392 4393 0
-4391 -4393 0
-4391 4392 0
-4391 11911 -393 0
-4392 11912 389 0
4392 -11912 0
4392 -389 0
-4393 398 4394 4395 0
-4393 -11909 4394 4395 0
4393 -4395 0
4393 -4394 0
4393 11909 -398 0
4394 11910 -394 0
-4394 -11910 0
-4394 394 0
-4395 402 4396 4397 0
-4395 -11907 4396 4397 0
4395 -4397 0
4395 -4396 0
4395 11907 -402 0
4396 11908 -399 0
-4396 -11908 0
-4396 399 0
-4397 -11906 286 0
-4397 -11905 404 0
-4397 -11905 -11906 0
-4397 286 404 0
4397 11906 -404 0
4397 11905 -286 0
-4398 11914 302 0
-4398 10437 -302 0
4398 -11914 302 0
4398 -10437 -302 0
-4399 11915 304 0
-4399 10437 -304 0
4399 -11915 304 0
4399 -10437 -304 0
-4400 11916 306 0
-4400 10437 -306 0
4400 -11916 306 0
4400 -10437 -306 0
-4401 11917 309 0
-4401 10437 -309 0
4401 -11917 309 0
4401 -10437 -309 0
-4402 11918 311 0
-4402 10437 -311 0
4402 -11918 311 0
4402 -10437 -311 0
-4403 11919 314 0
-4403 10437 -314 0
4403 -11919 314 0
4403 -10437 -314 0
-4404 11920 316 0
-4404 10437 -316 0
4404 -11920 316 0
4404 -10437 -316 0
-4405 11921 319 0
-4405 10437 -319 0
4405 -11921 319 0
4405 -10437 -319 0
-4406 -322 324 0
-4406 -324 4407 0
-4406 11922 324 0
4406 -324 -4407 0
4406 -11922 322 324 0
4407 393 -4408 4409 0
4407 -11920 -4408 4409 0
-4407 -4409 0
-4407 4408 0
-4407 11920 -393 0
-4408 11921 389 0
4408 -11921 0
4408 -389 0
-4409 398 4410 4411 0
-4409 -11918 4410 4411 0
4409 -4411 0
4409 -4410 0
4409 11918 -398 0
4410 11919 -394 0
-4410 -11919 0
-4410 394 0
-4411 402 4412 4413 0
-4411 -11916 4412 4413 0
4411 -4413 0
4411 -4412 0
4411 11916 -402 0
4412 11917 -399 0
-4412 -11917 0
-4412 399 0
-4413 -11915 286 0
-4413 -11914 404 0
-4413 -11914 -11915 0
-4413 286 404 0
4413 11915 -404 0
4413 11914 -286 0
-4414 11923 302 0
-4414 10441 -302 0
4414 -11923 302 0
4414 -10441 -302 0
-4415 11924 304 0
-4415 10441 -304 0
4415 -11924 304 0
4415 -10441 -304 0
-4416 11925 306 0
-4416 10441 -306 0
4416 -11925 306 0
4416 -10441 -306 0
-4417 11926 309 0
-4417 10441 -309 0
4417 -11926 309 0
4417 -10441 -309 0
-4418 11927 311 0
-4418 10441 -311 0
4418 -11927 311 0
4418 -10441 -311 0
-4419 11928 314 0
-4419 10441 -314 0
4419 -11928 314 0
4419 -10441 -314 0
-4420 11929 316 0
-4420 10441 -316 0
4420 -11929 316 0
4420 -10441 -316 0
-4421 11930 319 0
-4421 10441 -319 0
4421 -11930 319 0
4421 -10441 -319 0
-4422 -322 324 0
-4422 -324 4423 0
-4422 11931 324 0
4422 -324 -4423 0
4422 -11931 322 324 0
4423 393 -4424 4425 0
4423 -11929 -4424 4425 0
-4423 -4425 0
-4423 4424 0
-4423 11929 -393 0
-4424 11930 389 0
4424 -11930 0
4424 -389 0
-4425 398 4426 4427 0
-4425 -11927 4426 4427 0
4425 -4427 0
4425 -4426 0
4425 11927 -398 0
4426 11928 -394 0
-4426 -11928 0
-4426 394 0
-4427 402 4428 4429 0
-4427 -11925 4428 4429 0
4427 -4429 0
4427 -4428 0
4427 11925 -402 0
4428 11926 -399 0
-4428 -11926 0
-4428 399 0
-4429 -11924 286 0
-4429 -11923 404 0
-4429 -11923 -11924 0
-4429 286 404 0
4429 11924 -404 0
4429 11923 -286 0
-4430 11932 302 0
-4430 10445 -302 0
4430 -11932 302 0
4430 -10445 -302 0
-4431 11933 304 0
-4431 10445 -304 0
4431 -11933 304 0
4431 -10445 -304 0
-4432 11934 306 0
-4432 10445 -306 0
4432 -11934 306 0
4432 -10445 -306 0
-4433 11935 309 0
-4433 10445 -309 0
4433 -11935 309 0
4433 -10445 -309 0
-4434 11936 311 0
-4434 10445 -311 0
4434 -11936 311 0
4434 -10445 -311 0
-4435 11937 314 0
-4435 10445 -314 0
4435 -11937 314 0
4435 -10445 -314 0
-4436 11938 316 0
-4436 10445 -316 0
4436 -11938 316 0
4436 -10445 -316 0
-4437 11939 319 0
-4437 10445 -319 0
4437 -11939 319 0
4437 -10445 -319 0
-4438 -322 324 0
-4438 -324 4439 0
-4438 11940 324 0
4438 -324 -4439 0
4438 -11940 322 324 0
4439 393 -4440 4441 0
4439 -11938 -4440 4441 0
-4439 -4441 0
-4439 4440 0
-4439 11938 -393 0
-4440 11939 389 0
4440 -11939 0
4440 -389 0
-4441 398 4442 4443 0
-4441 -11936 4442 4443 0
4441 -4443 0
4441 -4442 0
4441 11936 -398 0
4442 11937 -394 0
-4442 -11937 0
-4442 394 0
-4443 402 4444 4445 0
-4443 -11934 4444 4445 0
4443 -4445 0
4443 -4444 0
4443 11934 -402 0
4444 11935 -399 0
-4444 -11935 0
-4444 399 0
-4445 -11933 286 0
-4445 -11932 404 0
-4445 -11932 -11933 0
-4445 286 404 0
4445 11933 -404 0
4445 11932 -286 0
-4446 11941 302 0
-4446 10449 -302 0
4446 -11941 302 0
4446 -10449 -302 0
-4447 11942 304 0
-4447 10449 -304 0
4447 -11942 304 0
4447 -10449 -304 0
-4448 11943 306 0
-4448 10449 -306 0
4448 -11943 306 0
4448 -10449 -306 0
-4449 11944 309 0
-4449 10449 -309 0
4449 -11944 309 0
4449 -10449 -309 0
-4450 11945 311 0
-4450 10449 -311 0
4450 -11945 311 0
4450 -10449 -311 0
-4451 11946 314 0
-4451 10449 -314 0
4451 -11946 314 0
4451 -10449 -314 0
-4452 11947 316 0
-4452 10449 -316 0
4452 -11947 316 0
4452 -10449 -316 0
-4453 11948 319 0
-4453 10449 -319 0
4453 -11948 319 0
4453 -10449 -319 0
-4454 -322 324 0
-4454 -324 4455 0
-4454 11949 324 0
4454 -324 -4455 0
4454 -11949 322 324 0
4455 393 -4456 4457 0
4455 -11947 -4456 4457 0
-4455 -4457 0
-4455 4456 0
-4455 11947 -393 0
-4456 11948 389 0
4456 -11948 0
4456 -389 0
-4457 398 4458 4459 0
-4457 -11945 4458 4459 0
4457 -4459 0
4457 -4458 0
4457 11945 -398 0
4458 11946 -394 0
-4458 -11946 0
-4458 394 0
-4459 402 4460 4461 0
-4459 -11943 4460 4461 0
4459 -4461 0
4459 -4460 0
4459 11943 -402 0
4460 11944 -399 0
-4460 -11944 0
-4460 399 0
-4461 -11942 286 0
-4461 -11941 404 0
-4461 -11941 -11942 0
-4461 286 404 0
4461 11942 -404 0
4461 11941 -286 0
-4462 11950 302 0
-4462 10453 -302 0
4462 -11950 302 0
4462 -10453 -302 0
-4463 11951 304 0
-4463 10453 -304 0
4463 -11951 304 0
4463 -10453 -304 0
-4464 11952 306 0
-4464 10453 -306 0
4464 -11952 306 0
4464 -10453 -306 0
-4465 11953 309 0
-4465 10453 -309 0
4465 -11953 309 0
4465 -10453 -309 0
-4466 11954 311 0
-4466 10453 -311 0
4466 -11954 311 0
4466 -10453 -311 0
-4467 11955 314 0
-4467 10453 -314 0
4467 -11955 314 0
4467 -10453 -314 0
-4468 11956 316 0
-4468 10453 -316 0
4468 -11956 316 0
4468 -10453 -316 0
-4469 11957 319 0
-4469 10453 -319 0
4469 -11957 319 0
4469 -10453 -319 0
-4470 -322 324 0
-4470 -324 4471 0
-4470 11958 324 0
4470 -324 -4471 0
4470 -11958 322 324 0
4471 393 -4472 4473 0
4471 -11956 -4472 4473 0
-4471 -4473 0
-4471 4472 0
-4471 11956 -393 0
-4472 11957 389 0
4472 -11957 0
4472 -389 0
-4473 398 4474 4475 0
-4473 -11954 4474 4475 0
4473 -4475 0
4473 -4474 0
4473 11954 -398 0
4474 11955 -394 0
-4474 -11955 0
-4474 394 0
-4475 402 4476 4477 0
-4475 -11952 4476 4477 0
4475 -4477 0
4475 -4476 0
4475 11952 -402 0
4476 11953 -399 0
-4476 -11953 0
-4476 399 0
-4477 -11951 286 0
-4477 -11950 404 0
-4477 -11950 -11951 0
-4477 286 404 0
4477 11951 -404 0
4477 11950 -286 0
-4478 11959 302 0
-4478 10457 -302 0
4478 -11959 302 0
4478 -10457 -302 0
-4479 11960 304 0
-4479 10457 -304 0
4479 -11960 304 0
4479 -10457 -304 0
-4480 11961 306 0
-4480 10457 -306 0
4480 -11961 306 0
4480 -10457 -306 0
-4481 11962 309 0
-4481 10457 -309 0
4481 -11962 309 0
4481 -10457 -309 0
-4482 11963 311 0
-4482 10457 -311 0
4482 -11963 311 0
4482 -10457 -311 0
-4483 11964 314 0
-4483 10457 -314 0
4483 -11964 314 0
4483 -10457 -314 0
-4484 11965 316 0
-4484 10457 -316 0
4484 -11965 316 0
4484 -10457 -316 0
-4485 11966 319 0
-4485 10457 -319 0
4485 -11966 319 0
4485 -10457 -319 0
-4486 -322 324 0
-4486 -324 4487 0
-4486 11967 324 0
4486 -324 -4487 0
4486 -11967 322 324 0
4487 393 -4488 4489 0
4487 -11965 -4488 4489 0
-4487 -4489 0
-4487 4488 0
-4487 11965 -393 0
-4488 11966 389 0
4488 -11966 0
4488 -389 0
-4489 398 4490 4491 0
-4489 -11963 4490 4491 0
4489 -4491 0
4489 -4490 0
4489 11963 -398 0
4490 11964 -394 0
-4490 -11964 0
-4490 394 0
-4491 402 4492 4493 0
-4491 -11961 4492 4493 0
4491 -4493 0
4491 -4492 0
4491 11961 -402 0
4492 11962 -399 0
-4492 -11962 0
-4492 399 0
-4493 -11960 286 0
-4493 -11959 404 0
-4493 -11959 -11960 0
-4493 286 404 0
4493 11960 -404 0
4493 11959 -286 0
-4494 11968 302 0
-4494 10461 -302 0
4494 -11968 302 0
4494 -10461 -302 0
-4495 11969 304 0
-4495 10461 -304 0
4495 -11969 304 0
4495 -10461 -304 0
-4496 11970 306 0
-4496 10461 -306 0
4496 -11970 306 0
4496 -10461 -306 0
-4497 11971 309 0
-4497 10461 -309 0
4497 -11971 309 0
4497 -10461 -309 0
-4498 11972 311 0
-4498 10461 -311 0
4498 -11972 311 0
4498 -10461 -311 0
-4499 11973 314 0
-4499 10461 -314 0
4499 -11973 314 0
4499 -10461 -314 0
-4500 11974 316 0
-4500 10461 -316 0
4500 -11974 316 0
4500 -10461 -316 0
-4501 11975 319 0
-4501 10461 -319 0
4501 -11975 319 0
4501 -10461 -319 0
-4502 -322 324 0
-4502 -324 4503 0
-4502 11976 324 0
4502 -324 -4503 0
4502 -11976 322 324 0
4503 393 -4504 4505 0
4503 -11974 -4504 4505 0
-4503 -4505 0
-4503 4504 0
-4503 11974 -393 0
-4504 11975 389 0
4504 -11975 0
4504 -389 0
-4505 398 4506 4507 0
-4505 -11972 4506 4507 0
4505 -4507 0
4505 -4506 0
4505 11972 -398 0
4506 11973 -394 0
-4506 -11973 0
-4506 394 0
-4507 402 4508 4509 0
-4507 -11970 4508 4509 0
4507 -4509 0
4507 -4508 0
4507 11970 -402 0
4508 11971 -399 0
-4508 -11971 0
-4508 399 0
-4509 -11969 286 0
-4509 -11968 404 0
-4509 -11968 -11969 0
-4509 286 404 0
4509 11969 -404 0
4509 11968 -286 0
-4510 11977 302 0
-4510 10465 -302 0
4510 -11977 302 0
4510 -10465 -302 0
-4511 11978 304 0
-4511 10465 -304 0
4511 -11978 304 0
4511 -10465 -304 0
-4512 11979 306 0
-4512 10465 -306 0
4512 -11979 306 0
4512 -10465 -306 0
-4513 11980 309 0
-4513 10465 -309 0
4513 -11980 309 0
4513 -10465 -309 0
-4514 11981 311 0
-4514 10465 -311 0
4514 -11981 311 0
4514 -10465 -311 0
-4515 11982 314 0
-4515 10465 -314 0
4515 -11982 314 0
4515 -10465 -314 0
-4516 11983 316 0
-4516 10465 -316 0
4516 -11983 316 0
4516 -10465 -316 0
-4517 11984 319 0
-4517 10465 -319 0
4517 -11984 319 0
4517 -10465 -319 0
-4518 -322 324 0
-4518 -324 4519 0
-4518 11985 324 0
4518 -324 -4519 0
4518 -11985 322 324 0
4519 393 -4520 4521 0
4519 -11983 -4520 4521 0
-4519 -4521 0
-4519 4520 0
-4519 11983 -393 0
-4520 11984 389 0
4520 -11984 0
4520 -389 0
-4521 398 4522 4523 0
-4521 -11981 4522 4523 0
4521 -4523 0
4521 -4522 0
4521 11981 -398 0
4522 11982 -394 0
-4522 -11982 0
-4522 394 0
-4523 402 4524 4525 0
-4523 -11979 4524 4525 0
4523 -4525 0
4523 -4524 0
4523 11979 -402 0
4524 11980 -399 0
-4524 -11980 0
-4524 399 0
-4525 -11978 286 0
-4525 -11977 404 0
-4525 -11977 -11978 0
-4525 286 404 0
4525 11978 -404 0
4525 11977 -286 0
-4526 11986 302 0
-4526 10469 -302 0
4526 -11986 302 0
4526 -10469 -302 0
-4527 11987 304 0
-4527 10469 -304 0
4527 -11987 304 0
4527 -10469 -304 0
-4528 11988 306 0
-4528 10469 -306 0
4528 -11988 306 0
4528 -10469 -306 0
-4529 11989 309 0
-4529 10469 -309 0
4529 -11989 309 0
4529 -10469 -309 0
-4530 11990 311 0
-4530 10469 -311 0
4530 -11990 311 0
4530 -10469 -311 0
-4531 11991 314 0
-4531 10469 -314 0
4531 -11991 314 0
4531 -10469 -314 0
-4532 11992 316 0
-4532 10469 -316 0
4532 -11992 316 0
4532 -10469 -316 0
-4533 11993 319 0
-4533 10469 -319 0
4533 -11993 319 0
4533 -10469 -319 0
-4534 -322 324 0
-4534 -324 4535 0
-4534 11994 324 0
4534 -324 -4535 0
4534 -11994 322 324 0
4535 393 -4536 4537 0
4535 -11992 -4536 4537 0
-4535 -4537 0
-4535 4536 0
-4535 11992 -393 0
-4536 11993 389 0
4536 -11993 0
4536 -389 0
-4537 398 4538 4539 0
-4537 -11990 4538 4539 0
4537 -4539 0
4537 -4538 0
4537 11990 -398 0
4538 11991 -394 0
-4538 -11991 0
-4538 394 0
-4539 402 4540 4541 0
-4539 -11988 4540 4541 0
4539 -4541 0
4539 -4540 0
4539 11988 -402 0
4540 11989 -399 0
-4540 -11989 0
-4540 399 0
-4541 -11987 286 0
-4541 -11986 404 0
-4541 -11986 -11987 0
-4541 286 404 0
4541 11987 -404 0
4541 11986 -286 0
-4542 11995 302 0
-4542 10473 -302 0
4542 -11995 302 0
4542 -10473 -302 0
-4543 11996 304 0
-4543 10473 -304 0
4543 -11996 304 0
4543 -10473 -304 0
-4544 11997 306 0
-4544 10473 -306 0
4544 -11997 306 0
4544 -10473 -306 0
-4545 11998 309 0
-4545 10473 -309 0
4545 -11998 309 0
4545 -10473 -309 0
-4546 11999 311 0
-4546 10473 -311 0
4546 -11999 311 0
4546 -10473 -311 0
-4547 12000 314 0
-4547 10473 -314 0
4547 -12000 314 0
4547 -10473 -314 0
-4548 12001 316 0
-4548 10473 -316 0
4548 -12001 316 0
4548 -10473 -316 0
-4549 12002 319 0
-4549 10473 -319 0
4549 -12002 319 0
4549 -10473 -319 0
-4550 -322 324 0
-4550 -324 4551 0
-4550 12003 324 0
4550 -324 -4551 0
4550 -12003 322 324 0
4551 393 -4552 4553 0
4551 -12001 -4552 4553 0
-4551 -4553 0
-4551 4552 0
-4551 12001 -393 0
-4552 12002 389 0
4552 -12002 0
4552 -389 0
-4553 398 4554 4555 0
-4553 -11999 4554 4555 0
4553 -4555 0
4553 -4554 0
4553 11999 -398 0
4554 12000 -394 0
-4554 -12000 0
-4554 394 0
-4555 402 4556 4557 0
-4555 -11997 4556 4557 0
4555 -4557 0
4555 -4556 0
4555 11997 -402 0
4556 11998 -399 0
-4556 -11998 0
-4556 399 0
-4557 -11996 286 0
-4557 -11995 404 0
-4557 -11995 -11996 0
-4557 286 404 0
4557 11996 -404 0
4557 11995 -286 0
-4558 12004 302 0
-4558 10477 -302 0
4558 -12004 302 0
4558 -10477 -302 0
-4559 12005 304 0
-4559 10477 -304 0
4559 -12005 304 0
4559 -10477 -304 0
-4560 12006 306 0
-4560 10477 -306 0
4560 -12006 306 0
4560 -10477 -306 0
-4561 12007 309 0
-4561 10477 -309 0
4561 -12007 309 0
4561 -10477 -309 0
-4562 12008 311 0
-4562 10477 -311 0
4562 -12008 311 0
4562 -10477 -311 0
-4563 12009 314 0
-4563 10477 -314 0
4563 -12009 314 0
4563 -10477 -314 0
-4564 12010 316 0
-4564 10477 -316 0
4564 -12010 316 0
4564 -10477 -316 0
-4565 12011 319 0
-4565 10477 -319 0
4565 -12011 319 0
4565 -10477 -319 0
-4566 -322 324 0
-4566 -324 4567 0
-4566 12012 324 0
4566 -324 -4567 0
4566 -12012 322 324 0
4567 393 -4568 4569 0
4567 -12010 -4568 4569 0
-4567 -4569 0
-4567 4568 0
-4567 12010 -393 0
-4568 12011 389 0
4568 -12011 0
4568 -389 0
-4569 398 4570 4571 0
-4569 -12008 4570 4571 0
4569 -4571 0
4569 -4570 0
4569 12008 -398 0
4570 12009 -394 0
-4570 -12009 0
-4570 394 0
-4571 402 4572 4573 0
-4571 -12006 4572 4573 0
4571 -4573 0
4571 -4572 0
4571 12006 -402 0
4572 12007 -399 0
-4572 -12007 0
-4572 399 0
-4573 -12005 286 0
-4573 -12004 404 0
-4573 -12004 -12005 0
-4573 286 404 0
4573 12005 -404 0
4573 12004 -286 0
-4574 12013 302 0
-4574 10481 -302 0
4574 -12013 302 0
4574 -10481 -302 0
-4575 12014 304 0
-4575 10481 -304 0
4575 -12014 304 0
4575 -10481 -304 0
-4576 12015 306 0
-4576 10481 -306 0
4576 -12015 306 0
4576 -10481 -306 0
-4577 12016 309 0
-4577 10481 -309 0
4577 -12016 309 0
4577 -10481 -309 0
-4578 12017 311 0
-4578 10481 -311 0
4578 -12017 311 0
4578 -10481 -311 0
-4579 12018 314 0
-4579 10481 -314 0
4579 -12018 314 0
4579 -10481 -314 0
-4580 12019 316 0
-4580 10481 -316 0
4580 -12019 316 0
4580 -10481 -316 0
-4581 12020 319 0
-4581 10481 -319 0
4581 -12020 319 0
4581 -10481 -319 0
-4582 -322 324 0
-4582 -324 4583 0
-4582 12021 324 0
4582 -324 -4583 0
4582 -12021 322 324 0
4583 393 -4584 4585 0
4583 -12019 -4584 4585 0
-4583 -4585 0
-4583 4584 0
-4583 12019 -393 0
-4584 12020 389 0
4584 -12020 0
4584 -389 0
-4585 398 4586 4587 0
-4585 -12017 4586 4587 0
4585 -4587 0
4585 -4586 0
4585 12017 -398 0
4586 12018 -394 0
-4586 -12018 0
-4586 394 0
-4587 402 4588 4589 0
-4587 -12015 4588 4589 0
4587 -4589 0
4587 -4588 0
4587 12015 -402 0
4588 12016 -399 0
-4588 -12016 0
-4588 399 0
-4589 -12014 286 0
-4589 -12013 404 0
-4589 -12013 -12014 0
-4589 286 404 0
4589 12014 -404 0
4589 12013 -286 0
-4590 12022 302 0
-4590 10485 -302 0
4590 -12022 302 0
4590 -10485 -302 0
-4591 12023 304 0
-4591 10485 -304 0
4591 -12023 304 0
4591 -10485 -304 0
-4592 12024 306 0
-4592 10485 -306 0
4592 -12024 306 0
4592 -10485 -306 0
-4593 12025 309 0
-4593 10485 -309 0
4593 -12025 309 0
4593 -10485 -309 0
-4594 12026 311 0
-4594 10485 -311 0
4594 -12026 311 0
4594 -10485 -311 0
-4595 12027 314 0
-4595 10485 -314 0
4595 -12027 314 0
4595 -10485 -314 0
-4596 12028 316 0
-4596 10485 -316 0
4596 -12028 316 0
4596 -10485 -316 0
-4597 12029 319 0
-4597 10485 -319 0
4597 -12029 319 0
4597 -10485 -319 0
-4598 -322 324 0
-4598 -324 4599 0
-4598 12030 324 0
4598 -324 -4599 0
4598 -12030 322 324 0
4599 393 -4600 4601 0
4599 -12028 -4600 4601 0
-4599 -4601 0
-4599 4600 0
-4599 12028 -393 0
-4600 12029 389 0
4600 -12029 0
4600 -389 0
-4601 398 4602 4603 0
-4601 -12026 4602 4603 0
4601 -4603 0
4601 -4602 0
4601 12026 -398 0
4602 12027 -394 0
-4602 -12027 0
-4602 394 0
-4603 402 4604 4605 0
-4603 -12024 4604 4605 0
4603 -4605 0
4603 -4604 0
4603 12024 -402 0
4604 12025 -399 0
-4604 -12025 0
-4604 399 0
-4605 -12023 286 0
-4605 -12022 404 0
-4605 -12022 -12023 0
-4605 286 404 0
4605 12023 -404 0
4605 12022 -286 0
-4606 12031 302 0
-4606 10489 -302 0
4606 -12031 302 0
4606 -10489 -302 0
-4607 12032 304 0
-4607 10489 -304 0
4607 -12032 304 0
4607 -10489 -304 0
-4608 12033 306 0
-4608 10489 -306 0
4608 -12033 306 0
4608 -10489 -306 0
-4609 12034 309 0
-4609 10489 -309 0
4609 -12034 309 0
4609 -10489 -309 0
-4610 12035 311 0
-4610 10489 -311 0
4610 -12035 311 0
4610 -10489 -311 0
-4611 12036 314 0
-4611 10489 -314 0
4611 -12036 314 0
4611 -10489 -314 0
-4612 12037 316 0
-4612 10489 -316 0
4612 -12037 316 0
4612 -10489 -316 0
-4613 12038 319 0
-4613 10489 -319 0
4613 -12038 319 0
4613 -10489 -319 0
-4614 -322 324 0
-4614 -324 4615 0
-4614 12039 324 0
4614 -324 -4615 0
4614 -12039 322 324 0
4615 393 -4616 4617 0
4615 -12037 -4616 4617 0
-4615 -4617 0
-4615 4616 0
-4615 12037 -393 0
-4616 12038 389 0
4616 -12038 0
4616 -389 0
-4617 398 4618 4619 0
-4617 -12035 4618 4619 0
4617 -4619 0
4617 -4618 0
4617 12035 -398 0
4618 12036 -394 0
-4618 -12036 0
-4618 394 0
-4619 402 4620 4621 0
-4619 -12033 4620 4621 0
4619 -4621 0
4619 -4620 0
4619 12033 -402 0
4620 12034 -399 0
-4620 -12034 0
-4620 399 0
-4621 -12032 286 0
-4621 -12031 404 0
-4621 -12031 -12032 0
-4621 286 404 0
4621 12032 -404 0
4621 12031 -286 0
-4622 12040 302 0
-4622 10493 -302 0
4622 -12040 302 0
4622 -10493 -302 0
-4623 12041 304 0
-4623 10493 -304 0
4623 -12041 304 0
4623 -10493 -304 0
-4624 12042 306 0
-4624 10493 -306 0
4624 -12042 306 0
4624 -10493 -306 0
-4625 12043 309 0
-4625 10493 -309 0
4625 -12043 309 0
4625 -10493 -309 0
-4626 12044 311 0
-4626 10493 -311 0
4626 -12044 311 0
4626 -10493 -311 0
-4627 12045 314 0
-4627 10493 -314 0
4627 -12045 314 0
4627 -10493 -314 0
-4628 12046 316 0
-4628 10493 -316 0
4628 -12046 316 0
4628 -10493 -316 0
-4629 12047 319 0
-4629 10493 -319 0
4629 -12047 319 0
4629 -10493 -319 0
-4630 -322 324 0
-4630 -324 4631 0
-4630 12048 324 0
4630 -324 -4631 0
4630 -12048 322 324 0
4631 393 -4632 4633 0
4631 -12046 -4632 4633 0
-4631 -4633 0
-4631 4632 0
-4631 12046 -393 0
-4632 12047 389 0
4632 -12047 0
4632 -389 0
-4633 398 4634 4635 0
-4633 -12044 4634 4635 0
4633 -4635 0
4633 -4634 0
4633 12044 -398 0
4634 12045 -394 0
-4634 -12045 0
-4634 394 0
-4635 402 4636 4637 0
-4635 -12042 4636 4637 0
4635 -4637 0
4635 -4636 0
4635 12042 -402 0
4636 12043 -399 0
-4636 -12043 0
-4636 399 0
-4637 -12041 286 0
-4637 -12040 404 0
-4637 -12040 -12041 0
-4637 286 404 0
4637 12041 -404 0
4637 12040 -286 0
-4638 12049 302 0
-4638 10497 -302 0
4638 -12049 302 0
4638 -10497 -302 0
-4639 12050 304 0
-4639 10497 -304 0
4639 -12050 304 0
4639 -10497 -304 0
-4640 12051 306 0
-4640 10497 -306 0
4640 -12051 306 0
4640 -10497 -306 0
-4641 12052 309 0
-4641 10497 -309 0
4641 -12052 309 0
4641 -10497 -309 0
-4642 12053 311 0
-4642 10497 -311 0
4642 -12053 311 0
4642 -10497 -311 0
-4643 12054 314 0
-4643 10497 -314 0
4643 -12054 314 0
4643 -10497 -314 0
-4644 12055 316 0
-4644 10497 -316 0
4644 -12055 316 0
4644 -10497 -316 0
-4645 12056 319 0
-4645 10497 -319 0
4645 -12056 319 0
4645 -10497 -319 0
-4646 -322 324 0
-4646 -324 4647 0
-4646 12057 324 0
4646 -324 -4647 0
4646 -12057 322 324 0
4647 393 -4648 4649 0
4647 -12055 -4648 4649 0
-4647 -4649 0
-4647 4648 0
-4647 12055 -393 0
-4648 12056 389 0
4648 -12056 0
4648 -389 0
-4649 398 4650 4651 0
-4649 -12053 4650 4651 0
4649 -4651 0
4649 -4650 0
4649 12053 -398 0
4650 12054 -394 0
-4650 -12054 0
-4650 394 0
-4651 402 4652 4653 0
-4651 -12051 4652 4653 0
4651 -4653 0
4651 -4652 0
4651 12051 -402 0
4652 12052 -399 0
-4652 -12052 0
-4652 399 0
-4653 -12050 286 0
-4653 -12049 404 0
-4653 -12049 -12050 0
-4653 286 404 0
4653 12050 -404 0
4653 12049 -286 0
-4654 12058 302 0
-4654 10501 -302 0
4654 -12058 302 0
4654 -10501 -302 0
-4655 12059 304 0
-4655 10501 -304 0
4655 -12059 304 0
4655 -10501 -304 0
-4656 12060 306 0
-4656 10501 -306 0
4656 -12060 306 0
4656 -10501 -306 0
-4657 12061 309 0
-4657 10501 -309 0
4657 -12061 309 0
4657 -10501 -309 0
-4658 12062 311 0
-4658 10501 -311 0
4658 -12062 311 0
4658 -10501 -311 0
-4659 12063 314 0
-4659 10501 -314 0
4659 -12063 314 0
4659 -10501 -314 0
-4660 12064 316 0
-4660 10501 -316 0
4660 -12064 316 0
4660 -10501 -316 0
-4661 12065 319 0
-4661 10501 -319 0
4661 -12065 319 0
4661 -10501 -319 0
-4662 -322 324 0
-4662 -324 4663 0
-4662 12066 324 0
4662 -324 -4663 0
4662 -12066 322 324 0
4663 393 -4664 4665 0
4663 -12064 -4664 4665 0
-4663 -4665 0
-4663 4664 0
-4663 12064 -393 0
-4664 12065 389 0
4664 -12065 0
4664 -389 0
-4665 398 4666 4667 0
-4665 -12062 4666 4667 0
4665 -4667 0
4665 -4666 0
4665 12062 -398 0
4666 12063 -394 0
-4666 -12063 0
-4666 394 0
-4667 402 4668 4669 0
-4667 -12060 4668 4669 0
4667 -4669 0
4667 -4668 0
4667 12060 -402 0
4668 12061 -399 0
-4668 -12061 0
-4668 399 0
-4669 -12059 286 0
-4669 -12058 404 0
-4669 -12058 -12059 0
-4669 286 404 0
4669 12059 -404 0
4669 12058 -286 0
-4670 12067 302 0
-4670 10505 -302 0
4670 -12067 302 0
4670 -10505 -302 0
-4671 12068 304 0
-4671 10505 -304 0
4671 -12068 304 0
4671 -10505 -304 0
-4672 12069 306 0
-4672 10505 -306 0
4672 -12069 306 0
4672 -10505 -306 0
-4673 12070 309 0
-4673 10505 -309 0
4673 -12070 309 0
4673 -10505 -309 0
-4674 12071 311 0
-4674 10505 -311 0
4674 -12071 311 0
4674 -10505 -311 0
-4675 12072 314 0
-4675 10505 -314 0
4675 -12072 314 0
4675 -10505 -314 0
-4676 12073 316 0
-4676 10505 -316 0
4676 -12073 316 0
4676 -10505 -316 0
-4677 12074 319 0
-4677 10505 -319 0
4677 -12074 319 0
4677 -10505 -319 0
-4678 -322 324 0
-4678 -324 4679 0
-4678 12075 324 0
4678 -324 -4679 0
4678 -12075 322 324 0
4679 393 -4680 4681 0
4679 -12073 -4680 4681 0
-4679 -4681 0
-4679 4680 0
-4679 12073 -393 0
-4680 12074 389 0
4680 -12074 0
4680 -389 0
-4681 398 4682 4683 0
-4681 -12071 4682 4683 0
4681 -4683 0
4681 -4682 0
4681 12071 -398 0
4682 12072 -394 0
-4682 -12072 0
-4682 394 0
-4683 402 4684 4685 0
-4683 -12069 4684 4685 0
4683 -4685 0
4683 -4684 0
4683 12069 -402 0
4684 12070 -399 0
-4684 -12070 0
-4684 399 0
-4685 -12068 286 0
-4685 -12067 404 0
-4685 -12067 -12068 0
-4685 286 404 0
4685 12068 -404 0
4685 12067 -286 0
-4686 12076 302 0
-4686 10509 -302 0
4686 -12076 302 0
4686 -10509 -302 0
-4687 12077 304 0
-4687 10509 -304 0
4687 -12077 304 0
4687 -10509 -304 0
-4688 12078 306 0
-4688 10509 -306 0
4688 -12078 306 0
4688 -10509 -306 0
-4689 12079 309 0
-4689 10509 -309 0
4689 -12079 309 0
4689 -10509 -309 0
-4690 12080 311 0
-4690 10509 -311 0
4690 -12080 311 0
4690 -10509 -311 0
-4691 12081 314 0
-4691 10509 -314 0
4691 -12081 314 0
4691 -10509 -314 0
-4692 12082 316 0
-4692 10509 -316 0
4692 -12082 316 0
4692 -10509 -316 0
-4693 12083 319 0
-4693 10509 -319 0
4693 -12083 319 0
4693 -10509 -319 0
-4694 -322 324 0
-4694 -324 4695 0
-4694 12084 324 0
4694 -324 -4695 0
4694 -12084 322 324 0
4695 393 -4696 4697 0
4695 -12082 -4696 4697 0
-4695 -4697 0
-4695 4696 0
-4695 12082 -393 0
-4696 12083 389 0
4696 -12083 0
4696 -389 0
-4697 398 4698 4699 0
-4697 -12080 4698 4699 0
4697 -4699 0
4697 -4698 0
4697 12080 -398 0
4698 12081 -394 0
-4698 -12081 0
-4698 394 0
-4699 402 4700 4701 0
-4699 -12078 4700 4701 0
4699 -4701 0
4699 -4700 0
4699 12078 -402 0
4700 12079 -399 0
-4700 -12079 0
-4700 399 0
-4701 -12077 286 0
-4701 -12076 404 0
-4701 -12076 -12077 0
-4701 286 404 0
4701 12077 -404 0
4701 12076 -286 0
-4702 12085 302 0
-4702 10513 -302 0
4702 -12085 302 0
4702 -10513 -302 0
-4703 12086 304 0
-4703 10513 -304 0
4703 -12086 304 0
4703 -10513 -304 0
-4704 12087 306 0
-4704 10513 -306 0
4704 -12087 306 0
4704 -10513 -306 0
-4705 12088 309 0
-4705 10513 -309 0
4705 -12088 309 0
4705 -10513 -309 0
-4706 12089 311 0
-4706 10513 -311 0
4706 -12089 311 0
4706 -10513 -311 0
-4707 12090 314 0
-4707 10513 -314 0
4707 -12090 314 0
4707 -10513 -314 0
-4708 12091 316 0
-4708 10513 -316 0
4708 -12091 316 0
4708 -10513 -316 0
-4709 12092 319 0
-4709 10513 -319 0
4709 -12092 319 0
4709 -10513 -319 0
-4710 -322 324 0
-4710 -324 4711 0
-4710 12093 324 0
4710 -324 -4711 0
4710 -12093 322 324 0
4711 393 -4712 4713 0
4711 -12091 -4712 4713 0
-4711 -4713 0
-4711 4712 0
-4711 12091 -393 0
-4712 12092 389 0
4712 -12092 0
4712 -389 0
-4713 398 4714 4715 0
-4713 -12089 4714 4715 0
4713 -4715 0
4713 -4714 0
4713 12089 -398 0
4714 12090 -394 0
-4714 -12090 0
-4714 394 0
-4715 402 4716 4717 0
-4715 -12087 4716 4717 0
4715 -4717 0
4715 -4716 0
4715 12087 -402 0
4716 12088 -399 0
-4716 -12088 0
-4716 399 0
-4717 -12086 286 0
-4717 -12085 404 0
-4717 -12085 -12086 0
-4717 286 404 0
4717 12086 -404 0
4717 12085 -286 0
-4718 12094 302 0
-4718 10517 -302 0
4718 -12094 302 0
4718 -10517 -302 0
-4719 12095 304 0
-4719 10517 -304 0
4719 -12095 304 0
4719 -10517 -304 0
-4720 12096 306 0
-4720 10517 -306 0
4720 -12096 306 0
4720 -10517 -306 0
-4721 12097 309 0
-4721 10517 -309 0
4721 -12097 309 0
4721 -10517 -309 0
-4722 12098 311 0
-4722 10517 -311 0
4722 -12098 311 0
4722 -10517 -311 0
-4723 12099 314 0
-4723 10517 -314 0
4723 -12099 314 0
4723 -10517 -314 0
-4724 12100 316 0
-4724 10517 -316 0
4724 -12100 316 0
4724 -10517 -316 0
-4725 12101 319 0
-4725 10517 -319 0
4725 -12101 319 0
4725 -10517 -319 0
-4726 -322 324 0
-4726 -324 4727 0
-4726 12102 324 0
4726 -324 -4727 0
4726 -12102 322 324 0
4727 393 -4728 4729 0
4727 -12100 -4728 4729 0
-4727 -4729 0
-4727 4728 0
-4727 12100 -393 0
-4728 12101 389 0
4728 -12101 0
4728 -389 0
-4729 398 4730 4731 0
-4729 -12098 4730 4731 0
4729 -4731 0
4729 -4730 0
4729 12098 -398 0
4730 12099 -394 0
-4730 -12099 0
-4730 394 0
-4731 402 4732 4733 0
-4731 -12096 4732 4733 0
4731 -4733 0
4731 -4732 0
4731 12096 -402 0
4732 12097 -399 0
-4732 -12097 0
-4732 399 0
-4733 -12095 286 0
-4733 -12094 404 0
-4733 -12094 -12095 0
-4733 286 404 0
4733 12095 -404 0
4733 12094 -286 0
-4734 12103 302 0
-4734 10521 -302 0
4734 -12103 302 0
4734 -10521 -302 0
-4735 12104 304 0
-4735 10521 -304 0
4735 -12104 304 0
4735 -10521 -304 0
-4736 12105 306 0
-4736 10521 -306 0
4736 -12105 306 0
4736 -10521 -306 0
-4737 12106 309 0
-4737 10521 -309 0
4737 -12106 309 0
4737 -10521 -309 0
-4738 12107 311 0
-4738 10521 -311 0
4738 -12107 311 0
4738 -10521 -311 0
-4739 12108 314 0
-4739 10521 -314 0
4739 -12108 314 0
4739 -10521 -314 0
-4740 12109 316 0
-4740 10521 -316 0
4740 -12109 316 0
4740 -10521 -316 0
-4741 12110 319 0
-4741 10521 -319 0
4741 -12110 319 0
4741 -10521 -319 0
-4742 -322 324 0
-4742 -324 4743 0
-4742 12111 324 0
4742 -324 -4743 0
4742 -12111 322 324 0
4743 393 -4744 4745 0
4743 -12109 -4744 4745 0
-4743 -4745 0
-4743 4744 0
-4743 12109 -393 0
-4744 12110 389 0
4744 -12110 0
4744 -389 0
-4745 398 4746 4747 0
-4745 -12107 4746 4747 0
4745 -4747 0
4745 -4746 0
4745 12107 -398 0
4746 12108 -394 0
-4746 -12108 0
-4746 394 0
-4747 402 4748 4749 0
-4747 -12105 4748 4749 0
4747 -4749 0
4747 -4748 0
4747 12105 -402 0
4748 12106 -399 0
-4748 -12106 0
-4748 399 0
-4749 -12104 286 0
-4749 -12103 404 0
-4749 -12103 -12104 0
-4749 286 404 0
4749 12104 -404 0
4749 12103 -286 0
-4750 363 0
-4750 -12112 -4751 0
-4750 12112 4751 0
4750 -12112 -363 4751 0
4750 12112 -363 -4751 0
4751 -9981 -332 336 -358 0
-4751 -336 0
-4751 358 0
-4751 9981 0
-4751 332 0
-4752 12113 4751 0
-4752 12112 12113 0
-4752 363 0
-4752 -12112 -12113 -4751 0
4752 12112 -12113 -363 0
4752 -12113 -363 4751 0
4752 -12112 12113 -363 -4751 0
-4753 12114 4754 0
-4753 -12114 -4751 -4754 0
-4753 363 0
-4753 12114 4751 0
4753 -12114 -363 4754 0
4753 -12114 -363 4751 0
4753 12114 -363 -4751 -4754 0
4754 -12112 -12113 0
-4754 12112 0
-4754 12113 0
-4755 12115 4756 0
-4755 -12115 -4751 -4756 0
-4755 363 0
-4755 12115 4751 0
4755 -12115 -363 4756 0
4755 -12115 -363 4751 0
4755 12115 -363 -4751 -4756 0
4756 -12112 -12113 -12114 0
-4756 12112 0
-4756 12113 0
-4756 12114 0
-4757 12116 4758 0
-4757 -12116 -4751 -4758 0
-4757 363 0
-4757 12116 4751 0
4757 -12116 -363 4758 0
4757 -12116 -363 4751 0
4757 12116 -363 -4751 -4758 0
4758 -12115 -4756 0
-4758 12115 0
-4758 4756 0
-4759 12117 4760 0
-4759 -12117 -4751 -4760 0
-4759 363 0
-4759 12117 4751 0
4759 -12117 -363 4760 0
4759 -12117 -363 4751 0
4759 12117 -363 -4751 -4760 0
4760 -12116 -4758 0
-4760 12116 0
-4760 4758 0
-4761 12118 4762 0
-4761 -12118 -4751 -4762 0
-4761 363 0
-4761 12118 4751 0
4761 -12118 -363 4762 0
4761 -12118 -363 4751 0
4761 12118 -363 -4751 -4762 0
4762 -12117 -4760 0
-4762 12117 0
-4762 4760 0
-4763 12119 4764 0
-4763 -12119 -4751 -4764 0
-4763 363 0
-4763 12119 4751 0
4763 -12119 -363 4764 0
4763 -12119 -363 4751 0
4763 12119 -363 -4751 -4764 0
4764 -12118 -4762 0
-4764 12118 0
-4764 4762 0
-4765 12120 4766 0
-4765 -12120 -4751 -4766 0
-4765 363 0
-4765 12120 4751 0
4765 -12120 -363 4766 0
4765 -12120 -363 4751 0
4765 12120 -363 -4751 -4766 0
4766 -12119 -4764 0
-4766 12119 0
-4766 4764 0
-4767 12121 4768 0
-4767 -12121 -4751 -4768 0
-4767 363 0
-4767 12121 4751 0
4767 -12121 -363 4768 0
4767 -12121 -363 4751 0
4767 12121 -363 -4751 -4768 0
4768 -12120 -4766 0
-4768 12120 0
-4768 4766 0
-4769 12122 4770 0
-4769 -12122 -4751 -4770 0
-4769 363 0
-4769 12122 4751 0
4769 -12122 -363 4770 0
4769 -12122 -363 4751 0
4769 12122 -363 -4751 -4770 0
4770 -12121 -4768 0
-4770 12121 0
-4770 4768 0
-4771 12123 4772 0
-4771 -12123 -4751 -4772 0
-4771 363 0
-4771 12123 4751 0
4771 -12123 -363 4772 0
4771 -12123 -363 4751 0
4771 12123 -363 -4751 -4772 0
4772 -12122 -4770 0
-4772 12122 0
-4772 4770 0
-4773 12124 4774 0
-4773 -12124 -4751 -4774 0
-4773 363 0
-4773 12124 4751 0
4773 -12124 -363 4774 0
4773 -12124 -363 4751 0
4773 12124 -363 -4751 -4774 0
4774 -12123 -4772 0
-4774 12123 0
-4774 4772 0
-4775 12125 4776 0
-4775 -12125 -4751 -4776 0
-4775 363 0
-4775 12125 4751 0
4775 -12125 -363 4776 0
4775 -12125 -363 4751 0
4775 12125 -363 -4751 -4776 0
4776 -12124 -4774 0
-4776 12124 0
-4776 4774 0
-4777 12126 4778 0
-4777 -12126 -4751 -4778 0
-4777 363 0
-4777 12126 4751 0
4777 -12126 -363 4778 0
4777 -12126 -363 4751 0
4777 12126 -363 -4751 -4778 0
4778 -12125 -4776 0
-4778 12125 0
-4778 4776 0
-4779 12127 4780 0
-4779 -12127 -4751 -4780 0
-4779 363 0
-4779 12127 4751 0
4779 -12127 -363 4780 0
4779 -12127 -363 4751 0
4779 12127 -363 -4751 -4780 0
4780 -12126 -4778 0
-4780 12126 0
-4780 4778 0
-4781 12128 4782 0
-4781 -12128 -4751 -4782 0
-4781 363 0
-4781 12128 4751 0
4781 -12128 -363 4782 0
4781 -12128 -363 4751 0
4781 12128 -363 -4751 -4782 0
4782 -12127 -4780 0
-4782 12127 0
-4782 4780 0
-4783 12129 4784 0
-4783 -12129 -4751 -4784 0
-4783 363 0
-4783 12129 4751 0
4783 -12129 -363 4784 0
4783 -12129 -363 4751 0
4783 12129 -363 -4751 -4784 0
4784 -12128 -4782 0
-4784 12128 0
-4784 4782 0
-4785 12130 4786 0
-4785 -12130 -4751 -4786 0
-4785 363 0
-4785 12130 4751 0
4785 -12130 -363 4786 0
4785 -12130 -363 4751 0
4785 12130 -363 -4751 -4786 0
4786 -12129 -4784 0
-4786 12129 0
-4786 4784 0
-4787 12131 4788 0
-4787 -12131 -4751 -4788 0
-4787 363 0
-4787 12131 4751 0
4787 -12131 -363 4788 0
4787 -12131 -363 4751 0
4787 12131 -363 -4751 -4788 0
4788 -12130 -4786 0
-4788 12130 0
-4788 4786 0
-4789 12132 4790 0
-4789 -12132 -4751 -4790 0
-4789 363 0
-4789 12132 4751 0
4789 -12132 -363 4790 0
4789 -12132 -363 4751 0
4789 12132 -363 -4751 -4790 0
4790 -12131 -4788 0
-4790 12131 0
-4790 4788 0
-4791 12133 4792 0
-4791 -12133 -4751 -4792 0
-4791 363 0
-4791 12133 4751 0
4791 -12133 -363 4792 0
4791 -12133 -363 4751 0
4791 12133 -363 -4751 -4792 0
4792 -12132 -4790 0
-4792 12132 0
-4792 4790 0
-4793 12134 4794 0
-4793 -12134 -4751 -4794 0
-4793 363 0
-4793 12134 4751 0
4793 -12134 -363 4794 0
4793 -12134 -363 4751 0
4793 12134 -363 -4751 -4794 0
4794 -12133 -4792 0
-4794 12133 0
-4794 4792 0
-4795 12135 4796 0
-4795 -12135 -4751 -4796 0
-4795 363 0
-4795 12135 4751 0
4795 -12135 -363 4796 0
4795 -12135 -363 4751 0
4795 12135 -363 -4751 -4796 0
4796 -12134 -4794 0
-4796 12134 0
-4796 4794 0
-4797 12136 4798 0
-4797 -12136 -4751 -4798 0
-4797 363 0
-4797 12136 4751 0
4797 -12136 -363 4798 0
4797 -12136 -363 4751 0
4797 12136 -363 -4751 -4798 0
4798 -12135 -4796 0
-4798 12135 0
-4798 4796 0
-4799 12137 4800 0
-4799 -12137 -4751 -4800 0
-4799 363 0
-4799 12137 4751 0
4799 -12137 -363 4800 0
4799 -12137 -363 4751 0
4799 12137 -363 -4751 -4800 0
4800 -12136 -4798 0
-4800 12136 0
-4800 4798 0
-4801 12138 4802 0
-4801 -12138 -4751 -4802 0
-4801 363 0
-4801 12138 4751 0
4801 -12138 -363 4802 0
4801 -12138 -363 4751 0
4801 12138 -363 -4751 -4802 0
4802 -12137 -4800 0
-4802 12137 0
-4802 4800 0
-4803 12139 4804 0
-4803 -12139 -4751 -4804 0
-4803 363 0
-4803 12139 4751 0
4803 -12139 -363 4804 0
4803 -12139 -363 4751 0
4803 12139 -363 -4751 -4804 0
4804 -12138 -4802 0
-4804 12138 0
-4804 4802 0
-4805 12140 4806 0
-4805 -12140 -4751 -4806 0
-4805 363 0
-4805 12140 4751 0
4805 -12140 -363 4806 0
4805 -12140 -363 4751 0
4805 12140 -363 -4751 -4806 0
4806 -12139 -4804 0
-4806 12139 0
-4806 4804 0
-4807 12141 4808 0
-4807 -12141 -4751 -4808 0
-4807 363 0
-4807 12141 4751 0
4807 -12141 -363 4808 0
4807 -12141 -363 4751 0
4807 12141 -363 -4751 -4808 0
4808 -12140 -4806 0
-4808 12140 0
-4808 4806 0
-4809 12142 4810 0
-4809 -12142 -4751 -4810 0
-4809 363 0
-4809 12142 4751 0
4809 -12142 -363 4810 0
4809 -12142 -363 4751 0
4809 12142 -363 -4751 -4810 0
4810 -12141 -4808 0
-4810 12141 0
-4810 4808 0
-4811 12143 4812 0
-4811 -12143 -4751 -4812 0
-4811 363 0
-4811 12143 4751 0
4811 -12143 -363 4812 0
4811 -12143 -363 4751 0
4811 12143 -363 -4751 -4812 0
4812 -12142 -4810 0
-4812 12142 0
-4812 4810 0
-4813 4814 -4815 0
-4813 12144 4815 0
-4813 363 4814 0
4813 -12144 -4814 0
4813 -4814 -4815 0
4813 -12144 -363 4815 0
4814 -363 -3735 0
-4814 363 0
-4814 3735 0
4815 -9981 12112 4816 0
-4815 9981 0
-4815 -12112 0
-4815 -4816 0
-4816 12113 4817 0
4816 -12113 0
4816 -4817 0
-4817 12114 4818 0
4817 -12114 0
4817 -4818 0
-4818 12115 4819 0
4818 -12115 0
4818 -4819 0
-4819 12116 12117 12118 4820 0
4819 -4820 0
4819 -12118 0
4819 -12116 0
4819 -12117 0
-4820 12119 12120 12121 4821 0
4820 -4821 0
4820 -12121 0
4820 -12119 0
4820 -12120 0
-4821 12122 12123 12124 4822 0
4821 -4822 0
4821 -12124 0
4821 -12122 0
4821 -12123 0
-4822 12125 12126 12127 4823 0
4822 -4823 0
4822 -12127 0
4822 -12125 0
4822 -12126 0
-4823 12128 12129 12130 4824 0
4823 -4824 0
4823 -12130 0
4823 -12128 0
4823 -12129 0
-4824 12131 12132 12133 4825 0
4824 -4825 0
4824 -12133 0
4824 -12131 0
4824 -12132 0
-4825 12134 12135 12136 4826 0
4825 -4826 0
4825 -12136 0
4825 -12134 0
4825 -12135 0
-4826 12137 12138 12139 4827 0
4826 -4827 0
4826 -12139 0
4826 -12137 0
4826 -12138 0
-4827 12140 12141 12142 12143 0
4827 -12143 0
4827 -12142 0
4827 -12140 0
4827 -12141 0
-4828 12145 4815 0
-4828 -4815 4829 0
-4828 363 4829 0
4828 -12145 -4829 0
4828 -4815 -4829 0
4828 -12145 -363 4815 0
4829 -363 -3751 0
-4829 363 0
-4829 3751 0
-4830 12146 4815 0
-4830 -4815 4831 0
-4830 363 4831 0
4830 -12146 -4831 0
4830 -4815 -4831 0
4830 -12146 -363 4815 0
4831 -363 -3767 0
-4831 363 0
-4831 3767 0
-4832 12147 4815 0
-4832 -4815 4833 0
-4832 363 4833 0
4832 -12147 -4833 0
4832 -4815 -4833 0
4832 -12147 -363 4815 0
4833 -363 -3783 0
-4833 363 0
-4833 3783 0
-4834 12148 4815 0
-4834 -4815 4835 0
-4834 363 4835 0
4834 -12148 -4835 0
4834 -4815 -4835 0
4834 -12148 -363 4815 0
4835 -363 -3799 0
-4835 363 0
-4835 3799 0
-4836 12149 4815 0
-4836 -4815 4837 0
-4836 363 4837 0
4836 -12149 -4837 0
4836 -4815 -4837 0
4836 -12149 -363 4815 0
4837 -363 -3815 0
-4837 363 0
-4837 3815 0
-4838 12150 4815 0
-4838 -4815 4839 0
-4838 363 4839 0
4838 -12150 -4839 0
4838 -4815 -4839 0
4838 -12150 -363 4815 0
4839 -363 -3831 0
-4839 363 0
-4839 3831 0
-4840 12151 4815 0
-4840 -4815 4841 0
-4840 363 4841 0
4840 -12151 -4841 0
4840 -4815 -4841 0
4840 -12151 -363 4815 0
4841 -363 -3847 0
-4841 363 0
-4841 3847 0
-4842 12152 4815 0
-4842 -4815 4843 0
-4842 363 4843 0
4842 -12152 -4843 0
4842 -4815 -4843 0
4842 -12152 -363 4815 0
4843 -363 -3863 0
-4843 363 0
-4843 3863 0
-4844 12153 4815 0
-4844 -4815 4845 0
-4844 363 4845 0
4844 -12153 -4845 0
4844 -4815 -4845 0
4844 -12153 -363 4815 0
4845 -363 -3879 0
-4845 363 0
-4845 3879 0
-4846 12154 4815 0
-4846 -4815 4847 0
-4846 363 4847 0
4846 -12154 -4847 0
4846 -4815 -4847 0
4846 -12154 -363 4815 0
4847 -363 -3895 0
-4847 363 0
-4847 3895 0
-4848 12155 4815 0
-4848 -4815 4849 0
-4848 363 4849 0
4848 -12155 -4849 0
4848 -4815 -4849 0
4848 -12155 -363 4815 0
4849 -363 -3911 0
-4849 363 0
-4849 3911 0
-4850 12156 4815 0
-4850 -4815 4851 0
-4850 363 4851 0
4850 -12156 -4851 0
4850 -4815 -4851 0
4850 -12156 -363 4815 0
4851 -363 -3927 0
-4851 363 0
-4851 3927 0
-4852 12157 4815 0
-4852 -4815 4853 0
-4852 363 4853 0
4852 -12157 -4853 0
4852 -4815 -4853 0
4852 -12157 -363 4815 0
4853 -363 -3943 0
-4853 363 0
-4853 3943 0
-4854 12158 4815 0
-4854 -4815 4855 0
-4854 363 4855 0
4854 -12158 -4855 0
4854 -4815 -4855 0
4854 -12158 -363 4815 0
4855 -363 -3959 0
-4855 363 0
-4855 3959 0
-4856 12159 4815 0
-4856 -4815 4857 0
-4856 363 4857 0
4856 -12159 -4857 0
4856 -4815 -4857 0
4856 -12159 -363 4815 0
4857 -363 -3975 0
-4857 363 0
-4857 3975 0
-4858 12160 4815 0
-4858 -4815 4859 0
-4858 363 4859 0
4858 -12160 -4859 0
4858 -4815 -4859 0
4858 -12160 -363 4815 0
4859 -363 -3991 0
-4859 363 0
-4859 3991 0
-4860 12161 4815 0
-4860 -4815 4861 0
-4860 363 4861 0
4860 -12161 -4861 0
4860 -4815 -4861 0
4860 -12161 -363 4815 0
4861 -363 -4007 0
-4861 363 0
-4861 4007 0
-4862 12162 4815 0
-4862 -4815 4863 0
-4862 363 4863 0
4862 -12162 -4863 0
4862 -4815 -4863 0
4862 -12162 -363 4815 0
4863 -363 -4023 0
-4863 363 0
-4863 4023 0
-4864 12163 4815 0
-4864 -4815 4865 0
-4864 363 4865 0
4864 -12163 -4865 0
4864 -4815 -4865 0
4864 -12163 -363 4815 0
4865 -363 -4039 0
-4865 363 0
-4865 4039 0
-4866 12164 4815 0
-4866 -4815 4867 0
-4866 363 4867 0
4866 -12164 -4867 0
4866 -4815 -4867 0
4866 -12164 -363 4815 0
4867 -363 -4055 0
-4867 363 0
-4867 4055 0
-4868 12165 4815 0
-4868 -4815 4869 0
-4868 363 4869 0
4868 -12165 -4869 0
4868 -4815 -4869 0
4868 -12165 -363 4815 0
4869 -363 -4071 0
-4869 363 0
-4869 4071 0
-4870 12166 4815 0
-4870 -4815 4871 0
-4870 363 4871 0
4870 -12166 -4871 0
4870 -4815 -4871 0
4870 -12166 -363 4815 0
4871 -363 -4087 0
-4871 363 0
-4871 4087 0
-4872 12167 4815 0
-4872 -4815 4873 0
-4872 363 4873 0
4872 -12167 -4873 0
4872 -4815 -4873 0
4872 -12167 -363 4815 0
4873 -363 -4103 0
-4873 363 0
-4873 4103 0
-4874 12168 4815 0
-4874 -4815 4875 0
-4874 363 4875 0
4874 -12168 -4875 0
4874 -4815 -4875 0
4874 -12168 -363 4815 0
4875 -363 -4119 0
-4875 363 0
-4875 4119 0
-4876 12169 4815 0
-4876 -4815 4877 0
-4876 363 4877 0
4876 -12169 -4877 0
4876 -4815 -4877 0
4876 -12169 -363 4815 0
4877 -363 -4135 0
-4877 363 0
-4877 4135 0
-4878 12170 4815 0
-4878 -4815 4879 0
-4878 363 4879 0
4878 -12170 -4879 0
4878 -4815 -4879 0
4878 -12170 -363 4815 0
4879 -363 -4151 0
-4879 363 0
-4879 4151 0
-4880 12171 4815 0
-4880 -4815 4881 0
-4880 363 4881 0
4880 -12171 -4881 0
4880 -4815 -4881 0
4880 -12171 -363 4815 0
4881 -363 -4167 0
-4881 363 0
-4881 4167 0
-4882 12172 4815 0
-4882 -4815 4883 0
-4882 363 4883 0
4882 -12172 -4883 0
4882 -4815 -4883 0
4882 -12172 -363 4815 0
4883 -363 -4183 0
-4883 363 0
-4883 4183 0
-4884 12173 4815 0
-4884 -4815 4885 0
-4884 363 4885 0
4884 -12173 -4885 0
4884 -4815 -4885 0
4884 -12173 -363 4815 0
4885 -363 -4199 0
-4885 363 0
-4885 4199 0
-4886 12174 4815 0
-4886 -4815 4887 0
-4886 363 4887 0
4886 -12174 -4887 0
4886 -4815 -4887 0
4886 -12174 -363 4815 0
4887 -363 -4215 0
-4887 363 0
-4887 4215 0
-4888 12175 4815 0
-4888 -4815 4889 0
-4888 363 4889 0
4888 -12175 -4889 0
4888 -4815 -4889 0
4888 -12175 -363 4815 0
4889 -363 -4231 0
-4889 363 0
-4889 4231 0
-4890 12176 4815 0
-4890 -4815 4891 0
-4890 363 4891 0
4890 -12176 -4891 0
4890 -4815 -4891 0
4890 -12176 -363 4815 0
4891 -363 -4247 0
-4891 363 0
-4891 4247 0
-4892 12177 4815 0
-4892 -4815 4893 0
-4892 363 4893 0
4892 -12177 -4893 0
4892 -4815 -4893 0
4892 -12177 -363 4815 0
4893 -363 -4263 0
-4893 363 0
-4893 4263 0
-4894 12178 4815 0
-4894 -4815 4895 0
-4894 363 4895 0
4894 -12178 -4895 0
4894 -4815 -4895 0
4894 -12178 -363 4815 0
4895 -363 -4279 0
-4895 363 0
-4895 4279 0
-4896 12179 4815 0
-4896 -4815 4897 0
-4896 363 4897 0
4896 -12179 -4897 0
4896 -4815 -4897 0
4896 -12179 -363 4815 0
4897 -363 -4295 0
-4897 363 0
-4897 4295 0
-4898 12180 4815 0
-4898 -4815 4899 0
-4898 363 4899 0
4898 -12180 -4899 0
4898 -4815 -4899 0
4898 -12180 -363 4815 0
4899 -363 -4311 0
-4899 363 0
-4899 4311 0
-4900 12181 4815 0
-4900 -4815 4901 0
-4900 363 4901 0
4900 -12181 -4901 0
4900 -4815 -4901 0
4900 -12181 -363 4815 0
4901 -363 -4327 0
-4901 363 0
-4901 4327 0
-4902 12182 4815 0
-4902 -4815 4903 0
-4902 363 4903 0
4902 -12182 -4903 0
4902 -4815 -4903 0
4902 -12182 -363 4815 0
4903 -363 -4343 0
-4903 363 0
-4903 4343 0
-4904 12183 4815 0
-4904 -4815 4905 0
-4904 363 4905 0
4904 -12183 -4905 0
4904 -4815 -4905 0
4904 -12183 -363 4815 0
4905 -363 -4359 0
-4905 363 0
-4905 4359 0
-4906 12184 4815 0
-4906 -4815 4907 0
-4906 363 4907 0
4906 -12184 -4907 0
4906 -4815 -4907 0
4906 -12184 -363 4815 0
4907 -363 -4375 0
-4907 363 0
-4907 4375 0
-4908 12185 4815 0
-4908 -4815 4909 0
-4908 363 4909 0
4908 -12185 -4909 0
4908 -4815 -4909 0
4908 -12185 -363 4815 0
4909 -363 -4391 0
-4909 363 0
-4909 4391 0
-4910 12186 4815 0
-4910 -4815 4911 0
-4910 363 4911 0
4910 -12186 -4911 0
4910 -4815 -4911 0
4910 -12186 -363 4815 0
4911 -363 -4407 0
-4911 363 0
-4911 4407 0
-4912 12187 4815 0
-4912 -4815 4913 0
-4912 363 4913 0
4912 -12187 -4913 0
4912 -4815 -4913 0
4912 -12187 -363 4815 0
4913 -363 -4423 0
-4913 363 0
-4913 4423 0
-4914 12188 4815 0
-4914 -4815 4915 0
-4914 363 4915 0
4914 -12188 -4915 0
4914 -4815 -4915 0
4914 -12188 -363 4815 0
4915 -363 -4439 0
-4915 363 0
-4915 4439 0
-4916 12189 4815 0
-4916 -4815 4917 0
-4916 363 4917 0
4916 -12189 -4917 0
4916 -4815 -4917 0
4916 -12189 -363 4815 0
4917 -363 -4455 0
-4917 363 0
-4917 4455 0
-4918 12190 4815 0
-4918 -4815 4919 0
-4918 363 4919 0
4918 -12190 -4919 0
4918 -4815 -4919 0
4918 -12190 -363 4815 0
4919 -363 -4471 0
-4919 363 0
-4919 4471 0
-4920 12191 4815 0
-4920 -4815 4921 0
-4920 363 4921 0
4920 -12191 -4921 0
4920 -4815 -4921 0
4920 -12191 -363 4815 0
4921 -363 -4487 0
-4921 363 0
-4921 4487 0
-4922 12192 4815 0
-4922 -4815 4923 0
-4922 363 4923 0
4922 -12192 -4923 0
4922 -4815 -4923 0
4922 -12192 -363 4815 0
4923 -363 -4503 0
-4923 363 0
-4923 4503 0
-4924 12193 4815 0
-4924 -4815 4925 0
-4924 363 4925 0
4924 -12193 -4925 0
4924 -4815 -4925 0
4924 -12193 -363 4815 0
4925 -363 -4519 0
-4925 363 0
-4925 4519 0
-4926 12194 4815 0
-4926 -4815 4927 0
-4926 363 4927 0
4926 -12194 -4927 0
4926 -4815 -4927 0
4926 -12194 -363 4815 0
4927 -363 -4535 0
-4927 363 0
-4927 4535 0
-4928 12195 4815 0
-4928 -4815 4929 0
-4928 363 4929 0
4928 -12195 -4929 0
4928 -4815 -4929 0
4928 -12195 -363 4815 0
4929 -363 -4551 0
-4929 363 0
-4929 4551 0
-4930 12196 4815 0
-4930 -4815 4931 0
-4930 363 4931 0
4930 -12196 -4931 0
4930 -4815 -4931 0
4930 -12196 -363 4815 0
4931 -363 -4567 0
-4931 363 0
-4931 4567 0
-4932 12197 4815 0
-4932 -4815 4933 0
-4932 363 4933 0
4932 -12197 -4933 0
4932 -4815 -4933 0
4932 -12197 -363 4815 0
4933 -363 -4583 0
-4933 363 0
-4933 4583 0
-4934 12198 4815 0
-4934 -4815 4935 0
-4934 363 4935 0
4934 -12198 -4935 0
4934 -4815 -4935 0
4934 -12198 -363 4815 0
4935 -363 -4599 0
-4935 363 0
-4935 4599 0
-4936 12199 4815 0
-4936 -4815 4937 0
-4936 363 4937 0
4936 -12199 -4937 0
4936 -4815 -4937 0
4936 -12199 -363 4815 0
4937 -363 -4615 0
-4937 363 0
-4937 4615 0
-4938 12200 4815 0
-4938 -4815 4939 0
-4938 363 4939 0
4938 -12200 -4939 0
4938 -4815 -4939 0
4938 -12200 -363 4815 0
4939 -363 -4631 0
-4939 363 0
-4939 4631 0
-4940 12201 4815 0
-4940 -4815 4941 0
-4940 363 4941 0
4940 -12201 -4941 0
4940 -4815 -4941 0
4940 -12201 -363 4815 0
4941 -363 -4647 0
-4941 363 0
-4941 4647 0
-4942 12202 4815 0
-4942 -4815 4943 0
-4942 363 4943 0
4942 -12202 -4943 0
4942 -4815 -4943 0
4942 -12202 -363 4815 0
4943 -363 -4663 0
-4943 363 0
-4943 4663 0
-4944 12203 4815 0
-4944 -4815 4945 0
-4944 363 4945 0
4944 -12203 -4945 0
4944 -4815 -4945 0
4944 -12203 -363 4815 0
4945 -363 -4679 0
-4945 363 0
-4945 4679 0
-4946 12204 4815 0
-4946 -4815 4947 0
-4946 363 4947 0
4946 -12204 -4947 0
4946 -4815 -4947 0
4946 -12204 -363 4815 0
4947 -363 -4695 0
-4947 363 0
-4947 4695 0
-4948 12205 4815 0
-4948 -4815 4949 0
-4948 363 4949 0
4948 -12205 -4949 0
4948 -4815 -4949 0
4948 -12205 -363 4815 0
4949 -363 -4711 0
-4949 363 0
-4949 4711 0
-4950 12206 4815 0
-4950 -4815 4951 0
-4950 363 4951 0
4950 -12206 -4951 0
4950 -4815 -4951 0
4950 -12206 -363 4815 0
4951 -363 -4727 0
-4951 363 0
-4951 4727 0
-4952 12207 4815 0
-4952 -4815 4953 0
-4952 363 4953 0
4952 -12207 -4953 0
4952 -4815 -4953 0
4952 -12207 -363 4815 0
4953 -363 -4743 0
-4953 363 0
-4953 4743 0
-4954 4814 -4955 0
-4954 12208 4955 0
-4954 363 4814 0
4954 -12208 -4814 0
4954 -4814 -4955 0
4954 -12208 -363 4955 0
4955 -9981 -12112 4816 0
-4955 9981 0
-4955 12112 0
-4955 -4816 0
-4956 4829 -4955 0
-4956 12209 4955 0
-4956 363 4829 0
4956 -12209 -4829 0
4956 -4829 -4955 0
4956 -12209 -363 4955 0
-4957 4831 -4955 0
-4957 12210 4955 0
-4957 363 4831 0
4957 -12210 -4831 0
4957 -4831 -4955 0
4957 -12210 -363 4955 0
-4958 4833 -4955 0
-4958 12211 4955 0
-4958 363 4833 0
4958 -12211 -4833 0
4958 -4833 -4955 0
4958 -12211 -363 4955 0
-4959 4835 -4955 0
-4959 12212 4955 0
-4959 363 4835 0
4959 -12212 -4835 0
4959 -4835 -4955 0
4959 -12212 -363 4955 0
-4960 4837 -4955 0
-4960 12213 4955 0
-4960 363 4837 0
4960 -12213 -4837 0
4960 -4837 -4955 0
4960 -12213 -363 4955 0
-4961 4839 -4955 0
-4961 12214 4955 0
-4961 363 4839 0
4961 -12214 -4839 0
4961 -4839 -4955 0
4961 -12214 -363 4955 0
-4962 4841 -4955 0
-4962 12215 4955 0
-4962 363 4841 0
4962 -12215 -4841 0
4962 -4841 -4955 0
4962 -12215 -363 4955 0
-4963 4843 -4955 0
-4963 12216 4955 0
-4963 363 4843 0
4963 -12216 -4843 0
4963 -4843 -4955 0
4963 -12216 -363 4955 0
-4964 4845 -4955 0
-4964 12217 4955 0
-4964 363 4845 0
4964 -12217 -4845 0
4964 -4845 -4955 0
4964 -12217 -363 4955 0
-4965 4847 -4955 0
-4965 12218 4955 0
-4965 363 4847 0
4965 -12218 -4847 0
4965 -4847 -4955 0
4965 -12218 -363 4955 0
-4966 4849 -4955 0
-4966 12219 4955 0
-4966 363 4849 0
4966 -12219 -4849 0
4966 -4849 -4955 0
4966 -12219 -363 4955 0
-4967 4851 -4955 0
-4967 12220 4955 0
-4967 363 4851 0
4967 -12220 -4851 0
4967 -4851 -4955 0
4967 -12220 -363 4955 0
-4968 4853 -4955 0
-4968 12221 4955 0
-4968 363 4853 0
4968 -12221 -4853 0
4968 -4853 -4955 0
4968 -12221 -363 4955 0
-4969 4855 -4955 0
-4969 12222 4955 0
-4969 363 4855 0
4969 -12222 -4855 0
4969 -4855 -4955 0
4969 -12222 -363 4955 0
-4970 4857 -4955 0
-4970 12223 4955 0
-4970 363 4857 0
4970 -12223 -4857 0
4970 -4857 -4955 0
4970 -12223 -363 4955 0
-4971 4859 -4955 0
-4971 12224 4955 0
-4971 363 4859 0
4971 -12224 -4859 0
4971 -4859 -4955 0
4971 -12224 -363 4955 0
-4972 4861 -4955 0
-4972 12225 4955 0
-4972 363 4861 0
4972 -12225 -4861 0
4972 -4861 -4955 0
4972 -12225 -363 4955 0
-4973 4863 -4955 0
-4973 12226 4955 0
-4973 363 4863 0
4973 -12226 -4863 0
4973 -4863 -4955 0
4973 -12226 -363 4955 0
-4974 4865 -4955 0
-4974 12227 4955 0
-4974 363 4865 0
4974 -12227 -4865 0
4974 -4865 -4955 0
4974 -12227 -363 4955 0
-4975 4867 -4955 0
-4975 12228 4955 0
-4975 363 4867 0
4975 -12228 -4867 0
4975 -4867 -4955 0
4975 -12228 -363 4955 0
-4976 4869 -4955 0
-4976 12229 4955 0
-4976 363 4869 0
4976 -12229 -4869 0
4976 -4869 -4955 0
4976 -12229 -363 4955 0
-4977 4871 -4955 0
-4977 12230 4955 0
-4977 363 4871 0
4977 -12230 -4871 0
4977 -4871 -4955 0
4977 -12230 -363 4955 0
-4978 4873 -4955 0
-4978 12231 4955 0
-4978 363 4873 0
4978 -12231 -4873 0
4978 -4873 -4955 0
4978 -12231 -363 4955 0
-4979 4875 -4955 0
-4979 12232 4955 0
-4979 363 4875 0
4979 -12232 -4875 0
4979 -4875 -4955 0
4979 -12232 -363 4955 0
-4980 4877 -4955 0
-4980 12233 4955 0
-4980 363 4877 0
4980 -12233 -4877 0
4980 -4877 -4955 0
4980 -12233 -363 4955 0
-4981 4879 -4955 0
-4981 12234 4955 0
-4981 363 4879 0
4981 -12234 -4879 0
4981 -4879 -4955 0
4981 -12234 -363 4955 0
-4982 4881 -4955 0
-4982 12235 4955 0
-4982 363 4881 0
4982 -12235 -4881 0
4982 -4881 -4955 0
4982 -12235 -363 4955 0
-4983 4883 -4955 0
-4983 12236 4955 0
-4983 363 4883 0
4983 -12236 -4883 0
4983 -4883 -4955 0
4983 -12236 -363 4955 0
-4984 4885 -4955 0
-4984 12237 4955 0
-4984 363 4885 0
4984 -12237 -4885 0
4984 -4885 -4955 0
4984 -12237 -363 4955 0
-4985 4887 -4955 0
-4985 12238 4955 0
-4985 363 4887 0
4985 -12238 -4887 0
4985 -4887 -4955 0
4985 -12238 -363 4955 0
-4986 4889 -4955 0
-4986 12239 4955 0
-4986 363 4889 0
4986 -12239 -4889 0
4986 -4889 -4955 0
4986 -12239 -363 4955 0
-4987 4891 -4955 0
-4987 12240 4955 0
-4987 363 4891 0
4987 -12240 -4891 0
4987 -4891 -4955 0
4987 -12240 -363 4955 0
-4988 4893 -4955 0
-4988 12241 4955 0
-4988 363 4893 0
4988 -12241 -4893 0
4988 -4893 -4955 0
4988 -12241 -363 4955 0
-4989 4895 -4955 0
-4989 12242 4955 0
-4989 363 4895 0
4989 -12242 -4895 0
4989 -4895 -4955 0
4989 -12242 -363 4955 0
-4990 4897 -4955 0
-4990 12243 4955 0
-4990 363 4897 0
4990 -12243 -4897 0
4990 -4897 -4955 0
4990 -12243 -363 4955 0
-4991 4899 -4955 0
-4991 12244 4955 0
-4991 363 4899 0
4991 -12244 -4899 0
4991 -4899 -4955 0
4991 -12244 -363 4955 0
-4992 4901 -4955 0
-4992 12245 4955 0
-4992 363 4901 0
4992 -12245 -4901 0
4992 -4901 -4955 0
4992 -12245 -363 4955 0
-4993 4903 -4955 0
-4993 12246 4955 0
-4993 363 4903 0
4993 -12246 -4903 0
4993 -4903 -4955 0
4993 -12246 -363 4955 0
-4994 4905 -4955 0
-4994 12247 4955 0
-4994 363 4905 0
4994 -12247 -4905 0
4994 -4905 -4955 0
4994 -12247 -363 4955 0
-4995 4907 -4955 0
-4995 12248 4955 0
-4995 363 4907 0
4995 -12248 -4907 0
4995 -4907 -4955 0
4995 -12248 -363 4955 0
-4996 4909 -4955 0
-4996 12249 4955 0
-4996 363 4909 0
4996 -12249 -4909 0
4996 -4909 -4955 0
4996 -12249 -363 4955 0
-4997 4911 -4955 0
-4997 12250 4955 0
-4997 363 4911 0
4997 -12250 -4911 0
4997 -4911 -4955 0
4997 -12250 -363 4955 0
-4998 4913 -4955 0
-4998 12251 4955 0
-4998 363 4913 0
4998 -12251 -4913 0
4998 -4913 -4955 0
4998 -12251 -363 4955 0
-4999 4915 -4955 0
-4999 12252 4955 0
-4999 363 4915 0
4999 -12252 -4915 0
4999 -4915 -4955 0
4999 -12252 -363 4955 0
-5000 4917 -4955 0
-5000 12253 4955 0
-5000 363 4917 0
5000 -12253 -4917 0
5000 -4917 -4955 0
5000 -12253 -363 4955 0
-5001 4919 -4955 0
-5001 12254 4955 0
-5001 363 4919 0
5001 -12254 -4919 0
5001 -4919 -4955 0
5001 -12254 -363 4955 0
-5002 4921 -4955 0
-5002 12255 4955 0
-5002 363 4921 0
5002 -12255 -4921 0
5002 -4921 -4955 0
5002 -12255 -363 4955 0
-5003 4923 -4955 0
-5003 12256 4955 0
-5003 363 4923 0
5003 -12256 -4923 0
5003 -4923 -4955 0
5003 -12256 -363 4955 0
-5004 4925 -4955 0
-5004 12257 4955 0
-5004 363 4925 0
5004 -12257 -4925 0
5004 -4925 -4955 0
5004 -12257 -363 4955 0
-5005 4927 -4955 0
-5005 12258 4955 0
-5005 363 4927 0
5005 -12258 -4927 0
5005 -4927 -4955 0
5005 -12258 -363 4955 0
-5006 4929 -4955 0
-5006 12259 4955 0
-5006 363 4929 0
5006 -12259 -4929 0
5006 -4929 -4955 0
5006 -12259 -363 4955 0
-5007 4931 -4955 0
-5007 12260 4955 0
-5007 363 4931 0
5007 -12260 -4931 0
5007 -4931 -4955 0
5007 -12260 -363 4955 0
-5008 4933 -4955 0
-5008 12261 4955 0
-5008 363 4933 0
5008 -12261 -4933 0
5008 -4933 -4955 0
5008 -12261 -363 4955 0
-5009 4935 -4955 0
-5009 12262 4955 0
-5009 363 4935 0
5009 -12262 -4935 0
5009 -4935 -4955 0
5009 -12262 -363 4955 0
-5010 4937 -4955 0
-5010 12263 4955 0
-5010 363 4937 0
5010 -12263 -4937 0
5010 -4937 -4955 0
5010 -12263 -363 4955 0
-5011 4939 -4955 0
-5011 12264 4955 0
-5011 363 4939 0
5011 -12264 -4939 0
5011 -4939 -4955 0
5011 -12264 -363 4955 0
-5012 4941 -4955 0
-5012 12265 4955 0
-5012 363 4941 0
5012 -12265 -4941 0
5012 -4941 -4955 0
5012 -12265 -363 4955 0
-5013 4943 -4955 0
-5013 12266 4955 0
-5013 363 4943 0
5013 -12266 -4943 0
5013 -4943 -4955 0
5013 -12266 -363 4955 0
-5014 4945 -4955 0
-5014 12267 4955 0
-5014 363 4945 0
5014 -12267 -4945 0
5014 -4945 -4955 0
5014 -12267 -363 4955 0
-5015 4947 -4955 0
-5015 12268 4955 0
-5015 363 4947 0
5015 -12268 -4947 0
5015 -4947 -4955 0
5015 -12268 -363 4955 0
-5016 4949 -4955 0
-5016 12269 4955 0
-5016 363 4949 0
5016 -12269 -4949 0
5016 -4949 -4955 0
5016 -12269 -363 4955 0
-5017 4951 -4955 0
-5017 12270 4955 0
-5017 363 4951 0
5017 -12270 -4951 0
5017 -4951 -4955 0
5017 -12270 -363 4955 0
-5018 4953 -4955 0
-5018 12271 4955 0
-5018 363 4953 0
5018 -12271 -4953 0
5018 -4953 -4955 0
5018 -12271 -363 4955 0
-5019 4814 -5020 0
-5019 12272 5020 0
-5019 363 4814 0
5019 -12272 -4814 0
5019 -4814 -5020 0
5019 -12272 -363 5020 0
5020 -9981 12112 -5021 0
-5020 9981 0
-5020 -12112 0
-5020 5021 0
5021 -12113 4817 0
-5021 12113 0
-5021 -4817 0
-5022 4829 -5020 0
-5022 12273 5020 0
-5022 363 4829 0
5022 -12273 -4829 0
5022 -4829 -5020 0
5022 -12273 -363 5020 0
-5023 4831 -5020 0
-5023 12274 5020 0
-5023 363 4831 0
5023 -12274 -4831 0
5023 -4831 -5020 0
5023 -12274 -363 5020 0
-5024 4833 -5020 0
-5024 12275 5020 0
-5024 363 4833 0
5024 -12275 -4833 0
5024 -4833 -5020 0
5024 -12275 -363 5020 0
-5025 4835 -5020 0
-5025 12276 5020 0
-5025 363 4835 0
5025 -12276 -4835 0
5025 -4835 -5020 0
5025 -12276 -363 5020 0
-5026 4837 -5020 0
-5026 12277 5020 0
-5026 363 4837 0
5026 -12277 -4837 0
5026 -4837 -5020 0
5026 -12277 -363 5020 0
-5027 4839 -5020 0
-5027 12278 5020 0
-5027 363 4839 0
5027 -12278 -4839 0
5027 -4839 -5020 0
5027 -12278 -363 5020 0
-5028 4841 -5020 0
-5028 12279 5020 0
-5028 363 4841 0
5028 -12279 -4841 0
5028 -4841 -5020 0
5028 -12279 -363 5020 0
-5029 4843 -5020 0
-5029 12280 5020 0
-5029 363 4843 0
5029 -12280 -4843 0
5029 -4843 -5020 0
5029 -12280 -363 5020 0
-5030 4845 -5020 0
-5030 12281 5020 0
-5030 363 4845 0
5030 -12281 -4845 0
5030 -4845 -5020 0
5030 -12281 -363 5020 0
-5031 4847 -5020 0
-5031 12282 5020 0
-5031 363 4847 0
5031 -12282 -4847 0
5031 -4847 -5020 0
5031 -12282 -363 5020 0
-5032 4849 -5020 0
-5032 12283 5020 0
-5032 363 4849 0
5032 -12283 -4849 0
5032 -4849 -5020 0
5032 -12283 -363 5020 0
-5033 4851 -5020 0
-5033 12284 5020 0
-5033 363 4851 0
5033 -12284 -4851 0
5033 -4851 -5020 0
5033 -12284 -363 5020 0
-5034 4853 -5020 0
-5034 12285 5020 0
-5034 363 4853 0
5034 -12285 -4853 0
5034 -4853 -5020 0
5034 -12285 -363 5020 0
-5035 4855 -5020 0
-5035 12286 5020 0
-5035 363 4855 0
5035 -12286 -4855 0
5035 -4855 -5020 0
5035 -12286 -363 5020 0
-5036 4857 -5020 0
-5036 12287 5020 0
-5036 363 4857 0
5036 -12287 -4857 0
5036 -4857 -5020 0
5036 -12287 -363 5020 0
-5037 4859 -5020 0
-5037 12288 5020 0
-5037 363 4859 0
5037 -12288 -4859 0
5037 -4859 -5020 0
5037 -12288 -363 5020 0
-5038 4861 -5020 0
-5038 12289 5020 0
-5038 363 4861 0
5038 -12289 -4861 0
5038 -4861 -5020 0
5038 -12289 -363 5020 0
-5039 4863 -5020 0
-5039 12290 5020 0
-5039 363 4863 0
5039 -12290 -4863 0
5039 -4863 -5020 0
5039 -12290 -363 5020 0
-5040 4865 -5020 0
-5040 12291 5020 0
-5040 363 4865 0
5040 -12291 -4865 0
5040 -4865 -5020 0
5040 -12291 -363 5020 0
-5041 4867 -5020 0
-5041 12292 5020 0
-5041 363 4867 0
5041 -12292 -4867 0
5041 -4867 -5020 0
5041 -12292 -363 5020 0
-5042 4869 -5020 0
-5042 12293 5020 0
-5042 363 4869 0
5042 -12293 -4869 0
5042 -4869 -5020 0
5042 -12293 -363 5020 0
-5043 4871 -5020 0
-5043 12294 5020 0
-5043 363 4871 0
5043 -12294 -4871 0
5043 -4871 -5020 0
5043 -12294 -363 5020 0
-5044 4873 -5020 0
-5044 12295 5020 0
-5044 363 4873 0
5044 -12295 -4873 0
5044 -4873 -5020 0
5044 -12295 -363 5020 0
-5045 4875 -5020 0
-5045 12296 5020 0
-5045 363 4875 0
5045 -12296 -4875 0
5045 -4875 -5020 0
5045 -12296 -363 5020 0
-5046 4877 -5020 0
-5046 12297 5020 0
-5046 363 4877 0
5046 -12297 -4877 0
5046 -4877 -5020 0
5046 -12297 -363 5020 0
-5047 4879 -5020 0
-5047 12298 5020 0
-5047 363 4879 0
5047 -12298 -4879 0
5047 -4879 -5020 0
5047 -12298 -363 5020 0
-5048 4881 -5020 0
-5048 12299 5020 0
-5048 363 4881 0
5048 -12299 -4881 0
5048 -4881 -5020 0
5048 -12299 -363 5020 0
-5049 4883 -5020 0
-5049 12300 5020 0
-5049 363 4883 0
5049 -12300 -4883 0
5049 -4883 -5020 0
5049 -12300 -363 5020 0
-5050 4885 -5020 0
-5050 12301 5020 0
-5050 363 4885 0
5050 -12301 -4885 0
5050 -4885 -5020 0
5050 -12301 -363 5020 0
-5051 4887 -5020 0
-5051 12302 5020 0
-5051 363 4887 0
5051 -12302 -4887 0
5051 -4887 -5020 0
5051 -12302 -363 5020 0
-5052 4889 -5020 0
-5052 12303 5020 0
-5052 363 4889 0
5052 -12303 -4889 0
5052 -4889 -5020 0
5052 -12303 -363 5020 0
-5053 4891 -5020 0
-5053 12304 5020 0
-5053 363 4891 0
5053 -12304 -4891 0
5053 -4891 -5020 0
5053 -12304 -363 5020 0
-5054 4893 -5020 0
-5054 12305 5020 0
-5054 363 4893 0
5054 -12305 -4893 0
5054 -4893 -5020 0
5054 -12305 -363 5020 0
-5055 4895 -5020 0
-5055 12306 5020 0
-5055 363 4895 0
5055 -12306 -4895 0
5055 -4895 -5020 0
5055 -12306 -363 5020 0
-5056 4897 -5020 0
-5056 12307 5020 0
-5056 363 4897 0
5056 -12307 -4897 0
5056 -4897 -5020 0
5056 -12307 -363 5020 0
-5057 4899 -5020 0
-5057 12308 5020 0
-5057 363 4899 0
5057 -12308 -4899 0
5057 -4899 -5020 0
5057 -12308 -363 5020 0
-5058 4901 -5020 0
-5058 12309 5020 0
-5058 363 4901 0
5058 -12309 -4901 0
5058 -4901 -5020 0
5058 -12309 -363 5020 0
-5059 4903 -5020 0
-5059 12310 5020 0
-5059 363 4903 0
5059 -12310 -4903 0
5059 -4903 -5020 0
5059 -12310 -363 5020 0
-5060 4905 -5020 0
-5060 12311 5020 0
-5060 363 4905 0
5060 -12311 -4905 0
5060 -4905 -5020 0
5060 -12311 -363 5020 0
-5061 4907 -5020 0
-5061 12312 5020 0
-5061 363 4907 0
5061 -12312 -4907 0
5061 -4907 -5020 0
5061 -12312 -363 5020 0
-5062 4909 -5020 0
-5062 12313 5020 0
-5062 363 4909 0
5062 -12313 -4909 0
5062 -4909 -5020 0
5062 -12313 -363 5020 0
-5063 4911 -5020 0
-5063 12314 5020 0
-5063 363 4911 0
5063 -12314 -4911 0
5063 -4911 -5020 0
5063 -12314 -363 5020 0
-5064 4913 -5020 0
-5064 12315 5020 0
-5064 363 4913 0
5064 -12315 -4913 0
5064 -4913 -5020 0
5064 -12315 -363 5020 0
-5065 4915 -5020 0
-5065 12316 5020 0
-5065 363 4915 0
5065 -12316 -4915 0
5065 -4915 -5020 0
5065 -12316 -363 5020 0
-5066 4917 -5020 0
-5066 12317 5020 0
-5066 363 4917 0
5066 -12317 -4917 0
5066 -4917 -5020 0
5066 -12317 -363 5020 0
-5067 4919 -5020 0
-5067 12318 5020 0
-5067 363 4919 0
5067 -12318 -4919 0
5067 -4919 -5020 0
5067 -12318 -363 5020 0
-5068 4921 -5020 0
-5068 12319 5020 0
-5068 363 4921 0
5068 -12319 -4921 0
5068 -4921 -5020 0
5068 -12319 -363 5020 0
-5069 4923 -5020 0
-5069 12320 5020 0
-5069 363 4923 0
5069 -12320 -4923 0
5069 -4923 -5020 0
5069 -12320 -363 5020 0
-5070 4925 -5020 0
-5070 12321 5020 0
-5070 363 4925 0
5070 -12321 -4925 0
5070 -4925 -5020 0
5070 -12321 -363 5020 0
-5071 4927 -5020 0
-5071 12322 5020 0
-5071 363 4927 0
5071 -12322 -4927 0
5071 -4927 -5020 0
5071 -12322 -363 5020 0
-5072 4929 -5020 0
-5072 12323 5020 0
-5072 363 4929 0
5072 -12323 -4929 0
5072 -4929 -5020 0
5072 -12323 -363 5020 0
-5073 4931 -5020 0
-5073 12324 5020 0
-5073 363 4931 0
5073 -12324 -4931 0
5073 -4931 -5020 0
5073 -12324 -363 5020 0
-5074 4933 -5020 0
-5074 12325 5020 0
-5074 363 4933 0
5074 -12325 -4933 0
5074 -4933 -5020 0
5074 -12325 -363 5020 0
-5075 4935 -5020 0
-5075 12326 5020 0
-5075 363 4935 0
5075 -12326 -4935 0
5075 -4935 -5020 0
5075 -12326 -363 5020 0
-5076 4937 -5020 0
-5076 12327 5020 0
-5076 363 4937 0
5076 -12327 -4937 0
5076 -4937 -5020 0
5076 -12327 -363 5020 0
-5077 4939 -5020 0
-5077 12328 5020 0
-5077 363 4939 0
5077 -12328 -4939 0
5077 -4939 -5020 0
5077 -12328 -363 5020 0
-5078 4941 -5020 0
-5078 12329 5020 0
-5078 363 4941 0
5078 -12329 -4941 0
5078 -4941 -5020 0
5078 -12329 -363 5020 0
-5079 4943 -5020 0
-5079 12330 5020 0
-5079 363 4943 0
5079 -12330 -4943 0
5079 -4943 -5020 0
5079 -12330 -363 5020 0
-5080 4945 -5020 0
-5080 12331 5020 0
-5080 363 4945 0
5080 -12331 -4945 0
5080 -4945 -5020 0
5080 -12331 -363 5020 0
-5081 4947 -5020 0
-5081 12332 5020 0
-5081 363 4947 0
5081 -12332 -4947 0
5081 -4947 -5020 0
5081 -12332 -363 5020 0
-5082 4949 -5020 0
-5082 12333 5020 0
-5082 363 4949 0
5082 -12333 -4949 0
5082 -4949 -5020 0
5082 -12333 -363 5020 0
-5083 4951 -5020 0
-5083 12334 5020 0
-5083 363 4951 0
5083 -12334 -4951 0
5083 -4951 -5020 0
5083 -12334 -363 5020 0
-5084 4953 -5020 0
-5084 12335 5020 0
-5084 363 4953 0
5084 -12335 -4953 0
5084 -4953 -5020 0
5084 -12335 -363 5020 0
-5085 4814 -5086 0
-5085 12336 5086 0
-5085 363 4814 0
5085 -12336 -4814 0
5085 -4814 -5086 0
5085 -12336 -363 5086 0
5086 -9981 -12112 -5021 0
-5086 9981 0
-5086 12112 0
-5086 5021 0
-5087 4829 -5086 0
-5087 12337 5086 0
-5087 363 4829 0
5087 -12337 -4829 0
5087 -4829 -5086 0
5087 -12337 -363 5086 0
-5088 4831 -5086 0
-5088 12338 5086 0
-5088 363 4831 0
5088 -12338 -4831 0
5088 -4831 -5086 0
5088 -12338 -363 5086 0
-5089 4833 -5086 0
-5089 12339 5086 0
-5089 363 4833 0
5089 -12339 -4833 0
5089 -4833 -5086 0
5089 -12339 -363 5086 0
-5090 4835 -5086 0
-5090 12340 5086 0
-5090 363 4835 0
5090 -12340 -4835 0
5090 -4835 -5086 0
5090 -12340 -363 5086 0
-5091 4837 -5086 0
-5091 12341 5086 0
-5091 363 4837 0
5091 -12341 -4837 0
5091 -4837 -5086 0
5091 -12341 -363 5086 0
-5092 4839 -5086 0
-5092 12342 5086 0
-5092 363 4839 0
5092 -12342 -4839 0
5092 -4839 -5086 0
5092 -12342 -363 5086 0
-5093 4841 -5086 0
-5093 12343 5086 0
-5093 363 4841 0
5093 -12343 -4841 0
5093 -4841 -5086 0
5093 -12343 -363 5086 0
-5094 4843 -5086 0
-5094 12344 5086 0
-5094 363 4843 0
5094 -12344 -4843 0
5094 -4843 -5086 0
5094 -12344 -363 5086 0
-5095 4845 -5086 0
-5095 12345 5086 0
-5095 363 4845 0
5095 -12345 -4845 0
5095 -4845 -5086 0
5095 -12345 -363 5086 0
-5096 4847 -5086 0
-5096 12346 5086 0
-5096 363 4847 0
5096 -12346 -4847 0
5096 -4847 -5086 0
5096 -12346 -363 5086 0
-5097 4849 -5086 0
-5097 12347 5086 0
-5097 363 4849 0
5097 -12347 -4849 0
5097 -4849 -5086 0
5097 -12347 -363 5086 0
-5098 4851 -5086 0
-5098 12348 5086 0
-5098 363 4851 0
5098 -12348 -4851 0
5098 -4851 -5086 0
5098 -12348 -363 5086 0
-5099 4853 -5086 0
-5099 12349 5086 0
-5099 363 4853 0
5099 -12349 -4853 0
5099 -4853 -5086 0
5099 -12349 -363 5086 0
-5100 4855 -5086 0
-5100 12350 5086 0
-5100 363 4855 0
5100 -12350 -4855 0
5100 -4855 -5086 0
5100 -12350 -363 5086 0
-5101 4857 -5086 0
-5101 12351 5086 0
-5101 363 4857 0
5101 -12351 -4857 0
5101 -4857 -5086 0
5101 -12351 -363 5086 0
-5102 4859 -5086 0
-5102 12352 5086 0
-5102 363 4859 0
5102 -12352 -4859 0
5102 -4859 -5086 0
5102 -12352 -363 5086 0
-5103 4861 -5086 0
-5103 12353 5086 0
-5103 363 4861 0
5103 -12353 -4861 0
5103 -4861 -5086 0
5103 -12353 -363 5086 0
-5104 4863 -5086 0
-5104 12354 5086 0
-5104 363 4863 0
5104 -12354 -4863 0
5104 -4863 -5086 0
5104 -12354 -363 5086 0
-5105 4865 -5086 0
-5105 12355 5086 0
-5105 363 4865 0
5105 -12355 -4865 0
5105 -4865 -5086 0
5105 -12355 -363 5086 0
-5106 4867 -5086 0
-5106 12356 5086 0
-5106 363 4867 0
5106 -12356 -4867 0
5106 -4867 -5086 0
5106 -12356 -363 5086 0
-5107 4869 -5086 0
-5107 12357 5086 0
-5107 363 4869 0
5107 -12357 -4869 0
5107 -4869 -5086 0
5107 -12357 -363 5086 0
-5108 4871 -5086 0
-5108 12358 5086 0
-5108 363 4871 0
5108 -12358 -4871 0
5108 -4871 -5086 0
5108 -12358 -363 5086 0
-5109 4873 -5086 0
-5109 12359 5086 0
-5109 363 4873 0
5109 -12359 -4873 0
5109 -4873 -5086 0
5109 -12359 -363 5086 0
-5110 4875 -5086 0
-5110 12360 5086 0
-5110 363 4875 0
5110 -12360 -4875 0
5110 -4875 -5086 0
5110 -12360 -363 5086 0
-5111 4877 -5086 0
-5111 12361 5086 0
-5111 363 4877 0
5111 -12361 -4877 0
5111 -4877 -5086 0
5111 -12361 -363 5086 0
-5112 4879 -5086 0
-5112 12362 5086 0
-5112 363 4879 0
5112 -12362 -4879 0
5112 -4879 -5086 0
5112 -12362 -363 5086 0
-5113 4881 -5086 0
-5113 12363 5086 0
-5113 363 4881 0
5113 -12363 -4881 0
5113 -4881 -5086 0
5113 -12363 -363 5086 0
-5114 4883 -5086 0
-5114 12364 5086 0
-5114 363 4883 0
5114 -12364 -4883 0
5114 -4883 -5086 0
5114 -12364 -363 5086 0
-5115 4885 -5086 0
-5115 12365 5086 0
-5115 363 4885 0
5115 -12365 -4885 0
5115 -4885 -5086 0
5115 -12365 -363 5086 0
-5116 4887 -5086 0
-5116 12366 5086 0
-5116 363 4887 0
5116 -12366 -4887 0
5116 -4887 -5086 0
5116 -12366 -363 5086 0
-5117 4889 -5086 0
-5117 12367 5086 0
-5117 363 4889 0
5117 -12367 -4889 0
5117 -4889 -5086 0
5117 -12367 -363 5086 0
-5118 4891 -5086 0
-5118 12368 5086 0
-5118 363 4891 0
5118 -12368 -4891 0
5118 -4891 -5086 0
5118 -12368 -363 5086 0
-5119 4893 -5086 0
-5119 12369 5086 0
-5119 363 4893 0
5119 -12369 -4893 0
5119 -4893 -5086 0
5119 -12369 -363 5086 0
-5120 4895 -5086 0
-5120 12370 5086 0
-5120 363 4895 0
5120 -12370 -4895 0
5120 -4895 -5086 0
5120 -12370 -363 5086 0
-5121 4897 -5086 0
-5121 12371 5086 0
-5121 363 4897 0
5121 -12371 -4897 0
5121 -4897 -5086 0
5121 -12371 -363 5086 0
-5122 4899 -5086 0
-5122 12372 5086 0
-5122 363 4899 0
5122 -12372 -4899 0
5122 -4899 -5086 0
5122 -12372 -363 5086 0
-5123 4901 -5086 0
-5123 12373 5086 0
-5123 363 4901 0
5123 -12373 -4901 0
5123 -4901 -5086 0
5123 -12373 -363 5086 0
-5124 4903 -5086 0
-5124 12374 5086 0
-5124 363 4903 0
5124 -12374 -4903 0
5124 -4903 -5086 0
5124 -12374 -363 5086 0
-5125 4905 -5086 0
-5125 12375 5086 0
-5125 363 4905 0
5125 -12375 -4905 0
5125 -4905 -5086 0
5125 -12375 -363 5086 0
-5126 4907 -5086 0
-5126 12376 5086 0
-5126 363 4907 0
5126 -12376 -4907 0
5126 -4907 -5086 0
5126 -12376 -363 5086 0
-5127 4909 -5086 0
-5127 12377 5086 0
-5127 363 4909 0
5127 -12377 -4909 0
5127 -4909 -5086 0
5127 -12377 -363 5086 0
-5128 4911 -5086 0
-5128 12378 5086 0
-5128 363 4911 0
5128 -12378 -4911 0
5128 -4911 -5086 0
5128 -12378 -363 5086 0
-5129 4913 -5086 0
-5129 12379 5086 0
-5129 363 4913 0
5129 -12379 -4913 0
5129 -4913 -5086 0
5129 -12379 -363 5086 0
-5130 4915 -5086 0
-5130 12380 5086 0
-5130 363 4915 0
5130 -12380 -4915 0
5130 -4915 -5086 0
5130 -12380 -363 5086 0
-5131 4917 -5086 0
-5131 12381 5086 0
-5131 363 4917 0
5131 -12381 -4917 0
5131 -4917 -5086 0
5131 -12381 -363 5086 0
-5132 4919 -5086 0
-5132 12382 5086 0
-5132 363 4919 0
5132 -12382 -4919 0
5132 -4919 -5086 0
5132 -12382 -363 5086 0
-5133 4921 -5086 0
-5133 12383 5086 0
-5133 363 4921 0
5133 -12383 -4921 0
5133 -4921 -5086 0
5133 -12383 -363 5086 0
-5134 4923 -5086 0
-5134 12384 5086 0
-5134 363 4923 0
5134 -12384 -4923 0
5134 -4923 -5086 0
5134 -12384 -363 5086 0
-5135 4925 -5086 0
-5135 12385 5086 0
-5135 363 4925 0
5135 -12385 -4925 0
5135 -4925 -5086 0
5135 -12385 -363 5086 0
-5136 4927 -5086 0
-5136 12386 5086 0
-5136 363 4927 0
5136 -12386 -4927 0
5136 -4927 -5086 0
5136 -12386 -363 5086 0
-5137 4929 -5086 0
-5137 12387 5086 0
-5137 363 4929 0
5137 -12387 -4929 0
5137 -4929 -5086 0
5137 -12387 -363 5086 0
-5138 4931 -5086 0
-5138 12388 5086 0
-5138 363 4931 0
5138 -12388 -4931 0
5138 -4931 -5086 0
5138 -12388 -363 5086 0
-5139 4933 -5086 0
-5139 12389 5086 0
-5139 363 4933 0
5139 -12389 -4933 0
5139 -4933 -5086 0
5139 -12389 -363 5086 0
-5140 4935 -5086 0
-5140 12390 5086 0
-5140 363 4935 0
5140 -12390 -4935 0
5140 -4935 -5086 0
5140 -12390 -363 5086 0
-5141 4937 -5086 0
-5141 12391 5086 0
-5141 363 4937 0
5141 -12391 -4937 0
5141 -4937 -5086 0
5141 -12391 -363 5086 0
-5142 4939 -5086 0
-5142 12392 5086 0
-5142 363 4939 0
5142 -12392 -4939 0
5142 -4939 -5086 0
5142 -12392 -363 5086 0
-5143 4941 -5086 0
-5143 12393 5086 0
-5143 363 4941 0
5143 -12393 -4941 0
5143 -4941 -5086 0
5143 -12393 -363 5086 0
-5144 4943 -5086 0
-5144 12394 5086 0
-5144 363 4943 0
5144 -12394 -4943 0
5144 -4943 -5086 0
5144 -12394 -363 5086 0
-5145 4945 -5086 0
-5145 12395 5086 0
-5145 363 4945 0
5145 -12395 -4945 0
5145 -4945 -5086 0
5145 -12395 -363 5086 0
-5146 4947 -5086 0
-5146 12396 5086 0
-5146 363 4947 0
5146 -12396 -4947 0
5146 -4947 -5086 0
5146 -12396 -363 5086 0
-5147 4949 -5086 0
-5147 12397 5086 0
-5147 363 4949 0
5147 -12397 -4949 0
5147 -4949 -5086 0
5147 -12397 -363 5086 0
-5148 4951 -5086 0
-5148 12398 5086 0
-5148 363 4951 0
5148 -12398 -4951 0
5148 -4951 -5086 0
5148 -12398 -363 5086 0
-5149 4953 -5086 0
-5149 12399 5086 0
-5149 363 4953 0
5149 -12399 -4953 0
5149 -4953 -5086 0
5149 -12399 -363 5086 0
-5150 4814 -5151 0
-5150 12400 5151 0
-5150 363 4814 0
5150 -12400 -4814 0
5150 -4814 -5151 0
5150 -12400 -363 5151 0
5151 -9981 12112 -5152 0
-5151 9981 0
-5151 -12112 0
-5151 5152 0
5152 12113 -5153 0
-5152 -12113 0
-5152 5153 0
5153 -12114 4818 0
-5153 12114 0
-5153 -4818 0
-5154 4829 -5151 0
-5154 12401 5151 0
-5154 363 4829 0
5154 -12401 -4829 0
5154 -4829 -5151 0
5154 -12401 -363 5151 0
-5155 4831 -5151 0
-5155 12402 5151 0
-5155 363 4831 0
5155 -12402 -4831 0
5155 -4831 -5151 0
5155 -12402 -363 5151 0
-5156 4833 -5151 0
-5156 12403 5151 0
-5156 363 4833 0
5156 -12403 -4833 0
5156 -4833 -5151 0
5156 -12403 -363 5151 0
-5157 4835 -5151 0
-5157 12404 5151 0
-5157 363 4835 0
5157 -12404 -4835 0
5157 -4835 -5151 0
5157 -12404 -363 5151 0
-5158 4837 -5151 0
-5158 12405 5151 0
-5158 363 4837 0
5158 -12405 -4837 0
5158 -4837 -5151 0
5158 -12405 -363 5151 0
-5159 4839 -5151 0
-5159 12406 5151 0
-5159 363 4839 0
5159 -12406 -4839 0
5159 -4839 -5151 0
5159 -12406 -363 5151 0
-5160 4841 -5151 0
-5160 12407 5151 0
-5160 363 4841 0
5160 -12407 -4841 0
5160 -4841 -5151 0
5160 -12407 -363 5151 0
-5161 4843 -5151 0
-5161 12408 5151 0
-5161 363 4843 0
5161 -12408 -4843 0
5161 -4843 -5151 0
5161 -12408 -363 5151 0
-5162 4845 -5151 0
-5162 12409 5151 0
-5162 363 4845 0
5162 -12409 -4845 0
5162 -4845 -5151 0
5162 -12409 -363 5151 0
-5163 4847 -5151 0
-5163 12410 5151 0
-5163 363 4847 0
5163 -12410 -4847 0
5163 -4847 -5151 0
5163 -12410 -363 5151 0
-5164 4849 -5151 0
-5164 12411 5151 0
-5164 363 4849 0
5164 -12411 -4849 0
5164 -4849 -5151 0
5164 -12411 -363 5151 0
-5165 4851 -5151 0
-5165 12412 5151 0
-5165 363 4851 0
5165 -12412 -4851 0
5165 -4851 -5151 0
5165 -12412 -363 5151 0
-5166 4853 -5151 0
-5166 12413 5151 0
-5166 363 4853 0
5166 -12413 -4853 0
5166 -4853 -5151 0
5166 -12413 -363 5151 0
-5167 4855 -5151 0
-5167 12414 5151 0
-5167 363 4855 0
5167 -12414 -4855 0
5167 -4855 -5151 0
5167 -12414 -363 5151 0
-5168 4857 -5151 0
-5168 12415 5151 0
-5168 363 4857 0
5168 -12415 -4857 0
5168 -4857 -5151 0
5168 -12415 -363 5151 0
-5169 4859 -5151 0
-5169 12416 5151 0
-5169 363 4859 0
5169 -12416 -4859 0
5169 -4859 -5151 0
5169 -12416 -363 5151 0
-5170 4861 -5151 0
-5170 12417 5151 0
-5170 363 4861 0
5170 -12417 -4861 0
5170 -4861 -5151 0
5170 -12417 -363 5151 0
-5171 4863 -5151 0
-5171 12418 5151 0
-5171 363 4863 0
5171 -12418 -4863 0
5171 -4863 -5151 0
5171 -12418 -363 5151 0
-5172 4865 -5151 0
-5172 12419 5151 0
-5172 363 4865 0
5172 -12419 -4865 0
5172 -4865 -5151 0
5172 -12419 -363 5151 0
-5173 4867 -5151 0
-5173 12420 5151 0
-5173 363 4867 0
5173 -12420 -4867 0
5173 -4867 -5151 0
5173 -12420 -363 5151 0
-5174 4869 -5151 0
-5174 12421 5151 0
-5174 363 4869 0
5174 -12421 -4869 0
5174 -4869 -5151 0
5174 -12421 -363 5151 0
-5175 4871 -5151 0
-5175 12422 5151 0
-5175 363 4871 0
5175 -12422 -4871 0
5175 -4871 -5151 0
5175 -12422 -363 5151 0
-5176 4873 -5151 0
-5176 12423 5151 0
-5176 363 4873 0
5176 -12423 -4873 0
5176 -4873 -5151 0
5176 -12423 -363 5151 0
-5177 4875 -5151 0
-5177 12424 5151 0
-5177 363 4875 0
5177 -12424 -4875 0
5177 -4875 -5151 0
5177 -12424 -363 5151 0
-5178 4877 -5151 0
-5178 12425 5151 0
-5178 363 4877 0
5178 -12425 -4877 0
5178 -4877 -5151 0
5178 -12425 -363 5151 0
-5179 4879 -5151 0
-5179 12426 5151 0
-5179 363 4879 0
5179 -12426 -4879 0
5179 -4879 -5151 0
5179 -12426 -363 5151 0
-5180 4881 -5151 0
-5180 12427 5151 0
-5180 363 4881 0
5180 -12427 -4881 0
5180 -4881 -5151 0
5180 -12427 -363 5151 0
-5181 4883 -5151 0
-5181 12428 5151 0
-5181 363 4883 0
5181 -12428 -4883 0
5181 -4883 -5151 0
5181 -12428 -363 5151 0
-5182 4885 -5151 0
-5182 12429 5151 0
-5182 363 4885 0
5182 -12429 -4885 0
5182 -4885 -5151 0
5182 -12429 -363 5151 0
-5183 4887 -5151 0
-5183 12430 5151 0
-5183 363 4887 0
5183 -12430 -4887 0
5183 -4887 -5151 0
5183 -12430 -363 5151 0
-5184 4889 -5151 0
-5184 12431 5151 0
-5184 363 4889 0
5184 -12431 -4889 0
5184 -4889 -5151 0
5184 -12431 -363 5151 0
-5185 4891 -5151 0
-5185 12432 5151 0
-5185 363 4891 0
5185 -12432 -4891 0
5185 -4891 -5151 0
5185 -12432 -363 5151 0
-5186 4893 -5151 0
-5186 12433 5151 0
-5186 363 4893 0
5186 -12433 -4893 0
5186 -4893 -5151 0
5186 -12433 -363 5151 0
-5187 4895 -5151 0
-5187 12434 5151 0
-5187 363 4895 0
5187 -12434 -4895 0
5187 -4895 -5151 0
5187 -12434 -363 5151 0
-5188 4897 -5151 0
-5188 12435 5151 0
-5188 363 4897 0
5188 -12435 -4897 0
5188 -4897 -5151 0
5188 -12435 -363 5151 0
-5189 4899 -5151 0
-5189 12436 5151 0
-5189 363 4899 0
5189 -12436 -4899 0
5189 -4899 -5151 0
5189 -12436 -363 5151 0
-5190 4901 -5151 0
-5190 12437 5151 0
-5190 363 4901 0
5190 -12437 -4901 0
5190 -4901 -5151 0
5190 -12437 -363 5151 0
-5191 4903 -5151 0
-5191 12438 5151 0
-5191 363 4903 0
5191 -12438 -4903 0
5191 -4903 -5151 0
5191 -12438 -363 5151 0
-5192 4905 -5151 0
-5192 12439 5151 0
-5192 363 4905 0
5192 -12439 -4905 0
5192 -4905 -5151 0
5192 -12439 -363 5151 0
-5193 4907 -5151 0
-5193 12440 5151 0
-5193 363 4907 0
5193 -12440 -4907 0
5193 -4907 -5151 0
5193 -12440 -363 5151 0
-5194 4909 -5151 0
-5194 12441 5151 0
-5194 363 4909 0
5194 -12441 -4909 0
5194 -4909 -5151 0
5194 -12441 -363 5151 0
-5195 4911 -5151 0
-5195 12442 5151 0
-5195 363 4911 0
5195 -12442 -4911 0
5195 -4911 -5151 0
5195 -12442 -363 5151 0
-5196 4913 -5151 0
-5196 12443 5151 0
-5196 363 4913 0
5196 -12443 -4913 0
5196 -4913 -5151 0
5196 -12443 -363 5151 0
-5197 4915 -5151 0
-5197 12444 5151 0
-5197 363 4915 0
5197 -12444 -4915 0
5197 -4915 -5151 0
5197 -12444 -363 5151 0
-5198 4917 -5151 0
-5198 12445 5151 0
-5198 363 4917 0
5198 -12445 -4917 0
5198 -4917 -5151 0
5198 -12445 -363 5151 0
-5199 4919 -5151 0
-5199 12446 5151 0
-5199 363 4919 0
5199 -12446 -4919 0
5199 -4919 -5151 0
5199 -12446 -363 5151 0
-5200 4921 -5151 0
-5200 12447 5151 0
-5200 363 4921 0
5200 -12447 -4921 0
5200 -4921 -5151 0
5200 -12447 -363 5151 0
-5201 4923 -5151 0
-5201 12448 5151 0
-5201 363 4923 0
5201 -12448 -4923 0
5201 -4923 -5151 0
5201 -12448 -363 5151 0
-5202 4925 -5151 0
-5202 12449 5151 0
-5202 363 4925 0
5202 -12449 -4925 0
5202 -4925 -5151 0
5202 -12449 -363 5151 0
-5203 4927 -5151 0
-5203 12450 5151 0
-5203 363 4927 0
5203 -12450 -4927 0
5203 -4927 -5151 0
5203 -12450 -363 5151 0
-5204 4929 -5151 0
-5204 12451 5151 0
-5204 363 4929 0
5204 -12451 -4929 0
5204 -4929 -5151 0
5204 -12451 -363 5151 0
-5205 4931 -5151 0
-5205 12452 5151 0
-5205 363 4931 0
5205 -12452 -4931 0
5205 -4931 -5151 0
5205 -12452 -363 5151 0
-5206 4933 -5151 0
-5206 12453 5151 0
-5206 363 4933 0
5206 -12453 -4933 0
5206 -4933 -5151 0
5206 -12453 -363 5151 0
-5207 4935 -5151 0
-5207 12454 5151 0
-5207 363 4935 0
5207 -12454 -4935 0
5207 -4935 -5151 0
5207 -12454 -363 5151 0
-5208 4937 -5151 0
-5208 12455 5151 0
-5208 363 4937 0
5208 -12455 -4937 0
5208 -4937 -5151 0
5208 -12455 -363 5151 0
-5209 4939 -5151 0
-5209 12456 5151 0
-5209 363 4939 0
5209 -12456 -4939 0
5209 -4939 -5151 0
5209 -12456 -363 5151 0
-5210 4941 -5151 0
-5210 12457 5151 0
-5210 363 4941 0
5210 -12457 -4941 0
5210 -4941 -5151 0
5210 -12457 -363 5151 0
-5211 4943 -5151 0
-5211 12458 5151 0
-5211 363 4943 0
5211 -12458 -4943 0
5211 -4943 -5151 0
5211 -12458 -363 5151 0
-5212 4945 -5151 0
-5212 12459 5151 0
-5212 363 4945 0
5212 -12459 -4945 0
5212 -4945 -5151 0
5212 -12459 -363 5151 0
-5213 4947 -5151 0
-5213 12460 5151 0
-5213 363 4947 0
5213 -12460 -4947 0
5213 -4947 -5151 0
5213 -12460 -363 5151 0
-5214 4949 -5151 0
-5214 12461 5151 0
-5214 363 4949 0
5214 -12461 -4949 0
5214 -4949 -5151 0
5214 -12461 -363 5151 0
-5215 4951 -5151 0
-5215 12462 5151 0
-5215 363 4951 0
5215 -12462 -4951 0
5215 -4951 -5151 0
5215 -12462 -363 5151 0
-5216 4953 -5151 0
-5216 12463 5151 0
-5216 363 4953 0
5216 -12463 -4953 0
5216 -4953 -5151 0
5216 -12463 -363 5151 0
-5217 4814 -5218 0
-5217 12464 5218 0
-5217 363 4814 0
5217 -12464 -4814 0
5217 -4814 -5218 0
5217 -12464 -363 5218 0
5218 -9981 -12112 -5152 0
-5218 9981 0
-5218 12112 0
-5218 5152 0
-5219 4829 -5218 0
-5219 12465 5218 0
-5219 363 4829 0
5219 -12465 -4829 0
5219 -4829 -5218 0
5219 -12465 -363 5218 0
-5220 4831 -5218 0
-5220 12466 5218 0
-5220 363 4831 0
5220 -12466 -4831 0
5220 -4831 -5218 0
5220 -12466 -363 5218 0
-5221 4833 -5218 0
-5221 12467 5218 0
-5221 363 4833 0
5221 -12467 -4833 0
5221 -4833 -5218 0
5221 -12467 -363 5218 0
-5222 4835 -5218 0
-5222 12468 5218 0
-5222 363 4835 0
5222 -12468 -4835 0
5222 -4835 -5218 0
5222 -12468 -363 5218 0
-5223 4837 -5218 0
-5223 12469 5218 0
-5223 363 4837 0
5223 -12469 -4837 0
5223 -4837 -5218 0
5223 -12469 -363 5218 0
-5224 4839 -5218 0
-5224 12470 5218 0
-5224 363 4839 0
5224 -12470 -4839 0
5224 -4839 -5218 0
5224 -12470 -363 5218 0
-5225 4841 -5218 0
-5225 12471 5218 0
-5225 363 4841 0
5225 -12471 -4841 0
5225 -4841 -5218 0
5225 -12471 -363 5218 0
-5226 4843 -5218 0
-5226 12472 5218 0
-5226 363 4843 0
5226 -12472 -4843 0
5226 -4843 -5218 0
5226 -12472 -363 5218 0
-5227 4845 -5218 0
-5227 12473 5218 0
-5227 363 4845 0
5227 -12473 -4845 0
5227 -4845 -5218 0
5227 -12473 -363 5218 0
-5228 4847 -5218 0
-5228 12474 5218 0
-5228 363 4847 0
5228 -12474 -4847 0
5228 -4847 -5218 0
5228 -12474 -363 5218 0
-5229 4849 -5218 0
-5229 12475 5218 0
-5229 363 4849 0
5229 -12475 -4849 0
5229 -4849 -5218 0
5229 -12475 -363 5218 0
-5230 4851 -5218 0
-5230 12476 5218 0
-5230 363 4851 0
5230 -12476 -4851 0
5230 -4851 -5218 0
5230 -12476 -363 5218 0
-5231 4853 -5218 0
-5231 12477 5218 0
-5231 363 4853 0
5231 -12477 -4853 0
5231 -4853 -5218 0
5231 -12477 -363 5218 0
-5232 4855 -5218 0
-5232 12478 5218 0
-5232 363 4855 0
5232 -12478 -4855 0
5232 -4855 -5218 0
5232 -12478 -363 5218 0
-5233 4857 -5218 0
-5233 12479 5218 0
-5233 363 4857 0
5233 -12479 -4857 0
5233 -4857 -5218 0
5233 -12479 -363 5218 0
-5234 4859 -5218 0
-5234 12480 5218 0
-5234 363 4859 0
5234 -12480 -4859 0
5234 -4859 -5218 0
5234 -12480 -363 5218 0
-5235 4861 -5218 0
-5235 12481 5218 0
-5235 363 4861 0
5235 -12481 -4861 0
5235 -4861 -5218 0
5235 -12481 -363 5218 0
-5236 4863 -5218 0
-5236 12482 5218 0
-5236 363 4863 0
5236 -12482 -4863 0
5236 -4863 -5218 0
5236 -12482 -363 5218 0
-5237 4865 -5218 0
-5237 12483 5218 0
-5237 363 4865 0
5237 -12483 -4865 0
5237 -4865 -5218 0
5237 -12483 -363 5218 0
-5238 4867 -5218 0
-5238 12484 5218 0
-5238 363 4867 0
5238 -12484 -4867 0
5238 -4867 -5218 0
5238 -12484 -363 5218 0
-5239 4869 -5218 0
-5239 12485 5218 0
-5239 363 4869 0
5239 -12485 -4869 0
5239 -4869 -5218 0
5239 -12485 -363 5218 0
-5240 4871 -5218 0
-5240 12486 5218 0
-5240 363 4871 0
5240 -12486 -4871 0
5240 -4871 -5218 0
5240 -12486 -363 5218 0
-5241 4873 -5218 0
-5241 12487 5218 0
-5241 363 4873 0
5241 -12487 -4873 0
5241 -4873 -5218 0
5241 -12487 -363 5218 0
-5242 4875 -5218 0
-5242 12488 5218 0
-5242 363 4875 0
5242 -12488 -4875 0
5242 -4875 -5218 0
5242 -12488 -363 5218 0
-5243 4877 -5218 0
-5243 12489 5218 0
-5243 363 4877 0
5243 -12489 -4877 0
5243 -4877 -5218 0
5243 -12489 -363 5218 0
-5244 4879 -5218 0
-5244 12490 5218 0
-5244 363 4879 0
5244 -12490 -4879 0
5244 -4879 -5218 0
5244 -12490 -363 5218 0
-5245 4881 -5218 0
-5245 12491 5218 0
-5245 363 4881 0
5245 -12491 -4881 0
5245 -4881 -5218 0
5245 -12491 -363 5218 0
-5246 4883 -5218 0
-5246 12492 5218 0
-5246 363 4883 0
5246 -12492 -4883 0
5246 -4883 -5218 0
5246 -12492 -363 5218 0
-5247 4885 -5218 0
-5247 12493 5218 0
-5247 363 4885 0
5247 -12493 -4885 0
5247 -4885 -5218 0
5247 -12493 -363 5218 0
-5248 4887 -5218 0
-5248 12494 5218 0
-5248 363 4887 0
5248 -12494 -4887 0
5248 -4887 -5218 0
5248 -12494 -363 5218 0
-5249 4889 -5218 0
-5249 12495 5218 0
-5249 363 4889 0
5249 -12495 -4889 0
5249 -4889 -5218 0
5249 -12495 -363 5218 0
-5250 4891 -5218 0
-5250 12496 5218 0
-5250 363 4891 0
5250 -12496 -4891 0
5250 -4891 -5218 0
5250 -12496 -363 5218 0
-5251 4893 -5218 0
-5251 12497 5218 0
-5251 363 4893 0
5251 -12497 -4893 0
5251 -4893 -5218 0
5251 -12497 -363 5218 0
-5252 4895 -5218 0
-5252 12498 5218 0
-5252 363 4895 0
5252 -12498 -4895 0
5252 -4895 -5218 0
5252 -12498 -363 5218 0
-5253 4897 -5218 0
-5253 12499 5218 0
-5253 363 4897 0
5253 -12499 -4897 0
5253 -4897 -5218 0
5253 -12499 -363 5218 0
-5254 4899 -5218 0
-5254 12500 5218 0
-5254 363 4899 0
5254 -12500 -4899 0
5254 -4899 -5218 0
5254 -12500 -363 5218 0
-5255 4901 -5218 0
-5255 12501 5218 0
-5255 363 4901 0
5255 -12501 -4901 0
5255 -4901 -5218 0
5255 -12501 -363 5218 0
-5256 4903 -5218 0
-5256 12502 5218 0
-5256 363 4903 0
5256 -12502 -4903 0
5256 -4903 -5218 0
5256 -12502 -363 5218 0
-5257 4905 -5218 0
-5257 12503 5218 0
-5257 363 4905 0
5257 -12503 -4905 0
5257 -4905 -5218 0
5257 -12503 -363 5218 0
-5258 4907 -5218 0
-5258 12504 5218 0
-5258 363 4907 0
5258 -12504 -4907 0
5258 -4907 -5218 0
5258 -12504 -363 5218 0
-5259 4909 -5218 0
-5259 12505 5218 0
-5259 363 4909 0
5259 -12505 -4909 0
5259 -4909 -5218 0
5259 -12505 -363 5218 0
-5260 4911 -5218 0
-5260 12506 5218 0
-5260 363 4911 0
5260 -12506 -4911 0
5260 -4911 -5218 0
5260 -12506 -363 5218 0
-5261 4913 -5218 0
-5261 12507 5218 0
-5261 363 4913 0
5261 -12507 -4913 0
5261 -4913 -5218 0
5261 -12507 -363 5218 0
-5262 4915 -5218 0
-5262 12508 5218 0
-5262 363 4915 0
5262 -12508 -4915 0
5262 -4915 -5218 0
5262 -12508 -363 5218 0
-5263 4917 -5218 0
-5263 12509 5218 0
-5263 363 4917 0
5263 -12509 -4917 0
5263 -4917 -5218 0
5263 -12509 -363 5218 0
-5264 4919 -5218 0
-5264 12510 5218 0
-5264 363 4919 0
5264 -12510 -4919 0
5264 -4919 -5218 0
5264 -12510 -363 5218 0
-5265 4921 -5218 0
-5265 12511 5218 0
-5265 363 4921 0
5265 -12511 -4921 0
5265 -4921 -5218 0
5265 -12511 -363 5218 0
-5266 4923 -5218 0
-5266 12512 5218 0
-5266 363 4923 0
5266 -12512 -4923 0
5266 -4923 -5218 0
5266 -12512 -363 5218 0
-5267 4925 -5218 0
-5267 12513 5218 0
-5267 363 4925 0
5267 -12513 -4925 0
5267 -4925 -5218 0
5267 -12513 -363 5218 0
-5268 4927 -5218 0
-5268 12514 5218 0
-5268 363 4927 0
5268 -12514 -4927 0
5268 -4927 -5218 0
5268 -12514 -363 5218 0
-5269 4929 -5218 0
-5269 12515 5218 0
-5269 363 4929 0
5269 -12515 -4929 0
5269 -4929 -5218 0
5269 -12515 -363 5218 0
-5270 4931 -5218 0
-5270 12516 5218 0
-5270 363 4931 0
5270 -12516 -4931 0
5270 -4931 -5218 0
5270 -12516 -363 5218 0
-5271 4933 -5218 0
-5271 12517 5218 0
-5271 363 4933 0
5271 -12517 -4933 0
5271 -4933 -5218 0
5271 -12517 -363 5218 0
-5272 4935 -5218 0
-5272 12518 5218 0
-5272 363 4935 0
5272 -12518 -4935 0
5272 -4935 -5218 0
5272 -12518 -363 5218 0
-5273 4937 -5218 0
-5273 12519 5218 0
-5273 363 4937 0
5273 -12519 -4937 0
5273 -4937 -5218 0
5273 -12519 -363 5218 0
-5274 4939 -5218 0
-5274 12520 5218 0
-5274 363 4939 0
5274 -12520 -4939 0
5274 -4939 -5218 0
5274 -12520 -363 5218 0
-5275 4941 -5218 0
-5275 12521 5218 0
-5275 363 4941 0
5275 -12521 -4941 0
5275 -4941 -5218 0
5275 -12521 -363 5218 0
-5276 4943 -5218 0
-5276 12522 5218 0
-5276 363 4943 0
5276 -12522 -4943 0
5276 -4943 -5218 0
5276 -12522 -363 5218 0
-5277 4945 -5218 0
-5277 12523 5218 0
-5277 363 4945 0
5277 -12523 -4945 0
5277 -4945 -5218 0
5277 -12523 -363 5218 0
-5278 4947 -5218 0
-5278 12524 5218 0
-5278 363 4947 0
5278 -12524 -4947 0
5278 -4947 -5218 0
5278 -12524 -363 5218 0
-5279 4949 -5218 0
-5279 12525 5218 0
-5279 363 4949 0
5279 -12525 -4949 0
5279 -4949 -5218 0
5279 -12525 -363 5218 0
-5280 4951 -5218 0
-5280 12526 5218 0
-5280 363 4951 0
5280 -12526 -4951 0
5280 -4951 -5218 0
5280 -12526 -363 5218 0
-5281 4953 -5218 0
-5281 12527 5218 0
-5281 363 4953 0
5281 -12527 -4953 0
5281 -4953 -5218 0
5281 -12527 -363 5218 0
-5282 4814 -5283 0
-5282 12528 5283 0
-5282 363 4814 0
5282 -12528 -4814 0
5282 -4814 -5283 0
5282 -12528 -363 5283 0
5283 -9981 12112 -5284 0
-5283 9981 0
-5283 -12112 0
-5283 5284 0
5284 -12113 -5153 0
-5284 12113 0
-5284 5153 0
-5285 4829 -5283 0
-5285 12529 5283 0
-5285 363 4829 0
5285 -12529 -4829 0
5285 -4829 -5283 0
5285 -12529 -363 5283 0
-5286 4831 -5283 0
-5286 12530 5283 0
-5286 363 4831 0
5286 -12530 -4831 0
5286 -4831 -5283 0
5286 -12530 -363 5283 0
-5287 4833 -5283 0
-5287 12531 5283 0
-5287 363 4833 0
5287 -12531 -4833 0
5287 -4833 -5283 0
5287 -12531 -363 5283 0
-5288 4835 -5283 0
-5288 12532 5283 0
-5288 363 4835 0
5288 -12532 -4835 0
5288 -4835 -5283 0
5288 -12532 -363 5283 0
-5289 4837 -5283 0
-5289 12533 5283 0
-5289 363 4837 0
5289 -12533 -4837 0
5289 -4837 -5283 0
5289 -12533 -363 5283 0
-5290 4839 -5283 0
-5290 12534 5283 0
-5290 363 4839 0
5290 -12534 -4839 0
5290 -4839 -5283 0
5290 -12534 -363 5283 0
-5291 4841 -5283 0
-5291 12535 5283 0
-5291 363 4841 0
5291 -12535 -4841 0
5291 -4841 -5283 0
5291 -12535 -363 5283 0
-5292 4843 -5283 0
-5292 12536 5283 0
-5292 363 4843 0
5292 -12536 -4843 0
5292 -4843 -5283 0
5292 -12536 -363 5283 0
-5293 4845 -5283 0
-5293 12537 5283 0
-5293 363 4845 0
5293 -12537 -4845 0
5293 -4845 -5283 0
5293 -12537 -363 5283 0
-5294 4847 -5283 0
-5294 12538 5283 0
-5294 363 4847 0
5294 -12538 -4847 0
5294 -4847 -5283 0
5294 -12538 -363 5283 0
-5295 4849 -5283 0
-5295 12539 5283 0
-5295 363 4849 0
5295 -12539 -4849 0
5295 -4849 -5283 0
5295 -12539 -363 5283 0
-5296 4851 -5283 0
-5296 12540 5283 0
-5296 363 4851 0
5296 -12540 -4851 0
5296 -4851 -5283 0
5296 -12540 -363 5283 0
-5297 4853 -5283 0
-5297 12541 5283 0
-5297 363 4853 0
5297 -12541 -4853 0
5297 -4853 -5283 0
5297 -12541 -363 5283 0
-5298 4855 -5283 0
-5298 12542 5283 0
-5298 363 4855 0
5298 -12542 -4855 0
5298 -4855 -5283 0
5298 -12542 -363 5283 0
-5299 4857 -5283 0
-5299 12543 5283 0
-5299 363 4857 0
5299 -12543 -4857 0
5299 -4857 -5283 0
5299 -12543 -363 5283 0
-5300 4859 -5283 0
-5300 12544 5283 0
-5300 363 4859 0
5300 -12544 -4859 0
5300 -4859 -5283 0
5300 -12544 -363 5283 0
-5301 4861 -5283 0
-5301 12545 5283 0
-5301 363 4861 0
5301 -12545 -4861 0
5301 -4861 -5283 0
5301 -12545 -363 5283 0
-5302 4863 -5283 0
-5302 12546 5283 0
-5302 363 4863 0
5302 -12546 -4863 0
5302 -4863 -5283 0
5302 -12546 -363 5283 0
-5303 4865 -5283 0
-5303 12547 5283 0
-5303 363 4865 0
5303 -12547 -4865 0
5303 -4865 -5283 0
5303 -12547 -363 5283 0
-5304 4867 -5283 0
-5304 12548 5283 0
-5304 363 4867 0
5304 -12548 -4867 0
5304 -4867 -5283 0
5304 -12548 -363 5283 0
-5305 4869 -5283 0
-5305 12549 5283 0
-5305 363 4869 0
5305 -12549 -4869 0
5305 -4869 -5283 0
5305 -12549 -363 5283 0
-5306 4871 -5283 0
-5306 12550 5283 0
-5306 363 4871 0
5306 -12550 -4871 0
5306 -4871 -5283 0
5306 -12550 -363 5283 0
-5307 4873 -5283 0
-5307 12551 5283 0
-5307 363 4873 0
5307 -12551 -4873 0
5307 -4873 -5283 0
5307 -12551 -363 5283 0
-5308 4875 -5283 0
-5308 12552 5283 0
-5308 363 4875 0
5308 -12552 -4875 0
5308 -4875 -5283 0
5308 -12552 -363 5283 0
-5309 4877 -5283 0
-5309 12553 5283 0
-5309 363 4877 0
5309 -12553 -4877 0
5309 -4877 -5283 0
5309 -12553 -363 5283 0
-5310 4879 -5283 0
-5310 12554 5283 0
-5310 363 4879 0
5310 -12554 -4879 0
5310 -4879 -5283 0
5310 -12554 -363 5283 0
-5311 4881 -5283 0
-5311 12555 5283 0
-5311 363 4881 0
5311 -12555 -4881 0
5311 -4881 -5283 0
5311 -12555 -363 5283 0
-5312 4883 -5283 0
-5312 12556 5283 0
-5312 363 4883 0
5312 -12556 -4883 0
5312 -4883 -5283 0
5312 -12556 -363 5283 0
-5313 4885 -5283 0
-5313 12557 5283 0
-5313 363 4885 0
5313 -12557 -4885 0
5313 -4885 -5283 0
5313 -12557 -363 5283 0
-5314 4887 -5283 0
-5314 12558 5283 0
-5314 363 4887 0
5314 -12558 -4887 0
5314 -4887 -5283 0
5314 -12558 -363 5283 0
-5315 4889 -5283 0
-5315 12559 5283 0
-5315 363 4889 0
5315 -12559 -4889 0
5315 -4889 -5283 0
5315 -12559 -363 5283 0
-5316 4891 -5283 0
-5316 12560 5283 0
-5316 363 4891 0
5316 -12560 -4891 0
5316 -4891 -5283 0
5316 -12560 -363 5283 0
-5317 4893 -5283 0
-5317 12561 5283 0
-5317 363 4893 0
5317 -12561 -4893 0
5317 -4893 -5283 0
5317 -12561 -363 5283 0
-5318 4895 -5283 0
-5318 12562 5283 0
-5318 363 4895 0
5318 -12562 -4895 0
5318 -4895 -5283 0
5318 -12562 -363 5283 0
-5319 4897 -5283 0
-5319 12563 5283 0
-5319 363 4897 0
5319 -12563 -4897 0
5319 -4897 -5283 0
5319 -12563 -363 5283 0
-5320 4899 -5283 0
-5320 12564 5283 0
-5320 363 4899 0
5320 -12564 -4899 0
5320 -4899 -5283 0
5320 -12564 -363 5283 0
-5321 4901 -5283 0
-5321 12565 5283 0
-5321 363 4901 0
5321 -12565 -4901 0
5321 -4901 -5283 0
5321 -12565 -363 5283 0
-5322 4903 -5283 0
-5322 12566 5283 0
-5322 363 4903 0
5322 -12566 -4903 0
5322 -4903 -5283 0
5322 -12566 -363 5283 0
-5323 4905 -5283 0
-5323 12567 5283 0
-5323 363 4905 0
5323 -12567 -4905 0
5323 -4905 -5283 0
5323 -12567 -363 5283 0
-5324 4907 -5283 0
-5324 12568 5283 0
-5324 363 4907 0
5324 -12568 -4907 0
5324 -4907 -5283 0
5324 -12568 -363 5283 0
-5325 4909 -5283 0
-5325 12569 5283 0
-5325 363 4909 0
5325 -12569 -4909 0
5325 -4909 -5283 0
5325 -12569 -363 5283 0
-5326 4911 -5283 0
-5326 12570 5283 0
-5326 363 4911 0
5326 -12570 -4911 0
5326 -4911 -5283 0
5326 -12570 -363 5283 0
-5327 4913 -5283 0
-5327 12571 5283 0
-5327 363 4913 0
5327 -12571 -4913 0
5327 -4913 -5283 0
5327 -12571 -363 5283 0
-5328 4915 -5283 0
-5328 12572 5283 0
-5328 363 4915 0
5328 -12572 -4915 0
5328 -4915 -5283 0
5328 -12572 -363 5283 0
-5329 4917 -5283 0
-5329 12573 5283 0
-5329 363 4917 0
5329 -12573 -4917 0
5329 -4917 -5283 0
5329 -12573 -363 5283 0
-5330 4919 -5283 0
-5330 12574 5283 0
-5330 363 4919 0
5330 -12574 -4919 0
5330 -4919 -5283 0
5330 -12574 -363 5283 0
-5331 4921 -5283 0
-5331 12575 5283 0
-5331 363 4921 0
5331 -12575 -4921 0
5331 -4921 -5283 0
5331 -12575 -363 5283 0
-5332 4923 -5283 0
-5332 12576 5283 0
-5332 363 4923 0
5332 -12576 -4923 0
5332 -4923 -5283 0
5332 -12576 -363 5283 0
-5333 4925 -5283 0
-5333 12577 5283 0
-5333 363 4925 0
5333 -12577 -4925 0
5333 -4925 -5283 0
5333 -12577 -363 5283 0
-5334 4927 -5283 0
-5334 12578 5283 0
-5334 363 4927 0
5334 -12578 -4927 0
5334 -4927 -5283 0
5334 -12578 -363 5283 0
-5335 4929 -5283 0
-5335 12579 5283 0
-5335 363 4929 0
5335 -12579 -4929 0
5335 -4929 -5283 0
5335 -12579 -363 5283 0
-5336 4931 -5283 0
-5336 12580 5283 0
-5336 363 4931 0
5336 -12580 -4931 0
5336 -4931 -5283 0
5336 -12580 -363 5283 0
-5337 4933 -5283 0
-5337 12581 5283 0
-5337 363 4933 0
5337 -12581 -4933 0
5337 -4933 -5283 0
5337 -12581 -363 5283 0
-5338 4935 -5283 0
-5338 12582 5283 0
-5338 363 4935 0
5338 -12582 -4935 0
5338 -4935 -5283 0
5338 -12582 -363 5283 0
-5339 4937 -5283 0
-5339 12583 5283 0
-5339 363 4937 0
5339 -12583 -4937 0
5339 -4937 -5283 0
5339 -12583 -363 5283 0
-5340 4939 -5283 0
-5340 12584 5283 0
-5340 363 4939 0
5340 -12584 -4939 0
5340 -4939 -5283 0
5340 -12584 -363 5283 0
-5341 4941 -5283 0
-5341 12585 5283 0
-5341 363 4941 0
5341 -12585 -4941 0
5341 -4941 -5283 0
5341 -12585 -363 5283 0
-5342 4943 -5283 0
-5342 12586 5283 0
-5342 363 4943 0
5342 -12586 -4943 0
5342 -4943 -5283 0
5342 -12586 -363 5283 0
-5343 4945 -5283 0
-5343 12587 5283 0
-5343 363 4945 0
5343 -12587 -4945 0
5343 -4945 -5283 0
5343 -12587 -363 5283 0
-5344 4947 -5283 0
-5344 12588 5283 0
-5344 363 4947 0
5344 -12588 -4947 0
5344 -4947 -5283 0
5344 -12588 -363 5283 0
-5345 4949 -5283 0
-5345 12589 5283 0
-5345 363 4949 0
5345 -12589 -4949 0
5345 -4949 -5283 0
5345 -12589 -363 5283 0
-5346 4951 -5283 0
-5346 12590 5283 0
-5346 363 4951 0
5346 -12590 -4951 0
5346 -4951 -5283 0
5346 -12590 -363 5283 0
-5347 4953 -5283 0
-5347 12591 5283 0
-5347 363 4953 0
5347 -12591 -4953 0
5347 -4953 -5283 0
5347 -12591 -363 5283 0
-5348 4814 -5349 0
-5348 12592 5349 0
-5348 363 4814 0
5348 -12592 -4814 0
5348 -4814 -5349 0
5348 -12592 -363 5349 0
5349 -9981 -12112 -5284 0
-5349 9981 0
-5349 12112 0
-5349 5284 0
-5350 4829 -5349 0
-5350 12593 5349 0
-5350 363 4829 0
5350 -12593 -4829 0
5350 -4829 -5349 0
5350 -12593 -363 5349 0
-5351 4831 -5349 0
-5351 12594 5349 0
-5351 363 4831 0
5351 -12594 -4831 0
5351 -4831 -5349 0
5351 -12594 -363 5349 0
-5352 4833 -5349 0
-5352 12595 5349 0
-5352 363 4833 0
5352 -12595 -4833 0
5352 -4833 -5349 0
5352 -12595 -363 5349 0
-5353 4835 -5349 0
-5353 12596 5349 0
-5353 363 4835 0
5353 -12596 -4835 0
5353 -4835 -5349 0
5353 -12596 -363 5349 0
-5354 4837 -5349 0
-5354 12597 5349 0
-5354 363 4837 0
5354 -12597 -4837 0
5354 -4837 -5349 0
5354 -12597 -363 5349 0
-5355 4839 -5349 0
-5355 12598 5349 0
-5355 363 4839 0
5355 -12598 -4839 0
5355 -4839 -5349 0
5355 -12598 -363 5349 0
-5356 4841 -5349 0
-5356 12599 5349 0
-5356 363 4841 0
5356 -12599 -4841 0
5356 -4841 -5349 0
5356 -12599 -363 5349 0
-5357 4843 -5349 0
-5357 12600 5349 0
-5357 363 4843 0
5357 -12600 -4843 0
5357 -4843 -5349 0
5357 -12600 -363 5349 0
-5358 4845 -5349 0
-5358 12601 5349 0
-5358 363 4845 0
5358 -12601 -4845 0
5358 -4845 -5349 0
5358 -12601 -363 5349 0
-5359 4847 -5349 0
-5359 12602 5349 0
-5359 363 4847 0
5359 -12602 -4847 0
5359 -4847 -5349 0
5359 -12602 -363 5349 0
-5360 4849 -5349 0
-5360 12603 5349 0
-5360 363 4849 0
5360 -12603 -4849 0
5360 -4849 -5349 0
5360 -12603 -363 5349 0
-5361 4851 -5349 0
-5361 12604 5349 0
-5361 363 4851 0
5361 -12604 -4851 0
5361 -4851 -5349 0
5361 -12604 -363 5349 0
-5362 4853 -5349 0
-5362 12605 5349 0
-5362 363 4853 0
5362 -12605 -4853 0
5362 -4853 -5349 0
5362 -12605 -363 5349 0
-5363 4855 -5349 0
-5363 12606 5349 0
-5363 363 4855 0
5363 -12606 -4855 0
5363 -4855 -5349 0
5363 -12606 -363 5349 0
-5364 4857 -5349 0
-5364 12607 5349 0
-5364 363 4857 0
5364 -12607 -4857 0
5364 -4857 -5349 0
5364 -12607 -363 5349 0
-5365 4859 -5349 0
-5365 12608 5349 0
-5365 363 4859 0
5365 -12608 -4859 0
5365 -4859 -5349 0
5365 -12608 -363 5349 0
-5366 4861 -5349 0
-5366 12609 5349 0
-5366 363 4861 0
5366 -12609 -4861 0
5366 -4861 -5349 0
5366 -12609 -363 5349 0
-5367 4863 -5349 0
-5367 12610 5349 0
-5367 363 4863 0
5367 -12610 -4863 0
5367 -4863 -5349 0
5367 -12610 -363 5349 0
-5368 4865 -5349 0
-5368 12611 5349 0
-5368 363 4865 0
5368 -12611 -4865 0
5368 -4865 -5349 0
5368 -12611 -363 5349 0
-5369 4867 -5349 0
-5369 12612 5349 0
-5369 363 4867 0
5369 -12612 -4867 0
5369 -4867 -5349 0
5369 -12612 -363 5349 0
-5370 4869 -5349 0
-5370 12613 5349 0
-5370 363 4869 0
5370 -12613 -4869 0
5370 -4869 -5349 0
5370 -12613 -363 5349 0
-5371 4871 -5349 0
-5371 12614 5349 0
-5371 363 4871 0
5371 -12614 -4871 0
5371 -4871 -5349 0
5371 -12614 -363 5349 0
-5372 4873 -5349 0
-5372 12615 5349 0
-5372 363 4873 0
5372 -12615 -4873 0
5372 -4873 -5349 0
5372 -12615 -363 5349 0
-5373 4875 -5349 0
-5373 12616 5349 0
-5373 363 4875 0
5373 -12616 -4875 0
5373 -4875 -5349 0
5373 -12616 -363 5349 0
-5374 4877 -5349 0
-5374 12617 5349 0
-5374 363 4877 0
5374 -12617 -4877 0
5374 -4877 -5349 0
5374 -12617 -363 5349 0
-5375 4879 -5349 0
-5375 12618 5349 0
-5375 363 4879 0
5375 -12618 -4879 0
5375 -4879 -5349 0
5375 -12618 -363 5349 0
-5376 4881 -5349 0
-5376 12619 5349 0
-5376 363 4881 0
5376 -12619 -4881 0
5376 -4881 -5349 0
5376 -12619 -363 5349 0
-5377 4883 -5349 0
-5377 12620 5349 0
-5377 363 4883 0
5377 -12620 -4883 0
5377 -4883 -5349 0
5377 -12620 -363 5349 0
-5378 4885 -5349 0
-5378 12621 5349 0
-5378 363 4885 0
5378 -12621 -4885 0
5378 -4885 -5349 0
5378 -12621 -363 5349 0
-5379 4887 -5349 0
-5379 12622 5349 0
-5379 363 4887 0
5379 -12622 -4887 0
5379 -4887 -5349 0
5379 -12622 -363 5349 0
-5380 4889 -5349 0
-5380 12623 5349 0
-5380 363 4889 0
5380 -12623 -4889 0
5380 -4889 -5349 0
5380 -12623 -363 5349 0
-5381 4891 -5349 0
-5381 12624 5349 0
-5381 363 4891 0
5381 -12624 -4891 0
5381 -4891 -5349 0
5381 -12624 -363 5349 0
-5382 4893 -5349 0
-5382 12625 5349 0
-5382 363 4893 0
5382 -12625 -4893 0
5382 -4893 -5349 0
5382 -12625 -363 5349 0
-5383 4895 -5349 0
-5383 12626 5349 0
-5383 363 4895 0
5383 -12626 -4895 0
5383 -4895 -5349 0
5383 -12626 -363 5349 0
-5384 4897 -5349 0
-5384 12627 5349 0
-5384 363 4897 0
5384 -12627 -4897 0
5384 -4897 -5349 0
5384 -12627 -363 5349 0
-5385 4899 -5349 0
-5385 12628 5349 0
-5385 363 4899 0
5385 -12628 -4899 0
5385 -4899 -5349 0
5385 -12628 -363 5349 0
-5386 4901 -5349 0
-5386 12629 5349 0
-5386 363 4901 0
5386 -12629 -4901 0
5386 -4901 -5349 0
5386 -12629 -363 5349 0
-5387 4903 -5349 0
-5387 12630 5349 0
-5387 363 4903 0
5387 -12630 -4903 0
5387 -4903 -5349 0
5387 -12630 -363 5349 0
-5388 4905 -5349 0
-5388 12631 5349 0
-5388 363 4905 0
5388 -12631 -4905 0
5388 -4905 -5349 0
5388 -12631 -363 5349 0
-5389 4907 -5349 0
-5389 12632 5349 0
-5389 363 4907 0
5389 -12632 -4907 0
5389 -4907 -5349 0
5389 -12632 -363 5349 0
-5390 4909 -5349 0
-5390 12633 5349 0
-5390 363 4909 0
5390 -12633 -4909 0
5390 -4909 -5349 0
5390 -12633 -363 5349 0
-5391 4911 -5349 0
-5391 12634 5349 0
-5391 363 4911 0
5391 -12634 -4911 0
5391 -4911 -5349 0
5391 -12634 -363 5349 0
-5392 4913 -5349 0
-5392 12635 5349 0
-5392 363 4913 0
5392 -12635 -4913 0
5392 -4913 -5349 0
5392 -12635 -363 5349 0
-5393 4915 -5349 0
-5393 12636 5349 0
-5393 363 4915 0
5393 -12636 -4915 0
5393 -4915 -5349 0
5393 -12636 -363 5349 0
-5394 4917 -5349 0
-5394 12637 5349 0
-5394 363 4917 0
5394 -12637 -4917 0
5394 -4917 -5349 0
5394 -12637 -363 5349 0
-5395 4919 -5349 0
-5395 12638 5349 0
-5395 363 4919 0
5395 -12638 -4919 0
5395 -4919 -5349 0
5395 -12638 -363 5349 0
-5396 4921 -5349 0
-5396 12639 5349 0
-5396 363 4921 0
5396 -12639 -4921 0
5396 -4921 -5349 0
5396 -12639 -363 5349 0
-5397 4923 -5349 0
-5397 12640 5349 0
-5397 363 4923 0
5397 -12640 -4923 0
5397 -4923 -5349 0
5397 -12640 -363 5349 0
-5398 4925 -5349 0
-5398 12641 5349 0
-5398 363 4925 0
5398 -12641 -4925 0
5398 -4925 -5349 0
5398 -12641 -363 5349 0
-5399 4927 -5349 0
-5399 12642 5349 0
-5399 363 4927 0
5399 -12642 -4927 0
5399 -4927 -5349 0
5399 -12642 -363 5349 0
-5400 4929 -5349 0
-5400 12643 5349 0
-5400 363 4929 0
5400 -12643 -4929 0
5400 -4929 -5349 0
5400 -12643 -363 5349 0
-5401 4931 -5349 0
-5401 12644 5349 0
-5401 363 4931 0
5401 -12644 -4931 0
5401 -4931 -5349 0
5401 -12644 -363 5349 0
-5402 4933 -5349 0
-5402 12645 5349 0
-5402 363 4933 0
5402 -12645 -4933 0
5402 -4933 -5349 0
5402 -12645 -363 5349 0
-5403 4935 -5349 0
-5403 12646 5349 0
-5403 363 4935 0
5403 -12646 -4935 0
5403 -4935 -5349 0
5403 -12646 -363 5349 0
-5404 4937 -5349 0
-5404 12647 5349 0
-5404 363 4937 0
5404 -12647 -4937 0
5404 -4937 -5349 0
5404 -12647 -363 5349 0
-5405 4939 -5349 0
-5405 12648 5349 0
-5405 363 4939 0
5405 -12648 -4939 0
5405 -4939 -5349 0
5405 -12648 -363 5349 0
-5406 4941 -5349 0
-5406 12649 5349 0
-5406 363 4941 0
5406 -12649 -4941 0
5406 -4941 -5349 0
5406 -12649 -363 5349 0
-5407 4943 -5349 0
-5407 12650 5349 0
-5407 363 4943 0
5407 -12650 -4943 0
5407 -4943 -5349 0
5407 -12650 -363 5349 0
-5408 4945 -5349 0
-5408 12651 5349 0
-5408 363 4945 0
5408 -12651 -4945 0
5408 -4945 -5349 0
5408 -12651 -363 5349 0
-5409 4947 -5349 0
-5409 12652 5349 0
-5409 363 4947 0
5409 -12652 -4947 0
5409 -4947 -5349 0
5409 -12652 -363 5349 0
-5410 4949 -5349 0
-5410 12653 5349 0
-5410 363 4949 0
5410 -12653 -4949 0
5410 -4949 -5349 0
5410 -12653 -363 5349 0
-5411 4951 -5349 0
-5411 12654 5349 0
-5411 363 4951 0
5411 -12654 -4951 0
5411 -4951 -5349 0
5411 -12654 -363 5349 0
-5412 4953 -5349 0
-5412 12655 5349 0
-5412 363 4953 0
5412 -12655 -4953 0
5412 -4953 -5349 0
5412 -12655 -363 5349 0
-5413 4814 -5414 0
-5413 12656 5414 0
-5413 363 4814 0
5413 -12656 -4814 0
5413 -4814 -5414 0
5413 -12656 -363 5414 0
5414 -9981 12112 -5415 0
-5414 9981 0
-5414 -12112 0
-5414 5415 0
5415 12113 -5416 0
-5415 -12113 0
-5415 5416 0
5416 12114 -12115 4819 0
-5416 -4819 0
-5416 12115 0
-5416 -12114 0
-5417 4829 -5414 0
-5417 12657 5414 0
-5417 363 4829 0
5417 -12657 -4829 0
5417 -4829 -5414 0
5417 -12657 -363 5414 0
-5418 4831 -5414 0
-5418 12658 5414 0
-5418 363 4831 0
5418 -12658 -4831 0
5418 -4831 -5414 0
5418 -12658 -363 5414 0
-5419 4833 -5414 0
-5419 12659 5414 0
-5419 363 4833 0
5419 -12659 -4833 0
5419 -4833 -5414 0
5419 -12659 -363 5414 0
-5420 4835 -5414 0
-5420 12660 5414 0
-5420 363 4835 0
5420 -12660 -4835 0
5420 -4835 -5414 0
5420 -12660 -363 5414 0
-5421 4837 -5414 0
-5421 12661 5414 0
-5421 363 4837 0
5421 -12661 -4837 0
5421 -4837 -5414 0
5421 -12661 -363 5414 0
-5422 4839 -5414 0
-5422 12662 5414 0
-5422 363 4839 0
5422 -12662 -4839 0
5422 -4839 -5414 0
5422 -12662 -363 5414 0
-5423 4841 -5414 0
-5423 12663 5414 0
-5423 363 4841 0
5423 -12663 -4841 0
5423 -4841 -5414 0
5423 -12663 -363 5414 0
-5424 4843 -5414 0
-5424 12664 5414 0
-5424 363 4843 0
5424 -12664 -4843 0
5424 -4843 -5414 0
5424 -12664 -363 5414 0
-5425 4845 -5414 0
-5425 12665 5414 0
-5425 363 4845 0
5425 -12665 -4845 0
5425 -4845 -5414 0
5425 -12665 -363 5414 0
-5426 4847 -5414 0
-5426 12666 5414 0
-5426 363 4847 0
5426 -12666 -4847 0
5426 -4847 -5414 0
5426 -12666 -363 5414 0
-5427 4849 -5414 0
-5427 12667 5414 0
-5427 363 4849 0
5427 -12667 -4849 0
5427 -4849 -5414 0
5427 -12667 -363 5414 0
-5428 4851 -5414 0
-5428 12668 5414 0
-5428 363 4851 0
5428 -12668 -4851 0
5428 -4851 -5414 0
5428 -12668 -363 5414 0
-5429 4853 -5414 0
-5429 12669 5414 0
-5429 363 4853 0
5429 -12669 -4853 0
5429 -4853 -5414 0
5429 -12669 -363 5414 0
-5430 4855 -5414 0
-5430 12670 5414 0
-5430 363 4855 0
5430 -12670 -4855 0
5430 -4855 -5414 0
5430 -12670 -363 5414 0
-5431 4857 -5414 0
-5431 12671 5414 0
-5431 363 4857 0
5431 -12671 -4857 0
5431 -4857 -5414 0
5431 -12671 -363 5414 0
-5432 4859 -5414 0
-5432 12672 5414 0
-5432 363 4859 0
5432 -12672 -4859 0
5432 -4859 -5414 0
5432 -12672 -363 5414 0
-5433 4861 -5414 0
-5433 12673 5414 0
-5433 363 4861 0
5433 -12673 -4861 0
5433 -4861 -5414 0
5433 -12673 -363 5414 0
-5434 4863 -5414 0
-5434 12674 5414 0
-5434 363 4863 0
5434 -12674 -4863 0
5434 -4863 -5414 0
5434 -12674 -363 5414 0
-5435 4865 -5414 0
-5435 12675 5414 0
-5435 363 4865 0
5435 -12675 -4865 0
5435 -4865 -5414 0
5435 -12675 -363 5414 0
-5436 4867 -5414 0
-5436 12676 5414 0
-5436 363 4867 0
5436 -12676 -4867 0
5436 -4867 -5414 0
5436 -12676 -363 5414 0
-5437 4869 -5414 0
-5437 12677 5414 0
-5437 363 4869 0
5437 -12677 -4869 0
5437 -4869 -5414 0
5437 -12677 -363 5414 0
-5438 4871 -5414 0
-5438 12678 5414 0
-5438 363 4871 0
5438 -12678 -4871 0
5438 -4871 -5414 0
5438 -12678 -363 5414 0
-5439 4873 -5414 0
-5439 12679 5414 0
-5439 363 4873 0
5439 -12679 -4873 0
5439 -4873 -5414 0
5439 -12679 -363 5414 0
-5440 4875 -5414 0
-5440 12680 5414 0
-5440 363 4875 0
5440 -12680 -4875 0
5440 -4875 -5414 0
5440 -12680 -363 5414 0
-5441 4877 -5414 0
-5441 12681 5414 0
-5441 363 4877 0
5441 -12681 -4877 0
5441 -4877 -5414 0
5441 -12681 -363 5414 0
-5442 4879 -5414 0
-5442 12682 5414 0
-5442 363 4879 0
5442 -12682 -4879 0
5442 -4879 -5414 0
5442 -12682 -363 5414 0
-5443 4881 -5414 0
-5443 12683 5414 0
-5443 363 4881 0
5443 -12683 -4881 0
5443 -4881 -5414 0
5443 -12683 -363 5414 0
-5444 4883 -5414 0
-5444 12684 5414 0
-5444 363 4883 0
5444 -12684 -4883 0
5444 -4883 -5414 0
5444 -12684 -363 5414 0
-5445 4885 -5414 0
-5445 12685 5414 0
-5445 363 4885 0
5445 -12685 -4885 0
5445 -4885 -5414 0
5445 -12685 -363 5414 0
-5446 4887 -5414 0
-5446 12686 5414 0
-5446 363 4887 0
5446 -12686 -4887 0
5446 -4887 -5414 0
5446 -12686 -363 5414 0
-5447 4889 -5414 0
-5447 12687 5414 0
-5447 363 4889 0
5447 -12687 -4889 0
5447 -4889 -5414 0
5447 -12687 -363 5414 0
-5448 4891 -5414 0
-5448 12688 5414 0
-5448 363 4891 0
5448 -12688 -4891 0
5448 -4891 -5414 0
5448 -12688 -363 5414 0
-5449 4893 -5414 0
-5449 12689 5414 0
-5449 363 4893 0
5449 -12689 -4893 0
5449 -4893 -5414 0
5449 -12689 -363 5414 0
-5450 4895 -5414 0
-5450 12690 5414 0
-5450 363 4895 0
5450 -12690 -4895 0
5450 -4895 -5414 0
5450 -12690 -363 5414 0
-5451 4897 -5414 0
-5451 12691 5414 0
-5451 363 4897 0
5451 -12691 -4897 0
5451 -4897 -5414 0
5451 -12691 -363 5414 0
-5452 4899 -5414 0
-5452 12692 5414 0
-5452 363 4899 0
5452 -12692 -4899 0
5452 -4899 -5414 0
5452 -12692 -363 5414 0
-5453 4901 -5414 0
-5453 12693 5414 0
-5453 363 4901 0
5453 -12693 -4901 0
5453 -4901 -5414 0
5453 -12693 -363 5414 0
-5454 4903 -5414 0
-5454 12694 5414 0
-5454 363 4903 0
5454 -12694 -4903 0
5454 -4903 -5414 0
5454 -12694 -363 5414 0
-5455 4905 -5414 0
-5455 12695 5414 0
-5455 363 4905 0
5455 -12695 -4905 0
5455 -4905 -5414 0
5455 -12695 -363 5414 0
-5456 4907 -5414 0
-5456 12696 5414 0
-5456 363 4907 0
5456 -12696 -4907 0
5456 -4907 -5414 0
5456 -12696 -363 5414 0
-5457 4909 -5414 0
-5457 12697 5414 0
-5457 363 4909 0
5457 -12697 -4909 0
5457 -4909 -5414 0
5457 -12697 -363 5414 0
-5458 4911 -5414 0
-5458 12698 5414 0
-5458 363 4911 0
5458 -12698 -4911 0
5458 -4911 -5414 0
5458 -12698 -363 5414 0
-5459 4913 -5414 0
-5459 12699 5414 0
-5459 363 4913 0
5459 -12699 -4913 0
5459 -4913 -5414 0
5459 -12699 -363 5414 0
-5460 4915 -5414 0
-5460 12700 5414 0
-5460 363 4915 0
5460 -12700 -4915 0
5460 -4915 -5414 0
5460 -12700 -363 5414 0
-5461 4917 -5414 0
-5461 12701 5414 0
-5461 363 4917 0
5461 -12701 -4917 0
5461 -4917 -5414 0
5461 -12701 -363 5414 0
-5462 4919 -5414 0
-5462 12702 5414 0
-5462 363 4919 0
5462 -12702 -4919 0
5462 -4919 -5414 0
5462 -12702 -363 5414 0
-5463 4921 -5414 0
-5463 12703 5414 0
-5463 363 4921 0
5463 -12703 -4921 0
5463 -4921 -5414 0
5463 -12703 -363 5414 0
-5464 4923 -5414 0
-5464 12704 5414 0
-5464 363 4923 0
5464 -12704 -4923 0
5464 -4923 -5414 0
5464 -12704 -363 5414 0
-5465 4925 -5414 0
-5465 12705 5414 0
-5465 363 4925 0
5465 -12705 -4925 0
5465 -4925 -5414 0
5465 -12705 -363 5414 0
-5466 4927 -5414 0
-5466 12706 5414 0
-5466 363 4927 0
5466 -12706 -4927 0
5466 -4927 -5414 0
5466 -12706 -363 5414 0
-5467 4929 -5414 0
-5467 12707 5414 0
-5467 363 4929 0
5467 -12707 -4929 0
5467 -4929 -5414 0
5467 -12707 -363 5414 0
-5468 4931 -5414 0
-5468 12708 5414 0
-5468 363 4931 0
5468 -12708 -4931 0
5468 -4931 -5414 0
5468 -12708 -363 5414 0
-5469 4933 -5414 0
-5469 12709 5414 0
-5469 363 4933 0
5469 -12709 -4933 0
5469 -4933 -5414 0
5469 -12709 -363 5414 0
-5470 4935 -5414 0
-5470 12710 5414 0
-5470 363 4935 0
5470 -12710 -4935 0
5470 -4935 -5414 0
5470 -12710 -363 5414 0
-5471 4937 -5414 0
-5471 12711 5414 0
-5471 363 4937 0
5471 -12711 -4937 0
5471 -4937 -5414 0
5471 -12711 -363 5414 0
-5472 4939 -5414 0
-5472 12712 5414 0
-5472 363 4939 0
5472 -12712 -4939 0
5472 -4939 -5414 0
5472 -12712 -363 5414 0
-5473 4941 -5414 0
-5473 12713 5414 0
-5473 363 4941 0
5473 -12713 -4941 0
5473 -4941 -5414 0
5473 -12713 -363 5414 0
-5474 4943 -5414 0
-5474 12714 5414 0
-5474 363 4943 0
5474 -12714 -4943 0
5474 -4943 -5414 0
5474 -12714 -363 5414 0
-5475 4945 -5414 0
-5475 12715 5414 0
-5475 363 4945 0
5475 -12715 -4945 0
5475 -4945 -5414 0
5475 -12715 -363 5414 0
-5476 4947 -5414 0
-5476 12716 5414 0
-5476 363 4947 0
5476 -12716 -4947 0
5476 -4947 -5414 0
5476 -12716 -363 5414 0
-5477 4949 -5414 0
-5477 12717 5414 0
-5477 363 4949 0
5477 -12717 -4949 0
5477 -4949 -5414 0
5477 -12717 -363 5414 0
-5478 4951 -5414 0
-5478 12718 5414 0
-5478 363 4951 0
5478 -12718 -4951 0
5478 -4951 -5414 0
5478 -12718 -363 5414 0
-5479 4953 -5414 0
-5479 12719 5414 0
-5479 363 4953 0
5479 -12719 -4953 0
5479 -4953 -5414 0
5479 -12719 -363 5414 0
-5480 4814 -5481 0
-5480 12720 5481 0
-5480 363 4814 0
5480 -12720 -4814 0
5480 -4814 -5481 0
5480 -12720 -363 5481 0
5481 -9981 -12112 -5415 0
-5481 9981 0
-5481 12112 0
-5481 5415 0
-5482 4829 -5481 0
-5482 12721 5481 0
-5482 363 4829 0
5482 -12721 -4829 0
5482 -4829 -5481 0
5482 -12721 -363 5481 0
-5483 4831 -5481 0
-5483 12722 5481 0
-5483 363 4831 0
5483 -12722 -4831 0
5483 -4831 -5481 0
5483 -12722 -363 5481 0
-5484 4833 -5481 0
-5484 12723 5481 0
-5484 363 4833 0
5484 -12723 -4833 0
5484 -4833 -5481 0
5484 -12723 -363 5481 0
-5485 4835 -5481 0
-5485 12724 5481 0
-5485 363 4835 0
5485 -12724 -4835 0
5485 -4835 -5481 0
5485 -12724 -363 5481 0
-5486 4837 -5481 0
-5486 12725 5481 0
-5486 363 4837 0
5486 -12725 -4837 0
5486 -4837 -5481 0
5486 -12725 -363 5481 0
-5487 4839 -5481 0
-5487 12726 5481 0
-5487 363 4839 0
5487 -12726 -4839 0
5487 -4839 -5481 0
5487 -12726 -363 5481 0
-5488 4841 -5481 0
-5488 12727 5481 0
-5488 363 4841 0
5488 -12727 -4841 0
5488 -4841 -5481 0
5488 -12727 -363 5481 0
-5489 4843 -5481 0
-5489 12728 5481 0
-5489 363 4843 0
5489 -12728 -4843 0
5489 -4843 -5481 0
5489 -12728 -363 5481 0
-5490 4845 -5481 0
-5490 12729 5481 0
-5490 363 4845 0
5490 -12729 -4845 0
5490 -4845 -5481 0
5490 -12729 -363 5481 0
-5491 4847 -5481 0
-5491 12730 5481 0
-5491 363 4847 0
5491 -12730 -4847 0
5491 -4847 -5481 0
5491 -12730 -363 5481 0
-5492 4849 -5481 0
-5492 12731 5481 0
-5492 363 4849 0
5492 -12731 -4849 0
5492 -4849 -5481 0
5492 -12731 -363 5481 0
-5493 4851 -5481 0
-5493 12732 5481 0
-5493 363 4851 0
5493 -12732 -4851 0
5493 -4851 -5481 0
5493 -12732 -363 5481 0
-5494 4853 -5481 0
-5494 12733 5481 0
-5494 363 4853 0
5494 -12733 -4853 0
5494 -4853 -5481 0
5494 -12733 -363 5481 0
-5495 4855 -5481 0
-5495 12734 5481 0
-5495 363 4855 0
5495 -12734 -4855 0
5495 -4855 -5481 0
5495 -12734 -363 5481 0
-5496 4857 -5481 0
-5496 12735 5481 0
-5496 363 4857 0
5496 -12735 -4857 0
5496 -4857 -5481 0
5496 -12735 -363 5481 0
-5497 4859 -5481 0
-5497 12736 5481 0
-5497 363 4859 0
5497 -12736 -4859 0
5497 -4859 -5481 0
5497 -12736 -363 5481 0
-5498 4861 -5481 0
-5498 12737 5481 0
-5498 363 4861 0
5498 -12737 -4861 0
5498 -4861 -5481 0
5498 -12737 -363 5481 0
-5499 4863 -5481 0
-5499 12738 5481 0
-5499 363 4863 0
5499 -12738 -4863 0
5499 -4863 -5481 0
5499 -12738 -363 5481 0
-5500 4865 -5481 0
-5500 12739 5481 0
-5500 363 4865 0
5500 -12739 -4865 0
5500 -4865 -5481 0
5500 -12739 -363 5481 0
-5501 4867 -5481 0
-5501 12740 5481 0
-5501 363 4867 0
5501 -12740 -4867 0
5501 -4867 -5481 0
5501 -12740 -363 5481 0
-5502 4869 -5481 0
-5502 12741 5481 0
-5502 363 4869 0
5502 -12741 -4869 0
5502 -4869 -5481 0
5502 -12741 -363 5481 0
-5503 4871 -5481 0
-5503 12742 5481 0
-5503 363 4871 0
5503 -12742 -4871 0
5503 -4871 -5481 0
5503 -12742 -363 5481 0
-5504 4873 -5481 0
-5504 12743 5481 0
-5504 363 4873 0
5504 -12743 -4873 0
5504 -4873 -5481 0
5504 -12743 -363 5481 0
-5505 4875 -5481 0
-5505 12744 5481 0
-5505 363 4875 0
5505 -12744 -4875 0
5505 -4875 -5481 0
5505 -12744 -363 5481 0
-5506 4877 -5481 0
-5506 12745 5481 0
-5506 363 4877 0
5506 -12745 -4877 0
5506 -4877 -5481 0
5506 -12745 -363 5481 0
-5507 4879 -5481 0
-5507 12746 5481 0
-5507 363 4879 0
5507 -12746 -4879 0
5507 -4879 -5481 0
5507 -12746 -363 5481 0
-5508 4881 -5481 0
-5508 12747 5481 0
-5508 363 4881 0
5508 -12747 -4881 0
5508 -4881 -5481 0
5508 -12747 -363 5481 0
-5509 4883 -5481 0
-5509 12748 5481 0
-5509 363 4883 0
5509 -12748 -4883 0
5509 -4883 -5481 0
5509 -12748 -363 5481 0
-5510 4885 -5481 0
-5510 12749 5481 0
-5510 363 4885 0
5510 -12749 -4885 0
5510 -4885 -5481 0
5510 -12749 -363 5481 0
-5511 4887 -5481 0
-5511 12750 5481 0
-5511 363 4887 0
5511 -12750 -4887 0
5511 -4887 -5481 0
5511 -12750 -363 5481 0
-5512 4889 -5481 0
-5512 12751 5481 0
-5512 363 4889 0
5512 -12751 -4889 0
5512 -4889 -5481 0
5512 -12751 -363 5481 0
-5513 4891 -5481 0
-5513 12752 5481 0
-5513 363 4891 0
5513 -12752 -4891 0
5513 -4891 -5481 0
5513 -12752 -363 5481 0
-5514 4893 -5481 0
-5514 12753 5481 0
-5514 363 4893 0
5514 -12753 -4893 0
5514 -4893 -5481 0
5514 -12753 -363 5481 0
-5515 4895 -5481 0
-5515 12754 5481 0
-5515 363 4895 0
5515 -12754 -4895 0
5515 -4895 -5481 0
5515 -12754 -363 5481 0
-5516 4897 -5481 0
-5516 12755 5481 0
-5516 363 4897 0
5516 -12755 -4897 0
5516 -4897 -5481 0
5516 -12755 -363 5481 0
-5517 4899 -5481 0
-5517 12756 5481 0
-5517 363 4899 0
5517 -12756 -4899 0
5517 -4899 -5481 0
5517 -12756 -363 5481 0
-5518 4901 -5481 0
-5518 12757 5481 0
-5518 363 4901 0
5518 -12757 -4901 0
5518 -4901 -5481 0
5518 -12757 -363 5481 0
-5519 4903 -5481 0
-5519 12758 5481 0
-5519 363 4903 0
5519 -12758 -4903 0
5519 -4903 -5481 0
5519 -12758 -363 5481 0
-5520 4905 -5481 0
-5520 12759 5481 0
-5520 363 4905 0
5520 -12759 -4905 0
5520 -4905 -5481 0
5520 -12759 -363 5481 0
-5521 4907 -5481 0
-5521 12760 5481 0
-5521 363 4907 0
5521 -12760 -4907 0
5521 -4907 -5481 0
5521 -12760 -363 5481 0
-5522 4909 -5481 0
-5522 12761 5481 0
-5522 363 4909 0
5522 -12761 -4909 0
5522 -4909 -5481 0
5522 -12761 -363 5481 0
-5523 4911 -5481 0
-5523 12762 5481 0
-5523 363 4911 0
5523 -12762 -4911 0
5523 -4911 -5481 0
5523 -12762 -363 5481 0
-5524 4913 -5481 0
-5524 12763 5481 0
-5524 363 4913 0
5524 -12763 -4913 0
5524 -4913 -5481 0
5524 -12763 -363 5481 0
-5525 4915 -5481 0
-5525 12764 5481 0
-5525 363 4915 0
5525 -12764 -4915 0
5525 -4915 -5481 0
5525 -12764 -363 5481 0
-5526 4917 -5481 0
-5526 12765 5481 0
-5526 363 4917 0
5526 -12765 -4917 0
5526 -4917 -5481 0
5526 -12765 -363 5481 0
-5527 4919 -5481 0
-5527 12766 5481 0
-5527 363 4919 0
5527 -12766 -4919 0
5527 -4919 -5481 0
5527 -12766 -363 5481 0
-5528 4921 -5481 0
-5528 12767 5481 0
-5528 363 4921 0
5528 -12767 -4921 0
5528 -4921 -5481 0
5528 -12767 -363 5481 0
-5529 4923 -5481 0
-5529 12768 5481 0
-5529 363 4923 0
5529 -12768 -4923 0
5529 -4923 -5481 0
5529 -12768 -363 5481 0
-5530 4925 -5481 0
-5530 12769 5481 0
-5530 363 4925 0
5530 -12769 -4925 0
5530 -4925 -5481 0
5530 -12769 -363 5481 0
-5531 4927 -5481 0
-5531 12770 5481 0
-5531 363 4927 0
5531 -12770 -4927 0
5531 -4927 -5481 0
5531 -12770 -363 5481 0
-5532 4929 -5481 0
-5532 12771 5481 0
-5532 363 4929 0
5532 -12771 -4929 0
5532 -4929 -5481 0
5532 -12771 -363 5481 0
-5533 4931 -5481 0
-5533 12772 5481 0
-5533 363 4931 0
5533 -12772 -4931 0
5533 -4931 -5481 0
5533 -12772 -363 5481 0
-5534 4933 -5481 0
-5534 12773 5481 0
-5534 363 4933 0
5534 -12773 -4933 0
5534 -4933 -5481 0
5534 -12773 -363 5481 0
-5535 4935 -5481 0
-5535 12774 5481 0
-5535 363 4935 0
5535 -12774 -4935 0
5535 -4935 -5481 0
5535 -12774 -363 5481 0
-5536 4937 -5481 0
-5536 12775 5481 0
-5536 363 4937 0
5536 -12775 -4937 0
5536 -4937 -5481 0
5536 -12775 -363 5481 0
-5537 4939 -5481 0
-5537 12776 5481 0
-5537 363 4939 0
5537 -12776 -4939 0
5537 -4939 -5481 0
5537 -12776 -363 5481 0
-5538 4941 -5481 0
-5538 12777 5481 0
-5538 363 4941 0
5538 -12777 -4941 0
5538 -4941 -5481 0
5538 -12777 -363 5481 0
-5539 4943 -5481 0
-5539 12778 5481 0
-5539 363 4943 0
5539 -12778 -4943 0
5539 -4943 -5481 0
5539 -12778 -363 5481 0
-5540 4945 -5481 0
-5540 12779 5481 0
-5540 363 4945 0
5540 -12779 -4945 0
5540 -4945 -5481 0
5540 -12779 -363 5481 0
-5541 4947 -5481 0
-5541 12780 5481 0
-5541 363 4947 0
5541 -12780 -4947 0
5541 -4947 -5481 0
5541 -12780 -363 5481 0
-5542 4949 -5481 0
-5542 12781 5481 0
-5542 363 4949 0
5542 -12781 -4949 0
5542 -4949 -5481 0
5542 -12781 -363 5481 0
-5543 4951 -5481 0
-5543 12782 5481 0
-5543 363 4951 0
5543 -12782 -4951 0
5543 -4951 -5481 0
5543 -12782 -363 5481 0
-5544 4953 -5481 0
-5544 12783 5481 0
-5544 363 4953 0
5544 -12783 -4953 0
5544 -4953 -5481 0
5544 -12783 -363 5481 0
-5545 4814 -5546 0
-5545 12784 5546 0
-5545 363 4814 0
5545 -12784 -4814 0
5545 -4814 -5546 0
5545 -12784 -363 5546 0
5546 -9981 12112 -5547 0
-5546 9981 0
-5546 -12112 0
-5546 5547 0
5547 -12113 -5416 0
-5547 12113 0
-5547 5416 0
-5548 4829 -5546 0
-5548 12785 5546 0
-5548 363 4829 0
5548 -12785 -4829 0
5548 -4829 -5546 0
5548 -12785 -363 5546 0
-5549 4831 -5546 0
-5549 12786 5546 0
-5549 363 4831 0
5549 -12786 -4831 0
5549 -4831 -5546 0
5549 -12786 -363 5546 0
-5550 4833 -5546 0
-5550 12787 5546 0
-5550 363 4833 0
5550 -12787 -4833 0
5550 -4833 -5546 0
5550 -12787 -363 5546 0
-5551 4835 -5546 0
-5551 12788 5546 0
-5551 363 4835 0
5551 -12788 -4835 0
5551 -4835 -5546 0
5551 -12788 -363 5546 0
-5552 4837 -5546 0
-5552 12789 5546 0
-5552 363 4837 0
5552 -12789 -4837 0
5552 -4837 -5546 0
5552 -12789 -363 5546 0
-5553 4839 -5546 0
-5553 12790 5546 0
-5553 363 4839 0
5553 -12790 -4839 0
5553 -4839 -5546 0
5553 -12790 -363 5546 0
-5554 4841 -5546 0
-5554 12791 5546 0
-5554 363 4841 0
5554 -12791 -4841 0
5554 -4841 -5546 0
5554 -12791 -363 5546 0
-5555 4843 -5546 0
-5555 12792 5546 0
-5555 363 4843 0
5555 -12792 -4843 0
5555 -4843 -5546 0
5555 -12792 -363 5546 0
-5556 4845 -5546 0
-5556 12793 5546 0
-5556 363 4845 0
5556 -12793 -4845 0
5556 -4845 -5546 0
5556 -12793 -363 5546 0
-5557 4847 -5546 0
-5557 12794 5546 0
-5557 363 4847 0
5557 -12794 -4847 0
5557 -4847 -5546 0
5557 -12794 -363 5546 0
-5558 4849 -5546 0
-5558 12795 5546 0
-5558 363 4849 0
5558 -12795 -4849 0
5558 -4849 -5546 0
5558 -12795 -363 5546 0
-5559 4851 -5546 0
-5559 12796 5546 0
-5559 363 4851 0
5559 -12796 -4851 0
5559 -4851 -5546 0
5559 -12796 -363 5546 0
-5560 4853 -5546 0
-5560 12797 5546 0
-5560 363 4853 0
5560 -12797 -4853 0
5560 -4853 -5546 0
5560 -12797 -363 5546 0
-5561 4855 -5546 0
-5561 12798 5546 0
-5561 363 4855 0
5561 -12798 -4855 0
5561 -4855 -5546 0
5561 -12798 -363 5546 0
-5562 4857 -5546 0
-5562 12799 5546 0
-5562 363 4857 0
5562 -12799 -4857 0
5562 -4857 -5546 0
5562 -12799 -363 5546 0
-5563 4859 -5546 0
-5563 12800 5546 0
-5563 363 4859 0
5563 -12800 -4859 0
5563 -4859 -5546 0
5563 -12800 -363 5546 0
-5564 4861 -5546 0
-5564 12801 5546 0
-5564 363 4861 0
5564 -12801 -4861 0
5564 -4861 -5546 0
5564 -12801 -363 5546 0
-5565 4863 -5546 0
-5565 12802 5546 0
-5565 363 4863 0
5565 -12802 -4863 0
5565 -4863 -5546 0
5565 -12802 -363 5546 0
-5566 4865 -5546 0
-5566 12803 5546 0
-5566 363 4865 0
5566 -12803 -4865 0
5566 -4865 -5546 0
5566 -12803 -363 5546 0
-5567 4867 -5546 0
-5567 12804 5546 0
-5567 363 4867 0
5567 -12804 -4867 0
5567 -4867 -5546 0
5567 -12804 -363 5546 0
-5568 4869 -5546 0
-5568 12805 5546 0
-5568 363 4869 0
5568 -12805 -4869 0
5568 -4869 -5546 0
5568 -12805 -363 5546 0
-5569 4871 -5546 0
-5569 12806 5546 0
-5569 363 4871 0
5569 -12806 -4871 0
5569 -4871 -5546 0
5569 -12806 -363 5546 0
-5570 4873 -5546 0
-5570 12807 5546 0
-5570 363 4873 0
5570 -12807 -4873 0
5570 -4873 -5546 0
5570 -12807 -363 5546 0
-5571 4875 -5546 0
-5571 12808 5546 0
-5571 363 4875 0
5571 -12808 -4875 0
5571 -4875 -5546 0
5571 -12808 -363 5546 0
-5572 4877 -5546 0
-5572 12809 5546 0
-5572 363 4877 0
5572 -12809 -4877 0
5572 -4877 -5546 0
5572 -12809 -363 5546 0
-5573 4879 -5546 0
-5573 12810 5546 0
-5573 363 4879 0
5573 -12810 -4879 0
5573 -4879 -5546 0
5573 -12810 -363 5546 0
-5574 4881 -5546 0
-5574 12811 5546 0
-5574 363 4881 0
5574 -12811 -4881 0
5574 -4881 -5546 0
5574 -12811 -363 5546 0
-5575 4883 -5546 0
-5575 12812 5546 0
-5575 363 4883 0
5575 -12812 -4883 0
5575 -4883 -5546 0
5575 -12812 -363 5546 0
-5576 4885 -5546 0
-5576 12813 5546 0
-5576 363 4885 0
5576 -12813 -4885 0
5576 -4885 -5546 0
5576 -12813 -363 5546 0
-5577 4887 -5546 0
-5577 12814 5546 0
-5577 363 4887 0
5577 -12814 -4887 0
5577 -4887 -5546 0
5577 -12814 -363 5546 0
-5578 4889 -5546 0
-5578 12815 5546 0
-5578 363 4889 0
5578 -12815 -4889 0
5578 -4889 -5546 0
5578 -12815 -363 5546 0
-5579 4891 -5546 0
-5579 12816 5546 0
-5579 363 4891 0
5579 -12816 -4891 0
5579 -4891 -5546 0
5579 -12816 -363 5546 0
-5580 4893 -5546 0
-5580 12817 5546 0
-5580 363 4893 0
5580 -12817 -4893 0
5580 -4893 -5546 0
5580 -12817 -363 5546 0
-5581 4895 -5546 0
-5581 12818 5546 0
-5581 363 4895 0
5581 -12818 -4895 0
5581 -4895 -5546 0
5581 -12818 -363 5546 0
-5582 4897 -5546 0
-5582 12819 5546 0
-5582 363 4897 0
5582 -12819 -4897 0
5582 -4897 -5546 0
5582 -12819 -363 5546 0
-5583 4899 -5546 0
-5583 12820 5546 0
-5583 363 4899 0
5583 -12820 -4899 0
5583 -4899 -5546 0
5583 -12820 -363 5546 0
-5584 4901 -5546 0
-5584 12821 5546 0
-5584 363 4901 0
5584 -12821 -4901 0
5584 -4901 -5546 0
5584 -12821 -363 5546 0
-5585 4903 -5546 0
-5585 12822 5546 0
-5585 363 4903 0
5585 -12822 -4903 0
5585 -4903 -5546 0
5585 -12822 -363 5546 0
-5586 4905 -5546 0
-5586 12823 5546 0
-5586 363 4905 0
5586 -12823 -4905 0
5586 -4905 -5546 0
5586 -12823 -363 5546 0
-5587 4907 -5546 0
-5587 12824 5546 0
-5587 363 4907 0
5587 -12824 -4907 0
5587 -4907 -5546 0
5587 -12824 -363 5546 0
-5588 4909 -5546 0
-5588 12825 5546 0
-5588 363 4909 0
5588 -12825 -4909 0
5588 -4909 -5546 0
5588 -12825 -363 5546 0
-5589 4911 -5546 0
-5589 12826 5546 0
-5589 363 4911 0
5589 -12826 -4911 0
5589 -4911 -5546 0
5589 -12826 -363 5546 0
-5590 4913 -5546 0
-5590 12827 5546 0
-5590 363 4913 0
5590 -12827 -4913 0
5590 -4913 -5546 0
5590 -12827 -363 5546 0
-5591 4915 -5546 0
-5591 12828 5546 0
-5591 363 4915 0
5591 -12828 -4915 0
5591 -4915 -5546 0
5591 -12828 -363 5546 0
-5592 4917 -5546 0
-5592 12829 5546 0
-5592 363 4917 0
5592 -12829 -4917 0
5592 -4917 -5546 0
5592 -12829 -363 5546 0
-5593 4919 -5546 0
-5593 12830 5546 0
-5593 363 4919 0
5593 -12830 -4919 0
5593 -4919 -5546 0
5593 -12830 -363 5546 0
-5594 4921 -5546 0
-5594 12831 5546 0
-5594 363 4921 0
5594 -12831 -4921 0
5594 -4921 -5546 0
5594 -12831 -363 5546 0
-5595 4923 -5546 0
-5595 12832 5546 0
-5595 363 4923 0
5595 -12832 -4923 0
5595 -4923 -5546 0
5595 -12832 -363 5546 0
-5596 4925 -5546 0
-5596 12833 5546 0
-5596 363 4925 0
5596 -12833 -4925 0
5596 -4925 -5546 0
5596 -12833 -363 5546 0
-5597 4927 -5546 0
-5597 12834 5546 0
-5597 363 4927 0
5597 -12834 -4927 0
5597 -4927 -5546 0
5597 -12834 -363 5546 0
-5598 4929 -5546 0
-5598 12835 5546 0
-5598 363 4929 0
5598 -12835 -4929 0
5598 -4929 -5546 0
5598 -12835 -363 5546 0
-5599 4931 -5546 0
-5599 12836 5546 0
-5599 363 4931 0
5599 -12836 -4931 0
5599 -4931 -5546 0
5599 -12836 -363 5546 0
-5600 4933 -5546 0
-5600 12837 5546 0
-5600 363 4933 0
5600 -12837 -4933 0
5600 -4933 -5546 0
5600 -12837 -363 5546 0
-5601 4935 -5546 0
-5601 12838 5546 0
-5601 363 4935 0
5601 -12838 -4935 0
5601 -4935 -5546 0
5601 -12838 -363 5546 0
-5602 4937 -5546 0
-5602 12839 5546 0
-5602 363 4937 0
5602 -12839 -4937 0
5602 -4937 -5546 0
5602 -12839 -363 5546 0
-5603 4939 -5546 0
-5603 12840 5546 0
-5603 363 4939 0
5603 -12840 -4939 0
5603 -4939 -5546 0
5603 -12840 -363 5546 0
-5604 4941 -5546 0
-5604 12841 5546 0
-5604 363 4941 0
5604 -12841 -4941 0
5604 -4941 -5546 0
5604 -12841 -363 5546 0
-5605 4943 -5546 0
-5605 12842 5546 0
-5605 363 4943 0
5605 -12842 -4943 0
5605 -4943 -5546 0
5605 -12842 -363 5546 0
-5606 4945 -5546 0
-5606 12843 5546 0
-5606 363 4945 0
5606 -12843 -4945 0
5606 -4945 -5546 0
5606 -12843 -363 5546 0
-5607 4947 -5546 0
-5607 12844 5546 0
-5607 363 4947 0
5607 -12844 -4947 0
5607 -4947 -5546 0
5607 -12844 -363 5546 0
-5608 4949 -5546 0
-5608 12845 5546 0
-5608 363 4949 0
5608 -12845 -4949 0
5608 -4949 -5546 0
5608 -12845 -363 5546 0
-5609 4951 -5546 0
-5609 12846 5546 0
-5609 363 4951 0
5609 -12846 -4951 0
5609 -4951 -5546 0
5609 -12846 -363 5546 0
-5610 4953 -5546 0
-5610 12847 5546 0
-5610 363 4953 0
5610 -12847 -4953 0
5610 -4953 -5546 0
5610 -12847 -363 5546 0
-5611 4814 -5612 0
-5611 12848 5612 0
-5611 363 4814 0
5611 -12848 -4814 0
5611 -4814 -5612 0
5611 -12848 -363 5612 0
5612 -9981 -12112 -5547 0
-5612 9981 0
-5612 12112 0
-5612 5547 0
-5613 4829 -5612 0
-5613 12849 5612 0
-5613 363 4829 0
5613 -12849 -4829 0
5613 -4829 -5612 0
5613 -12849 -363 5612 0
-5614 4831 -5612 0
-5614 12850 5612 0
-5614 363 4831 0
5614 -12850 -4831 0
5614 -4831 -5612 0
5614 -12850 -363 5612 0
-5615 4833 -5612 0
-5615 12851 5612 0
-5615 363 4833 0
5615 -12851 -4833 0
5615 -4833 -5612 0
5615 -12851 -363 5612 0
-5616 4835 -5612 0
-5616 12852 5612 0
-5616 363 4835 0
5616 -12852 -4835 0
5616 -4835 -5612 0
5616 -12852 -363 5612 0
-5617 4837 -5612 0
-5617 12853 5612 0
-5617 363 4837 0
5617 -12853 -4837 0
5617 -4837 -5612 0
5617 -12853 -363 5612 0
-5618 4839 -5612 0
-5618 12854 5612 0
-5618 363 4839 0
5618 -12854 -4839 0
5618 -4839 -5612 0
5618 -12854 -363 5612 0
-5619 4841 -5612 0
-5619 12855 5612 0
-5619 363 4841 0
5619 -12855 -4841 0
5619 -4841 -5612 0
5619 -12855 -363 5612 0
-5620 4843 -5612 0
-5620 12856 5612 0
-5620 363 4843 0
5620 -12856 -4843 0
5620 -4843 -5612 0
5620 -12856 -363 5612 0
-5621 4845 -5612 0
-5621 12857 5612 0
-5621 363 4845 0
5621 -12857 -4845 0
5621 -4845 -5612 0
5621 -12857 -363 5612 0
-5622 4847 -5612 0
-5622 12858 5612 0
-5622 363 4847 0
5622 -12858 -4847 0
5622 -4847 -5612 0
5622 -12858 -363 5612 0
-5623 4849 -5612 0
-5623 12859 5612 0
-5623 363 4849 0
5623 -12859 -4849 0
5623 -4849 -5612 0
5623 -12859 -363 5612 0
-5624 4851 -5612 0
-5624 12860 5612 0
-5624 363 4851 0
5624 -12860 -4851 0
5624 -4851 -5612 0
5624 -12860 -363 5612 0
-5625 4853 -5612 0
-5625 12861 5612 0
-5625 363 4853 0
5625 -12861 -4853 0
5625 -4853 -5612 0
5625 -12861 -363 5612 0
-5626 4855 -5612 0
-5626 12862 5612 0
-5626 363 4855 0
5626 -12862 -4855 0
5626 -4855 -5612 0
5626 -12862 -363 5612 0
-5627 4857 -5612 0
-5627 12863 5612 0
-5627 363 4857 0
5627 -12863 -4857 0
5627 -4857 -5612 0
5627 -12863 -363 5612 0
-5628 4859 -5612 0
-5628 12864 5612 0
-5628 363 4859 0
5628 -12864 -4859 0
5628 -4859 -5612 0
5628 -12864 -363 5612 0
-5629 4861 -5612 0
-5629 12865 5612 0
-5629 363 4861 0
5629 -12865 -4861 0
5629 -4861 -5612 0
5629 -12865 -363 5612 0
-5630 4863 -5612 0
-5630 12866 5612 0
-5630 363 4863 0
5630 -12866 -4863 0
5630 -4863 -5612 0
5630 -12866 -363 5612 0
-5631 4865 -5612 0
-5631 12867 5612 0
-5631 363 4865 0
5631 -12867 -4865 0
5631 -4865 -5612 0
5631 -12867 -363 5612 0
-5632 4867 -5612 0
-5632 12868 5612 0
-5632 363 4867 0
5632 -12868 -4867 0
5632 -4867 -5612 0
5632 -12868 -363 5612 0
-5633 4869 -5612 0
-5633 12869 5612 0
-5633 363 4869 0
5633 -12869 -4869 0
5633 -4869 -5612 0
5633 -12869 -363 5612 0
-5634 4871 -5612 0
-5634 12870 5612 0
-5634 363 4871 0
5634 -12870 -4871 0
5634 -4871 -5612 0
5634 -12870 -363 5612 0
-5635 4873 -5612 0
-5635 12871 5612 0
-5635 363 4873 0
5635 -12871 -4873 0
5635 -4873 -5612 0
5635 -12871 -363 5612 0
-5636 4875 -5612 0
-5636 12872 5612 0
-5636 363 4875 0
5636 -12872 -4875 0
5636 -4875 -5612 0
5636 -12872 -363 5612 0
-5637 4877 -5612 0
-5637 12873 5612 0
-5637 363 4877 0
5637 -12873 -4877 0
5637 -4877 -5612 0
5637 -12873 -363 5612 0
-5638 4879 -5612 0
-5638 12874 5612 0
-5638 363 4879 0
5638 -12874 -4879 0
5638 -4879 -5612 0
5638 -12874 -363 5612 0
-5639 4881 -5612 0
-5639 12875 5612 0
-5639 363 4881 0
5639 -12875 -4881 0
5639 -4881 -5612 0
5639 -12875 -363 5612 0
-5640 4883 -5612 0
-5640 12876 5612 0
-5640 363 4883 0
5640 -12876 -4883 0
5640 -4883 -5612 0
5640 -12876 -363 5612 0
-5641 4885 -5612 0
-5641 12877 5612 0
-5641 363 4885 0
5641 -12877 -4885 0
5641 -4885 -5612 0
5641 -12877 -363 5612 0
-5642 4887 -5612 0
-5642 12878 5612 0
-5642 363 4887 0
5642 -12878 -4887 0
5642 -4887 -5612 0
5642 -12878 -363 5612 0
-5643 4889 -5612 0
-5643 12879 5612 0
-5643 363 4889 0
5643 -12879 -4889 0
5643 -4889 -5612 0
5643 -12879 -363 5612 0
-5644 4891 -5612 0
-5644 12880 5612 0
-5644 363 4891 0
5644 -12880 -4891 0
5644 -4891 -5612 0
5644 -12880 -363 5612 0
-5645 4893 -5612 0
-5645 12881 5612 0
-5645 363 4893 0
5645 -12881 -4893 0
5645 -4893 -5612 0
5645 -12881 -363 5612 0
-5646 4895 -5612 0
-5646 12882 5612 0
-5646 363 4895 0
5646 -12882 -4895 0
5646 -4895 -5612 0
5646 -12882 -363 5612 0
-5647 4897 -5612 0
-5647 12883 5612 0
-5647 363 4897 0
5647 -12883 -4897 0
5647 -4897 -5612 0
5647 -12883 -363 5612 0
-5648 4899 -5612 0
-5648 12884 5612 0
-5648 363 4899 0
5648 -12884 -4899 0
5648 -4899 -5612 0
5648 -12884 -363 5612 0
-5649 4901 -5612 0
-5649 12885 5612 0
-5649 363 4901 0
5649 -12885 -4901 0
5649 -4901 -5612 0
5649 -12885 -363 5612 0
-5650 4903 -5612 0
-5650 12886 5612 0
-5650 363 4903 0
5650 -12886 -4903 0
5650 -4903 -5612 0
5650 -12886 -363 5612 0
-5651 4905 -5612 0
-5651 12887 5612 0
-5651 363 4905 0
5651 -12887 -4905 0
5651 -4905 -5612 0
5651 -12887 -363 5612 0
-5652 4907 -5612 0
-5652 12888 5612 0
-5652 363 4907 0
5652 -12888 -4907 0
5652 -4907 -5612 0
5652 -12888 -363 5612 0
-5653 4909 -5612 0
-5653 12889 5612 0
-5653 363 4909 0
5653 -12889 -4909 0
5653 -4909 -5612 0
5653 -12889 -363 5612 0
-5654 4911 -5612 0
-5654 12890 5612 0
-5654 363 4911 0
5654 -12890 -4911 0
5654 -4911 -5612 0
5654 -12890 -363 5612 0
-5655 4913 -5612 0
-5655 12891 5612 0
-5655 363 4913 0
5655 -12891 -4913 0
5655 -4913 -5612 0
5655 -12891 -363 5612 0
-5656 4915 -5612 0
-5656 12892 5612 0
-5656 363 4915 0
5656 -12892 -4915 0
5656 -4915 -5612 0
5656 -12892 -363 5612 0
-5657 4917 -5612 0
-5657 12893 5612 0
-5657 363 4917 0
5657 -12893 -4917 0
5657 -4917 -5612 0
5657 -12893 -363 5612 0
-5658 4919 -5612 0
-5658 12894 5612 0
-5658 363 4919 0
5658 -12894 -4919 0
5658 -4919 -5612 0
5658 -12894 -363 5612 0
-5659 4921 -5612 0
-5659 12895 5612 0
-5659 363 4921 0
5659 -12895 -4921 0
5659 -4921 -5612 0
5659 -12895 -363 5612 0
-5660 4923 -5612 0
-5660 12896 5612 0
-5660 363 4923 0
5660 -12896 -4923 0
5660 -4923 -5612 0
5660 -12896 -363 5612 0
-5661 4925 -5612 0
-5661 12897 5612 0
-5661 363 4925 0
5661 -12897 -4925 0
5661 -4925 -5612 0
5661 -12897 -363 5612 0
-5662 4927 -5612 0
-5662 12898 5612 0
-5662 363 4927 0
5662 -12898 -4927 0
5662 -4927 -5612 0
5662 -12898 -363 5612 0
-5663 4929 -5612 0
-5663 12899 5612 0
-5663 363 4929 0
5663 -12899 -4929 0
5663 -4929 -5612 0
5663 -12899 -363 5612 0
-5664 4931 -5612 0
-5664 12900 5612 0
-5664 363 4931 0
5664 -12900 -4931 0
5664 -4931 -5612 0
5664 -12900 -363 5612 0
-5665 4933 -5612 0
-5665 12901 5612 0
-5665 363 4933 0
5665 -12901 -4933 0
5665 -4933 -5612 0
5665 -12901 -363 5612 0
-5666 4935 -5612 0
-5666 12902 5612 0
-5666 363 4935 0
5666 -12902 -4935 0
5666 -4935 -5612 0
5666 -12902 -363 5612 0
-5667 4937 -5612 0
-5667 12903 5612 0
-5667 363 4937 0
5667 -12903 -4937 0
5667 -4937 -5612 0
5667 -12903 -363 5612 0
-5668 4939 -5612 0
-5668 12904 5612 0
-5668 363 4939 0
5668 -12904 -4939 0
5668 -4939 -5612 0
5668 -12904 -363 5612 0
-5669 4941 -5612 0
-5669 12905 5612 0
-5669 363 4941 0
5669 -12905 -4941 0
5669 -4941 -5612 0
5669 -12905 -363 5612 0
-5670 4943 -5612 0
-5670 12906 5612 0
-5670 363 4943 0
5670 -12906 -4943 0
5670 -4943 -5612 0
5670 -12906 -363 5612 0
-5671 4945 -5612 0
-5671 12907 5612 0
-5671 363 4945 0
5671 -12907 -4945 0
5671 -4945 -5612 0
5671 -12907 -363 5612 0
-5672 4947 -5612 0
-5672 12908 5612 0
-5672 363 4947 0
5672 -12908 -4947 0
5672 -4947 -5612 0
5672 -12908 -363 5612 0
-5673 4949 -5612 0
-5673 12909 5612 0
-5673 363 4949 0
5673 -12909 -4949 0
5673 -4949 -5612 0
5673 -12909 -363 5612 0
-5674 4951 -5612 0
-5674 12910 5612 0
-5674 363 4951 0
5674 -12910 -4951 0
5674 -4951 -5612 0
5674 -12910 -363 5612 0
-5675 4953 -5612 0
-5675 12911 5612 0
-5675 363 4953 0
5675 -12911 -4953 0
5675 -4953 -5612 0
5675 -12911 -363 5612 0
-5676 12912 5677 0
-5676 642 -5677 0
5676 -642 -5677 0
5676 -12912 5677 0
5677 -523 -642 0
5677 -637 -523 -525 0
-5677 523 0
-5677 525 642 0
-5677 637 642 0
5678 -12913 5679 0
5678 12913 322 -5679 0
-5678 -322 -5679 0
-5678 12913 5679 0
-5678 -12913 -5679 0
-5679 12912 322 0
5679 -12912 0
5679 -322 0
5680 -12914 5679 0
5680 12913 -12914 322 0
5680 -12913 12914 322 -5679 0
-5680 12914 5679 0
-5680 -12913 -12914 -5679 0
-5680 12913 12914 0
-5680 -322 -5679 0
5681 -12915 5679 0
5681 -12915 322 5682 0
5681 12915 322 -5679 -5682 0
-5681 12915 5679 0
-5681 -12915 -5679 -5682 0
-5681 -322 -5679 0
-5681 12915 5682 0
5682 -12913 -12914 0
-5682 12913 0
-5682 12914 0
5683 -12916 5679 0
5683 -12916 322 5684 0
5683 12916 322 -5679 -5684 0
-5683 12916 5679 0
-5683 -12916 -5679 -5684 0
-5683 -322 -5679 0
-5683 12916 5684 0
5684 -12913 -12914 -12915 0
-5684 12913 0
-5684 12914 0
-5684 12915 0
5685 -12917 5679 0
5685 -12917 322 5686 0
5685 12917 322 -5679 -5686 0
-5685 12917 5679 0
-5685 -12917 -5679 -5686 0
-5685 -322 -5679 0
-5685 12917 5686 0
5686 -12916 -5684 0
-5686 12916 0
-5686 5684 0
5687 -12918 5679 0
5687 -12918 322 5688 0
5687 12918 322 -5679 -5688 0
-5687 12918 5679 0
-5687 -12918 -5679 -5688 0
-5687 -322 -5679 0
-5687 12918 5688 0
5688 -12917 -5686 0
-5688 12917 0
-5688 5686 0
5689 -12919 5679 0
5689 -12919 322 5690 0
5689 12919 322 -5679 -5690 0
-5689 12919 5679 0
-5689 -12919 -5679 -5690 0
-5689 -322 -5679 0
-5689 12919 5690 0
5690 -12918 -5688 0
-5690 12918 0
-5690 5688 0
5691 -12920 5679 0
5691 -12920 322 5692 0
5691 12920 322 -5679 -5692 0
-5691 12920 5679 0
-5691 -12920 -5679 -5692 0
-5691 -322 -5679 0
-5691 12920 5692 0
5692 -12919 -5690 0
-5692 12919 0
-5692 5690 0
5693 -12921 5679 0
5693 -12921 322 5694 0
5693 12921 322 -5679 -5694 0
-5693 12921 5679 0
-5693 -12921 -5679 -5694 0
-5693 -322 -5679 0
-5693 12921 5694 0
5694 -12920 -5692 0
-5694 12920 0
-5694 5692 0
5695 -12922 5679 0
5695 -12922 322 5696 0
5695 12922 322 -5679 -5696 0
-5695 12922 5679 0
-5695 -12922 -5679 -5696 0
-5695 -322 -5679 0
-5695 12922 5696 0
5696 -12921 -5694 0
-5696 12921 0
-5696 5694 0
5697 -12923 5679 0
5697 -12923 322 5698 0
5697 12923 322 -5679 -5698 0
-5697 12923 5679 0
-5697 -12923 -5679 -5698 0
-5697 -322 -5679 0
-5697 12923 5698 0
5698 -12922 -5696 0
-5698 12922 0
-5698 5696 0
5699 -12924 5679 0
5699 -12924 322 5700 0
5699 12924 322 -5679 -5700 0
-5699 12924 5679 0
-5699 -12924 -5679 -5700 0
-5699 -322 -5679 0
-5699 12924 5700 0
5700 -12923 -5698 0
-5700 12923 0
-5700 5698 0
5701 -12925 5679 0
5701 -12925 322 5702 0
5701 12925 322 -5679 -5702 0
-5701 12925 5679 0
-5701 -12925 -5679 -5702 0
-5701 -322 -5679 0
-5701 12925 5702 0
5702 -12924 -5700 0
-5702 12924 0
-5702 5700 0
5703 -12926 5679 0
5703 -12926 322 5704 0
5703 12926 322 -5679 -5704 0
-5703 12926 5679 0
-5703 -12926 -5679 -5704 0
-5703 -322 -5679 0
-5703 12926 5704 0
5704 -12925 -5702 0
-5704 12925 0
-5704 5702 0
5705 -12927 5679 0
5705 -12927 322 5706 0
5705 12927 322 -5679 -5706 0
-5705 12927 5679 0
-5705 -12927 -5679 -5706 0
-5705 -322 -5679 0
-5705 12927 5706 0
5706 -12926 -5704 0
-5706 12926 0
-5706 5704 0
5707 -12928 5679 0
5707 -12928 322 5708 0
5707 12928 322 -5679 -5708 0
-5707 12928 5679 0
-5707 -12928 -5679 -5708 0
-5707 -322 -5679 0
-5707 12928 5708 0
5708 -12927 -5706 0
-5708 12927 0
-5708 5706 0
5709 -12929 5679 0
5709 -12929 322 5710 0
5709 12929 322 -5679 -5710 0
-5709 12929 5679 0
-5709 -12929 -5679 -5710 0
-5709 -322 -5679 0
-5709 12929 5710 0
5710 -12928 -5708 0
-5710 12928 0
-5710 5708 0
5711 -12930 5679 0
5711 -12930 322 5712 0
5711 12930 322 -5679 -5712 0
-5711 12930 5679 0
-5711 -12930 -5679 -5712 0
-5711 -322 -5679 0
-5711 12930 5712 0
5712 -12929 -5710 0
-5712 12929 0
-5712 5710 0
5713 -12931 5679 0
5713 -12931 322 5714 0
5713 12931 322 -5679 -5714 0
-5713 12931 5679 0
-5713 -12931 -5679 -5714 0
-5713 -322 -5679 0
-5713 12931 5714 0
5714 -12930 -5712 0
-5714 12930 0
-5714 5712 0
5715 -12932 5679 0
5715 -12932 322 5716 0
5715 12932 322 -5679 -5716 0
-5715 12932 5679 0
-5715 -12932 -5679 -5716 0
-5715 -322 -5679 0
-5715 12932 5716 0
5716 -12931 -5714 0
-5716 12931 0
-5716 5714 0
5717 -12933 5679 0
5717 -12933 322 5718 0
5717 12933 322 -5679 -5718 0
-5717 12933 5679 0
-5717 -12933 -5679 -5718 0
-5717 -322 -5679 0
-5717 12933 5718 0
5718 -12932 -5716 0
-5718 12932 0
-5718 5716 0
5719 -12934 5679 0
5719 -12934 322 5720 0
5719 12934 322 -5679 -5720 0
-5719 12934 5679 0
-5719 -12934 -5679 -5720 0
-5719 -322 -5679 0
-5719 12934 5720 0
5720 -12933 -5718 0
-5720 12933 0
-5720 5718 0
5721 -12935 5679 0
5721 -12935 322 5722 0
5721 12935 322 -5679 -5722 0
-5721 12935 5679 0
-5721 -12935 -5679 -5722 0
-5721 -322 -5679 0
-5721 12935 5722 0
5722 -12934 -5720 0
-5722 12934 0
-5722 5720 0
5723 -12936 5679 0
5723 -12936 322 5724 0
5723 12936 322 -5679 -5724 0
-5723 12936 5679 0
-5723 -12936 -5679 -5724 0
-5723 -322 -5679 0
-5723 12936 5724 0
5724 -12935 -5722 0
-5724 12935 0
-5724 5722 0
5725 -12937 5679 0
5725 -12937 322 5726 0
5725 12937 322 -5679 -5726 0
-5725 12937 5679 0
-5725 -12937 -5679 -5726 0
-5725 -322 -5679 0
-5725 12937 5726 0
5726 -12936 -5724 0
-5726 12936 0
-5726 5724 0
5727 -12938 5679 0
5727 -12938 322 5728 0
5727 12938 322 -5679 -5728 0
-5727 12938 5679 0
-5727 -12938 -5679 -5728 0
-5727 -322 -5679 0
-5727 12938 5728 0
5728 -12937 -5726 0
-5728 12937 0
-5728 5726 0
5729 -12939 5679 0
5729 -12939 322 5730 0
5729 12939 322 -5679 -5730 0
-5729 12939 5679 0
-5729 -12939 -5679 -5730 0
-5729 -322 -5679 0
-5729 12939 5730 0
5730 -12938 -5728 0
-5730 12938 0
-5730 5728 0
5731 -12940 5679 0
5731 -12940 322 5732 0
5731 12940 322 -5679 -5732 0
-5731 12940 5679 0
-5731 -12940 -5679 -5732 0
-5731 -322 -5679 0
-5731 12940 5732 0
5732 -12939 -5730 0
-5732 12939 0
-5732 5730 0
5733 -12941 5679 0
5733 -12941 322 5734 0
5733 12941 322 -5679 -5734 0
-5733 12941 5679 0
-5733 -12941 -5679 -5734 0
-5733 -322 -5679 0
-5733 12941 5734 0
5734 -12940 -5732 0
-5734 12940 0
-5734 5732 0
5735 -12942 5679 0
5735 -12942 322 5736 0
5735 12942 322 -5679 -5736 0
-5735 12942 5679 0
-5735 -12942 -5679 -5736 0
-5735 -322 -5679 0
-5735 12942 5736 0
5736 -12941 -5734 0
-5736 12941 0
-5736 5734 0
5737 -12943 5679 0
5737 -12943 322 5738 0
5737 12943 322 -5679 -5738 0
-5737 12943 5679 0
-5737 -12943 -5679 -5738 0
-5737 -322 -5679 0
-5737 12943 5738 0
5738 -12942 -5736 0
-5738 12942 0
-5738 5736 0
5739 -12944 5679 0
5739 -12944 322 5740 0
5739 12944 322 -5679 -5740 0
-5739 12944 5679 0
-5739 -12944 -5679 -5740 0
-5739 -322 -5679 0
-5739 12944 5740 0
5740 -12943 -5738 0
-5740 12943 0
-5740 5738 0
-5741 5742 -5787 0
-5741 12945 5787 0
5741 -12945 5787 0
5741 -5742 -5787 0
-5742 11544 -642 0
-5742 642 5743 0
5742 -11544 -642 0
5742 642 -5743 0
-5743 5744 0
-5743 564 596 -5786 0
5743 -564 -5744 0
5743 -5744 5786 0
5743 -596 -5744 0
5744 5745 5758 -5759 0
5744 -12784 5745 -5759 0
-5744 5759 0
-5744 -5745 0
-5744 12784 -5758 0
5745 12848 -5746 0
-5745 -12848 0
-5745 5746 0
5746 -12913 -5747 0
-5746 12913 0
-5746 5747 0
5747 -12914 -5748 0
-5747 12914 0
-5747 5748 0
5748 12915 -12916 5749 0
-5748 -5749 0
-5748 12916 0
-5748 -12915 0
-5749 12917 12918 12919 5750 0
5749 -5750 0
5749 -12919 0
5749 -12917 0
5749 -12918 0
-5750 12920 12921 12922 5751 0
5750 -5751 0
5750 -12922 0
5750 -12920 0
5750 -12921 0
-5751 12923 12924 12925 5752 0
5751 -5752 0
5751 -12925 0
5751 -12923 0
5751 -12924 0
-5752 12926 12927 12928 5753 0
5752 -5753 0
5752 -12928 0
5752 -12926 0
5752 -12927 0
-5753 12929 12930 12931 5754 0
5753 -5754 0
5753 -12931 0
5753 -12929 0
5753 -12930 0
-5754 12932 12933 12934 5755 0
5754 -5755 0
5754 -12934 0
5754 -12932 0
5754 -12933 0
-5755 12935 12936 12937 5756 0
5755 -5756 0
5755 -12937 0
5755 -12935 0
5755 -12936 0
-5756 12938 12939 12940 5757 0
5756 -5757 0
5756 -12940 0
5756 -12938 0
5756 -12939 0
-5757 12941 12942 12943 12944 0
5757 -12944 0
5757 -12943 0
5757 -12941 0
5757 -12942 0
5758 12913 -5747 0
-5758 -12913 0
-5758 5747 0
5759 5760 5763 -5764 0
5759 -12656 5760 -5764 0
-5759 5764 0
-5759 -5760 0
-5759 12656 -5763 0
5760 12720 -5761 0
-5760 -12720 0
-5760 5761 0
5761 -12913 -5762 0
-5761 12913 0
-5761 5762 0
5762 12914 -5748 0
-5762 -12914 0
-5762 5748 0
5763 12913 -5762 0
-5763 -12913 0
-5763 5762 0
5764 5765 5770 -5771 0
5764 -12528 5765 -5771 0
-5764 5771 0
-5764 -5765 0
-5764 12528 -5770 0
5765 12592 -5766 0
-5765 -12592 0
-5765 5766 0
5766 -12913 -5767 0
-5766 12913 0
-5766 5767 0
5767 -12914 -5768 0
-5767 12914 0
-5767 5768 0
5768 -12915 5769 0
-5768 12915 0
-5768 -5769 0
-5769 12916 5749 0
5769 -12916 0
5769 -5749 0
5770 12913 -5767 0
-5770 -12913 0
-5770 5767 0
5771 5772 5775 -5776 0
5771 -12400 5772 -5776 0
-5771 5776 0
-5771 -5772 0
-5771 12400 -5775 0
5772 12464 -5773 0
-5772 -12464 0
-5772 5773 0
5773 -12913 -5774 0
-5773 12913 0
-5773 5774 0
5774 12914 -5768 0
-5774 -12914 0
-5774 5768 0
5775 12913 -5774 0
-5775 -12913 0
-5775 5774 0
5776 5777 5781 -5782 0
5776 -12272 5777 -5782 0
-5776 5782 0
-5776 -5777 0
-5776 12272 -5781 0
5777 12336 -5778 0
-5777 -12336 0
-5777 5778 0
5778 -12913 -5779 0
-5778 12913 0
-5778 5779 0
5779 -12914 5780 0
-5779 12914 0
-5779 -5780 0
-5780 12915 5769 0
5780 -12915 0
5780 -5769 0
5781 12913 -5779 0
-5781 -12913 0
-5781 5779 0
5782 -12144 5783 0
5782 -12208 -5785 0
5782 -12144 -12208 0
5782 5783 -5785 0
-5782 12144 5785 0
-5782 12208 -5783 0
5783 -12913 5784 0
-5783 12913 0
-5783 -5784 0
-5784 12914 5780 0
5784 -12914 0
5784 -5780 0
-5785 12913 5784 0
5785 -12913 0
5785 -5784 0
5786 520 -523 0
5786 -523 -596 0
-5786 523 0
-5786 -520 596 0
-5787 525 564 641 0
5787 -525 0
5787 -641 0
5787 -564 0
-5788 12946 5787 0
-5788 -5787 5789 0
5788 -12946 5787 0
5788 -5787 -5789 0
-5789 11553 -642 0
-5789 642 5790 0
5789 -11553 -642 0
5789 642 -5790 0
-5790 5791 0
-5790 564 596 -5786 0
5790 5786 -5791 0
5790 -596 -5791 0
5790 -564 -5791 0
5791 5758 5792 -5793 0
5791 -12785 5792 -5793 0
-5791 5793 0
-5791 -5792 0
-5791 12785 -5758 0
5792 12849 -5746 0
-5792 -12849 0
-5792 5746 0
5793 5763 5794 -5795 0
5793 -12657 5794 -5795 0
-5793 5795 0
-5793 -5794 0
-5793 12657 -5763 0
5794 12721 -5761 0
-5794 -12721 0
-5794 5761 0
5795 5770 5796 -5797 0
5795 -12529 5796 -5797 0
-5795 5797 0
-5795 -5796 0
-5795 12529 -5770 0
5796 12593 -5766 0
-5796 -12593 0
-5796 5766 0
5797 5775 5798 -5799 0
5797 -12401 5798 -5799 0
-5797 5799 0
-5797 -5798 0
-5797 12401 -5775 0
5798 12465 -5773 0
-5798 -12465 0
-5798 5773 0
5799 5781 5800 -5801 0
5799 -12273 5800 -5801 0
-5799 5801 0
-5799 -5800 0
-5799 12273 -5781 0
5800 12337 -5778 0
-5800 -12337 0
-5800 5778 0
5801 -12145 5783 0
5801 -12209 -5785 0
5801 -12145 -12209 0
5801 5783 -5785 0
-5801 12145 5785 0
-5801 12209 -5783 0
-5802 12947 5787 0
-5802 -5787 5803 0
5802 -12947 5787 0
5802 -5787 -5803 0
-5803 11562 -642 0
-5803 642 5804 0
5803 -11562 -642 0
5803 642 -5804 0
-5804 5805 0
-5804 564 596 -5786 0
5804 5786 -5805 0
5804 -596 -5805 0
5804 -564 -5805 0
5805 5758 5806 -5807 0
5805 -12786 5806 -5807 0
-5805 5807 0
-5805 -5806 0
-5805 12786 -5758 0
5806 12850 -5746 0
-5806 -12850 0
-5806 5746 0
5807 5763 5808 -5809 0
5807 -12658 5808 -5809 0
-5807 5809 0
-5807 -5808 0
-5807 12658 -5763 0
5808 12722 -5761 0
-5808 -12722 0
-5808 5761 0
5809 5770 5810 -5811 0
5809 -12530 5810 -5811 0
-5809 5811 0
-5809 -5810 0
-5809 12530 -5770 0
5810 12594 -5766 0
-5810 -12594 0
-5810 5766 0
5811 5775 5812 -5813 0
5811 -12402 5812 -5813 0
-5811 5813 0
-5811 -5812 0
-5811 12402 -5775 0
5812 12466 -5773 0
-5812 -12466 0
-5812 5773 0
5813 5781 5814 -5815 0
5813 -12274 5814 -5815 0
-5813 5815 0
-5813 -5814 0
-5813 12274 -5781 0
5814 12338 -5778 0
-5814 -12338 0
-5814 5778 0
5815 -12146 5783 0
5815 -12210 -5785 0
5815 -12146 -12210 0
5815 5783 -5785 0
-5815 12146 5785 0
-5815 12210 -5783 0
-5816 12948 5787 0
-5816 -5787 5817 0
5816 -12948 5787 0
5816 -5787 -5817 0
-5817 11571 -642 0
-5817 642 5818 0
5817 -11571 -642 0
5817 642 -5818 0
-5818 5819 0
-5818 564 596 -5786 0
5818 5786 -5819 0
5818 -596 -5819 0
5818 -564 -5819 0
5819 5758 5820 -5821 0
5819 -12787 5820 -5821 0
-5819 5821 0
-5819 -5820 0
-5819 12787 -5758 0
5820 12851 -5746 0
-5820 -12851 0
-5820 5746 0
5821 5763 5822 -5823 0
5821 -12659 5822 -5823 0
-5821 5823 0
-5821 -5822 0
-5821 12659 -5763 0
5822 12723 -5761 0
-5822 -12723 0
-5822 5761 0
5823 5770 5824 -5825 0
5823 -12531 5824 -5825 0
-5823 5825 0
-5823 -5824 0
-5823 12531 -5770 0
5824 12595 -5766 0
-5824 -12595 0
-5824 5766 0
5825 5775 5826 -5827 0
5825 -12403 5826 -5827 0
-5825 5827 0
-5825 -5826 0
-5825 12403 -5775 0
5826 12467 -5773 0
-5826 -12467 0
-5826 5773 0
5827 5781 5828 -5829 0
5827 -12275 5828 -5829 0
-5827 5829 0
-5827 -5828 0
-5827 12275 -5781 0
5828 12339 -5778 0
-5828 -12339 0
-5828 5778 0
5829 -12147 5783 0
5829 -12211 -5785 0
5829 -12147 -12211 0
5829 5783 -5785 0
-5829 12147 5785 0
-5829 12211 -5783 0
-5830 12949 5787 0
-5830 -5787 5831 0
5830 -12949 5787 0
5830 -5787 -5831 0
-5831 11580 -642 0
-5831 642 5832 0
5831 -11580 -642 0
5831 642 -5832 0
-5832 5833 0
-5832 564 596 -5786 0
5832 5786 -5833 0
5832 -596 -5833 0
5832 -564 -5833 0
5833 5758 5834 -5835 0
5833 -12788 5834 -5835 0
-5833 5835 0
-5833 -5834 0
-5833 12788 -5758 0
5834 12852 -5746 0
-5834 -12852 0
-5834 5746 0
5835 5763 5836 -5837 0
5835 -12660 5836 -5837 0
-5835 5837 0
-5835 -5836 0
-5835 12660 -5763 0
5836 12724 -5761 0
-5836 -12724 0
-5836 5761 0
5837 5770 5838 -5839 0
5837 -12532 5838 -5839 0
-5837 5839 0
-5837 -5838 0
-5837 12532 -5770 0
5838 12596 -5766 0
-5838 -12596 0
-5838 5766 0
5839 5775 5840 -5841 0
5839 -12404 5840 -5841 0
-5839 5841 0
-5839 -5840 0
-5839 12404 -5775 0
5840 12468 -5773 0
-5840 -12468 0
-5840 5773 0
5841 5781 5842 -5843 0
5841 -12276 5842 -5843 0
-5841 5843 0
-5841 -5842 0
-5841 12276 -5781 0
5842 12340 -5778 0
-5842 -12340 0
-5842 5778 0
5843 -12148 5783 0
5843 -12212 -5785 0
5843 -12148 -12212 0
5843 5783 -5785 0
-5843 12148 5785 0
-5843 12212 -5783 0
-5844 12950 5787 0
-5844 -5787 5845 0
5844 -12950 5787 0
5844 -5787 -5845 0
-5845 11589 -642 0
-5845 642 5846 0
5845 -11589 -642 0
5845 642 -5846 0
-5846 5847 0
-5846 564 596 -5786 0
5846 5786 -5847 0
5846 -596 -5847 0
5846 -564 -5847 0
5847 5758 5848 -5849 0
5847 -12789 5848 -5849 0
-5847 5849 0
-5847 -5848 0
-5847 12789 -5758 0
5848 12853 -5746 0
-5848 -12853 0
-5848 5746 0
5849 5763 5850 -5851 0
5849 -12661 5850 -5851 0
-5849 5851 0
-5849 -5850 0
-5849 12661 -5763 0
5850 12725 -5761 0
-5850 -12725 0
-5850 5761 0
5851 5770 5852 -5853 0
5851 -12533 5852 -5853 0
-5851 5853 0
-5851 -5852 0
-5851 12533 -5770 0
5852 12597 -5766 0
-5852 -12597 0
-5852 5766 0
5853 5775 5854 -5855 0
5853 -12405 5854 -5855 0
-5853 5855 0
-5853 -5854 0
-5853 12405 -5775 0
5854 12469 -5773 0
-5854 -12469 0
-5854 5773 0
5855 5781 5856 -5857 0
5855 -12277 5856 -5857 0
-5855 5857 0
-5855 -5856 0
-5855 12277 -5781 0
5856 12341 -5778 0
-5856 -12341 0
-5856 5778 0
5857 -12149 5783 0
5857 -12213 -5785 0
5857 -12149 -12213 0
5857 5783 -5785 0
-5857 12149 5785 0
-5857 12213 -5783 0
-5858 12951 5787 0
-5858 -5787 5859 0
5858 -12951 5787 0
5858 -5787 -5859 0
-5859 11598 -642 0
-5859 642 5860 0
5859 -11598 -642 0
5859 642 -5860 0
-5860 5861 0
-5860 564 596 -5786 0
5860 5786 -5861 0
5860 -596 -5861 0
5860 -564 -5861 0
5861 5758 5862 -5863 0
5861 -12790 5862 -5863 0
-5861 5863 0
-5861 -5862 0
-5861 12790 -5758 0
5862 12854 -5746 0
-5862 -12854 0
-5862 5746 0
5863 5763 5864 -5865 0
5863 -12662 5864 -5865 0
-5863 5865 0
-5863 -5864 0
-5863 12662 -5763 0
5864 12726 -5761 0
-5864 -12726 0
-5864 5761 0
5865 5770 5866 -5867 0
5865 -12534 5866 -5867 0
-5865 5867 0
-5865 -5866 0
-5865 12534 -5770 0
5866 12598 -5766 0
-5866 -12598 0
-5866 5766 0
5867 5775 5868 -5869 0
5867 -12406 5868 -5869 0
-5867 5869 0
-5867 -5868 0
-5867 12406 -5775 0
5868 12470 -5773 0
-5868 -12470 0
-5868 5773 0
5869 5781 5870 -5871 0
5869 -12278 5870 -5871 0
-5869 5871 0
-5869 -5870 0
-5869 12278 -5781 0
5870 12342 -5778 0
-5870 -12342 0
-5870 5778 0
5871 -12150 5783 0
5871 -12214 -5785 0
5871 -12150 -12214 0
5871 5783 -5785 0
-5871 12150 5785 0
-5871 12214 -5783 0
-5872 12952 5787 0
-5872 -5787 5873 0
5872 -12952 5787 0
5872 -5787 -5873 0
-5873 11607 -642 0
-5873 642 5874 0
5873 -11607 -642 0
5873 642 -5874 0
-5874 5875 0
-5874 564 596 -5786 0
5874 5786 -5875 0
5874 -596 -5875 0
5874 -564 -5875 0
5875 5758 5876 -5877 0
5875 -12791 5876 -5877 0
-5875 5877 0
-5875 -5876 0
-5875 12791 -5758 0
5876 12855 -5746 0
-5876 -12855 0
-5876 5746 0
5877 5763 5878 -5879 0
5877 -12663 5878 -5879 0
-5877 5879 0
-5877 -5878 0
-5877 12663 -5763 0
5878 12727 -5761 0
-5878 -12727 0
-5878 5761 0
5879 5770 5880 -5881 0
5879 -12535 5880 -5881 0
-5879 5881 0
-5879 -5880 0
-5879 12535 -5770 0
5880 12599 -5766 0
-5880 -12599 0
-5880 5766 0
5881 5775 5882 -5883 0
5881 -12407 5882 -5883 0
-5881 5883 0
-5881 -5882 0
-5881 12407 -5775 0
5882 12471 -5773 0
-5882 -12471 0
-5882 5773 0
5883 5781 5884 -5885 0
5883 -12279 5884 -5885 0
-5883 5885 0
-5883 -5884 0
-5883 12279 -5781 0
5884 12343 -5778 0
-5884 -12343 0
-5884 5778 0
5885 -12151 5783 0
5885 -12215 -5785 0
5885 -12151 -12215 0
5885 5783 -5785 0
-5885 12151 5785 0
-5885 12215 -5783 0
-5886 12953 5787 0
-5886 -5787 5887 0
5886 -12953 5787 0
5886 -5787 -5887 0
-5887 11616 -642 0
-5887 642 5888 0
5887 -11616 -642 0
5887 642 -5888 0
-5888 5889 0
-5888 564 596 -5786 0
5888 5786 -5889 0
5888 -596 -5889 0
5888 -564 -5889 0
5889 5758 5890 -5891 0
5889 -12792 5890 -5891 0
-5889 5891 0
-5889 -5890 0
-5889 12792 -5758 0
5890 12856 -5746 0
-5890 -12856 0
-5890 5746 0
5891 5763 5892 -5893 0
5891 -12664 5892 -5893 0
-5891 5893 0
-5891 -5892 0
-5891 12664 -5763 0
5892 12728 -5761 0
-5892 -12728 0
-5892 5761 0
5893 5770 5894 -5895 0
5893 -12536 5894 -5895 0
-5893 5895 0
-5893 -5894 0
-5893 12536 -5770 0
5894 12600 -5766 0
-5894 -12600 0
-5894 5766 0
5895 5775 5896 -5897 0
5895 -12408 5896 -5897 0
-5895 5897 0
-5895 -5896 0
-5895 12408 -5775 0
5896 12472 -5773 0
-5896 -12472 0
-5896 5773 0
5897 5781 5898 -5899 0
5897 -12280 5898 -5899 0
-5897 5899 0
-5897 -5898 0
-5897 12280 -5781 0
5898 12344 -5778 0
-5898 -12344 0
-5898 5778 0
5899 -12152 5783 0
5899 -12216 -5785 0
5899 -12152 -12216 0
5899 5783 -5785 0
-5899 12152 5785 0
-5899 12216 -5783 0
-5900 12954 5787 0
-5900 -5787 5901 0
5900 -12954 5787 0
5900 -5787 -5901 0
-5901 11625 -642 0
-5901 642 5902 0
5901 -11625 -642 0
5901 642 -5902 0
-5902 5903 0
-5902 564 596 -5786 0
5902 5786 -5903 0
5902 -596 -5903 0
5902 -564 -5903 0
5903 5758 5904 -5905 0
5903 -12793 5904 -5905 0
-5903 5905 0
-5903 -5904 0
-5903 12793 -5758 0
5904 12857 -5746 0
-5904 -12857 0
-5904 5746 0
5905 5763 5906 -5907 0
5905 -12665 5906 -5907 0
-5905 5907 0
-5905 -5906 0
-5905 12665 -5763 0
5906 12729 -5761 0
-5906 -12729 0
-5906 5761 0
5907 5770 5908 -5909 0
5907 -12537 5908 -5909 0
-5907 5909 0
-5907 -5908 0
-5907 12537 -5770 0
5908 12601 -5766 0
-5908 -12601 0
-5908 5766 0
5909 5775 5910 -5911 0
5909 -12409 5910 -5911 0
-5909 5911 0
-5909 -5910 0
-5909 12409 -5775 0
5910 12473 -5773 0
-5910 -12473 0
-5910 5773 0
5911 5781 5912 -5913 0
5911 -12281 5912 -5913 0
-5911 5913 0
-5911 -5912 0
-5911 12281 -5781 0
5912 12345 -5778 0
-5912 -12345 0
-5912 5778 0
5913 -12153 5783 0
5913 -12217 -5785 0
5913 -12153 -12217 0
5913 5783 -5785 0
-5913 12153 5785 0
-5913 12217 -5783 0
-5914 12955 5787 0
-5914 -5787 5915 0
5914 -12955 5787 0
5914 -5787 -5915 0
-5915 11634 -642 0
-5915 642 5916 0
5915 -11634 -642 0
5915 642 -5916 0
-5916 5917 0
-5916 564 596 -5786 0
5916 5786 -5917 0
5916 -596 -5917 0
5916 -564 -5917 0
5917 5758 5918 -5919 0
5917 -12794 5918 -5919 0
-5917 5919 0
-5917 -5918 0
-5917 12794 -5758 0
5918 12858 -5746 0
-5918 -12858 0
-5918 5746 0
5919 5763 5920 -5921 0
5919 -12666 5920 -5921 0
-5919 5921 0
-5919 -5920 0
-5919 12666 -5763 0
5920 12730 -5761 0
-5920 -12730 0
-5920 5761 0
5921 5770 5922 -5923 0
5921 -12538 5922 -5923 0
-5921 5923 0
-5921 -5922 0
-5921 12538 -5770 0
5922 12602 -5766 0
-5922 -12602 0
-5922 5766 0
5923 5775 5924 -5925 0
5923 -12410 5924 -5925 0
-5923 5925 0
-5923 -5924 0
-5923 12410 -5775 0
5924 12474 -5773 0
-5924 -12474 0
-5924 5773 0
5925 5781 5926 -5927 0
5925 -12282 5926 -5927 0
-5925 5927 0
-5925 -5926 0
-5925 12282 -5781 0
5926 12346 -5778 0
-5926 -12346 0
-5926 5778 0
5927 -12154 5783 0
5927 -12218 -5785 0
5927 -12154 -12218 0
5927 5783 -5785 0
-5927 12154 5785 0
-5927 12218 -5783 0
-5928 12956 5787 0
-5928 -5787 5929 0
5928 -12956 5787 0
5928 -5787 -5929 0
-5929 11643 -642 0
-5929 642 5930 0
5929 -11643 -642 0
5929 642 -5930 0
-5930 5931 0
-5930 564 596 -5786 0
5930 5786 -5931 0
5930 -596 -5931 0
5930 -564 -5931 0
5931 5758 5932 -5933 0
5931 -12795 5932 -5933 0
-5931 5933 0
-5931 -5932 0
-5931 12795 -5758 0
5932 12859 -5746 0
-5932 -12859 0
-5932 5746 0
5933 5763 5934 -5935 0
5933 -12667 5934 -5935 0
-5933 5935 0
-5933 -5934 0
-5933 12667 -5763 0
5934 12731 -5761 0
-5934 -12731 0
-5934 5761 0
5935 5770 5936 -5937 0
5935 -12539 5936 -5937 0
-5935 5937 0
-5935 -5936 0
-5935 12539 -5770 0
5936 12603 -5766 0
-5936 -12603 0
-5936 5766 0
5937 5775 5938 -5939 0
5937 -12411 5938 -5939 0
-5937 5939 0
-5937 -5938 0
-5937 12411 -5775 0
5938 12475 -5773 0
-5938 -12475 0
-5938 5773 0
5939 5781 5940 -5941 0
5939 -12283 5940 -5941 0
-5939 5941 0
-5939 -5940 0
-5939 12283 -5781 0
5940 12347 -5778 0
-5940 -12347 0
-5940 5778 0
5941 -12155 5783 0
5941 -12219 -5785 0
5941 -12155 -12219 0
5941 5783 -5785 0
-5941 12155 5785 0
-5941 12219 -5783 0
-5942 12957 5787 0
-5942 -5787 5943 0
5942 -12957 5787 0
5942 -5787 -5943 0
-5943 11652 -642 0
-5943 642 5944 0
5943 -11652 -642 0
5943 642 -5944 0
-5944 5945 0
-5944 564 596 -5786 0
5944 5786 -5945 0
5944 -596 -5945 0
5944 -564 -5945 0
5945 5758 5946 -5947 0
5945 -12796 5946 -5947 0
-5945 5947 0
-5945 -5946 0
-5945 12796 -5758 0
5946 12860 -5746 0
-5946 -12860 0
-5946 5746 0
5947 5763 5948 -5949 0
5947 -12668 5948 -5949 0
-5947 5949 0
-5947 -5948 0
-5947 12668 -5763 0
5948 12732 -5761 0
-5948 -12732 0
-5948 5761 0
5949 5770 5950 -5951 0
5949 -12540 5950 -5951 0
-5949 5951 0
-5949 -5950 0
-5949 12540 -5770 0
5950 12604 -5766 0
-5950 -12604 0
-5950 5766 0
5951 5775 5952 -5953 0
5951 -12412 5952 -5953 0
-5951 5953 0
-5951 -5952 0
-5951 12412 -5775 0
5952 12476 -5773 0
-5952 -12476 0
-5952 5773 0
5953 5781 5954 -5955 0
5953 -12284 5954 -5955 0
-5953 5955 0
-5953 -5954 0
-5953 12284 -5781 0
5954 12348 -5778 0
-5954 -12348 0
-5954 5778 0
5955 -12156 5783 0
5955 -12220 -5785 0
5955 -12156 -12220 0
5955 5783 -5785 0
-5955 12156 5785 0
-5955 12220 -5783 0
-5956 12958 5787 0
-5956 -5787 5957 0
5956 -12958 5787 0
5956 -5787 -5957 0
-5957 11661 -642 0
-5957 642 5958 0
5957 -11661 -642 0
5957 642 -5958 0
-5958 5959 0
-5958 564 596 -5786 0
5958 5786 -5959 0
5958 -596 -5959 0
5958 -564 -5959 0
5959 5758 5960 -5961 0
5959 -12797 5960 -5961 0
-5959 5961 0
-5959 -5960 0
-5959 12797 -5758 0
5960 12861 -5746 0
-5960 -12861 0
-5960 5746 0
5961 5763 5962 -5963 0
5961 -12669 5962 -5963 0
-5961 5963 0
-5961 -5962 0
-5961 12669 -5763 0
5962 12733 -5761 0
-5962 -12733 0
-5962 5761 0
5963 5770 5964 -5965 0
5963 -12541 5964 -5965 0
-5963 5965 0
-5963 -5964 0
-5963 12541 -5770 0
5964 12605 -5766 0
-5964 -12605 0
-5964 5766 0
5965 5775 5966 -5967 0
5965 -12413 5966 -5967 0
-5965 5967 0
-5965 -5966 0
-5965 12413 -5775 0
5966 12477 -5773 0
-5966 -12477 0
-5966 5773 0
5967 5781 5968 -5969 0
5967 -12285 5968 -5969 0
-5967 5969 0
-5967 -5968 0
-5967 12285 -5781 0
5968 12349 -5778 0
-5968 -12349 0
-5968 5778 0
5969 -12157 5783 0
5969 -12221 -5785 0
5969 -12157 -12221 0
5969 5783 -5785 0
-5969 12157 5785 0
-5969 12221 -5783 0
-5970 12959 5787 0
-5970 -5787 5971 0
5970 -12959 5787 0
5970 -5787 -5971 0
-5971 11670 -642 0
-5971 642 5972 0
5971 -11670 -642 0
5971 642 -5972 0
-5972 5973 0
-5972 564 596 -5786 0
5972 5786 -5973 0
5972 -596 -5973 0
5972 -564 -5973 0
5973 5758 5974 -5975 0
5973 -12798 5974 -5975 0
-5973 5975 0
-5973 -5974 0
-5973 12798 -5758 0
5974 12862 -5746 0
-5974 -12862 0
-5974 5746 0
5975 5763 5976 -5977 0
5975 -12670 5976 -5977 0
-5975 5977 0
-5975 -5976 0
-5975 12670 -5763 0
5976 12734 -5761 0
-5976 -12734 0
-5976 5761 0
5977 5770 5978 -5979 0
5977 -12542 5978 -5979 0
-5977 5979 0
-5977 -5978 0
-5977 12542 -5770 0
5978 12606 -5766 0
-5978 -12606 0
-5978 5766 0
5979 5775 5980 -5981 0
5979 -12414 5980 -5981 0
-5979 5981 0
-5979 -5980 0
-5979 12414 -5775 0
5980 12478 -5773 0
-5980 -12478 0
-5980 5773 0
5981 5781 5982 -5983 0
5981 -12286 5982 -5983 0
-5981 5983 0
-5981 -5982 0
-5981 12286 -5781 0
5982 12350 -5778 0
-5982 -12350 0
-5982 5778 0
5983 -12158 5783 0
5983 -12222 -5785 0
5983 -12158 -12222 0
5983 5783 -5785 0
-5983 12158 5785 0
-5983 12222 -5783 0
-5984 12960 5787 0
-5984 -5787 5985 0
5984 -12960 5787 0
5984 -5787 -5985 0
-5985 11679 -642 0
-5985 642 5986 0
5985 -11679 -642 0
5985 642 -5986 0
-5986 5987 0
-5986 564 596 -5786 0
5986 5786 -5987 0
5986 -596 -5987 0
5986 -564 -5987 0
5987 5758 5988 -5989 0
5987 -12799 5988 -5989 0
-5987 5989 0
-5987 -5988 0
-5987 12799 -5758 0
5988 12863 -5746 0
-5988 -12863 0
-5988 5746 0
5989 5763 5990 -5991 0
5989 -12671 5990 -5991 0
-5989 5991 0
-5989 -5990 0
-5989 12671 -5763 0
5990 12735 -5761 0
-5990 -12735 0
-5990 5761 0
5991 5770 5992 -5993 0
5991 -12543 5992 -5993 0
-5991 5993 0
-5991 -5992 0
-5991 12543 -5770 0
5992 12607 -5766 0
-5992 -12607 0
-5992 5766 0
5993 5775 5994 -5995 0
5993 -12415 5994 -5995 0
-5993 5995 0
-5993 -5994 0
-5993 12415 -5775 0
5994 12479 -5773 0
-5994 -12479 0
-5994 5773 0
5995 5781 5996 -5997 0
5995 -12287 5996 -5997 0
-5995 5997 0
-5995 -5996 0
-5995 12287 -5781 0
5996 12351 -5778 0
-5996 -12351 0
-5996 5778 0
5997 -12159 5783 0
5997 -12223 -5785 0
5997 -12159 -12223 0
5997 5783 -5785 0
-5997 12159 5785 0
-5997 12223 -5783 0
-5998 12961 5787 0
-5998 -5787 5999 0
5998 -12961 5787 0
5998 -5787 -5999 0
-5999 11688 -642 0
-5999 642 6000 0
5999 -11688 -642 0
5999 642 -6000 0
-6000 6001 0
-6000 564 596 -5786 0
6000 5786 -6001 0
6000 -596 -6001 0
6000 -564 -6001 0
6001 5758 6002 -6003 0
6001 -12800 6002 -6003 0
-6001 6003 0
-6001 -6002 0
-6001 12800 -5758 0
6002 12864 -5746 0
-6002 -12864 0
-6002 5746 0
6003 5763 6004 -6005 0
6003 -12672 6004 -6005 0
-6003 6005 0
-6003 -6004 0
-6003 12672 -5763 0
6004 12736 -5761 0
-6004 -12736 0
-6004 5761 0
6005 5770 6006 -6007 0
6005 -12544 6006 -6007 0
-6005 6007 0
-6005 -6006 0
-6005 12544 -5770 0
6006 12608 -5766 0
-6006 -12608 0
-6006 5766 0
6007 5775 6008 -6009 0
6007 -12416 6008 -6009 0
-6007 6009 0
-6007 -6008 0
-6007 12416 -5775 0
6008 12480 -5773 0
-6008 -12480 0
-6008 5773 0
6009 5781 6010 -6011 0
6009 -12288 6010 -6011 0
-6009 6011 0
-6009 -6010 0
-6009 12288 -5781 0
6010 12352 -5778 0
-6010 -12352 0
-6010 5778 0
6011 -12160 5783 0
6011 -12224 -5785 0
6011 -12160 -12224 0
6011 5783 -5785 0
-6011 12160 5785 0
-6011 12224 -5783 0
-6012 12962 5787 0
-6012 -5787 6013 0
6012 -12962 5787 0
6012 -5787 -6013 0
-6013 11697 -642 0
-6013 642 6014 0
6013 -11697 -642 0
6013 642 -6014 0
-6014 6015 0
-6014 564 596 -5786 0
6014 5786 -6015 0
6014 -596 -6015 0
6014 -564 -6015 0
6015 5758 6016 -6017 0
6015 -12801 6016 -6017 0
-6015 6017 0
-6015 -6016 0
-6015 12801 -5758 0
6016 12865 -5746 0
-6016 -12865 0
-6016 5746 0
6017 5763 6018 -6019 0
6017 -12673 6018 -6019 0
-6017 6019 0
-6017 -6018 0
-6017 12673 -5763 0
6018 12737 -5761 0
-6018 -12737 0
-6018 5761 0
6019 5770 6020 -6021 0
6019 -12545 6020 -6021 0
-6019 6021 0
-6019 -6020 0
-6019 12545 -5770 0
6020 12609 -5766 0
-6020 -12609 0
-6020 5766 0
6021 5775 6022 -6023 0
6021 -12417 6022 -6023 0
-6021 6023 0
-6021 -6022 0
-6021 12417 -5775 0
6022 12481 -5773 0
-6022 -12481 0
-6022 5773 0
6023 5781 6024 -6025 0
6023 -12289 6024 -6025 0
-6023 6025 0
-6023 -6024 0
-6023 12289 -5781 0
6024 12353 -5778 0
-6024 -12353 0
-6024 5778 0
6025 -12161 5783 0
6025 -12225 -5785 0
6025 -12161 -12225 0
6025 5783 -5785 0
-6025 12161 5785 0
-6025 12225 -5783 0
-6026 12963 5787 0
-6026 -5787 6027 0
6026 -12963 5787 0
6026 -5787 -6027 0
-6027 11706 -642 0
-6027 642 6028 0
6027 -11706 -642 0
6027 642 -6028 0
-6028 6029 0
-6028 564 596 -5786 0
6028 5786 -6029 0
6028 -596 -6029 0
6028 -564 -6029 0
6029 5758 6030 -6031 0
6029 -12802 6030 -6031 0
-6029 6031 0
-6029 -6030 0
-6029 12802 -5758 0
6030 12866 -5746 0
-6030 -12866 0
-6030 5746 0
6031 5763 6032 -6033 0
6031 -12674 6032 -6033 0
-6031 6033 0
-6031 -6032 0
-6031 12674 -5763 0
6032 12738 -5761 0
-6032 -12738 0
-6032 5761 0
6033 5770 6034 -6035 0
6033 -12546 6034 -6035 0
-6033 6035 0
-6033 -6034 0
-6033 12546 -5770 0
6034 12610 -5766 0
-6034 -12610 0
-6034 5766 0
6035 5775 6036 -6037 0
6035 -12418 6036 -6037 0
-6035 6037 0
-6035 -6036 0
-6035 12418 -5775 0
6036 12482 -5773 0
-6036 -12482 0
-6036 5773 0
6037 5781 6038 -6039 0
6037 -12290 6038 -6039 0
-6037 6039 0
-6037 -6038 0
-6037 12290 -5781 0
6038 12354 -5778 0
-6038 -12354 0
-6038 5778 0
6039 -12162 5783 0
6039 -12226 -5785 0
6039 -12162 -12226 0
6039 5783 -5785 0
-6039 12162 5785 0
-6039 12226 -5783 0
-6040 12964 5787 0
-6040 -5787 6041 0
6040 -12964 5787 0
6040 -5787 -6041 0
-6041 11715 -642 0
-6041 642 6042 0
6041 -11715 -642 0
6041 642 -6042 0
-6042 6043 0
-6042 564 596 -5786 0
6042 5786 -6043 0
6042 -596 -6043 0
6042 -564 -6043 0
6043 5758 6044 -6045 0
6043 -12803 6044 -6045 0
-6043 6045 0
-6043 -6044 0
-6043 12803 -5758 0
6044 12867 -5746 0
-6044 -12867 0
-6044 5746 0
6045 5763 6046 -6047 0
6045 -12675 6046 -6047 0
-6045 6047 0
-6045 -6046 0
-6045 12675 -5763 0
6046 12739 -5761 0
-6046 -12739 0
-6046 5761 0
6047 5770 6048 -6049 0
6047 -12547 6048 -6049 0
-6047 6049 0
-6047 -6048 0
-6047 12547 -5770 0
6048 12611 -5766 0
-6048 -12611 0
-6048 5766 0
6049 5775 6050 -6051 0
6049 -12419 6050 -6051 0
-6049 6051 0
-6049 -6050 0
-6049 12419 -5775 0
6050 12483 -5773 0
-6050 -12483 0
-6050 5773 0
6051 5781 6052 -6053 0
6051 -12291 6052 -6053 0
-6051 6053 0
-6051 -6052 0
-6051 12291 -5781 0
6052 12355 -5778 0
-6052 -12355 0
-6052 5778 0
6053 -12163 5783 0
6053 -12227 -5785 0
6053 -12163 -12227 0
6053 5783 -5785 0
-6053 12163 5785 0
-6053 12227 -5783 0
-6054 12965 5787 0
-6054 -5787 6055 0
6054 -12965 5787 0
6054 -5787 -6055 0
-6055 11724 -642 0
-6055 642 6056 0
6055 -11724 -642 0
6055 642 -6056 0
-6056 6057 0
-6056 564 596 -5786 0
6056 5786 -6057 0
6056 -596 -6057 0
6056 -564 -6057 0
6057 5758 6058 -6059 0
6057 -12804 6058 -6059 0
-6057 6059 0
-6057 -6058 0
-6057 12804 -5758 0
6058 12868 -5746 0
-6058 -12868 0
-6058 5746 0
6059 5763 6060 -6061 0
6059 -12676 6060 -6061 0
-6059 6061 0
-6059 -6060 0
-6059 12676 -5763 0
6060 12740 -5761 0
-6060 -12740 0
-6060 5761 0
6061 5770 6062 -6063 0
6061 -12548 6062 -6063 0
-6061 6063 0
-6061 -6062 0
-6061 12548 -5770 0
6062 12612 -5766 0
-6062 -12612 0
-6062 5766 0
6063 5775 6064 -6065 0
6063 -12420 6064 -6065 0
-6063 6065 0
-6063 -6064 0
-6063 12420 -5775 0
6064 12484 -5773 0
-6064 -12484 0
-6064 5773 0
6065 5781 6066 -6067 0
6065 -12292 6066 -6067 0
-6065 6067 0
-6065 -6066 0
-6065 12292 -5781 0
6066 12356 -5778 0
-6066 -12356 0
-6066 5778 0
6067 -12164 5783 0
6067 -12228 -5785 0
6067 -12164 -12228 0
6067 5783 -5785 0
-6067 12164 5785 0
-6067 12228 -5783 0
-6068 12966 5787 0
-6068 -5787 6069 0
6068 -12966 5787 0
6068 -5787 -6069 0
-6069 11733 -642 0
-6069 642 6070 0
6069 -11733 -642 0
6069 642 -6070 0
-6070 6071 0
-6070 564 596 -5786 0
6070 5786 -6071 0
6070 -596 -6071 0
6070 -564 -6071 0
6071 5758 6072 -6073 0
6071 -12805 6072 -6073 0
-6071 6073 0
-6071 -6072 0
-6071 12805 -5758 0
6072 12869 -5746 0
-6072 -12869 0
-6072 5746 0
6073 5763 6074 -6075 0
6073 -12677 6074 -6075 0
-6073 6075 0
-6073 -6074 0
-6073 12677 -5763 0
6074 12741 -5761 0
-6074 -12741 0
-6074 5761 0
6075 5770 6076 -6077 0
6075 -12549 6076 -6077 0
-6075 6077 0
-6075 -6076 0
-6075 12549 -5770 0
6076 12613 -5766 0
-6076 -12613 0
-6076 5766 0
6077 5775 6078 -6079 0
6077 -12421 6078 -6079 0
-6077 6079 0
-6077 -6078 0
-6077 12421 -5775 0
6078 12485 -5773 0
-6078 -12485 0
-6078 5773 0
6079 5781 6080 -6081 0
6079 -12293 6080 -6081 0
-6079 6081 0
-6079 -6080 0
-6079 12293 -5781 0
6080 12357 -5778 0
-6080 -12357 0
-6080 5778 0
6081 -12165 5783 0
6081 -12229 -5785 0
6081 -12165 -12229 0
6081 5783 -5785 0
-6081 12165 5785 0
-6081 12229 -5783 0
-6082 12967 5787 0
-6082 -5787 6083 0
6082 -12967 5787 0
6082 -5787 -6083 0
-6083 11742 -642 0
-6083 642 6084 0
6083 -11742 -642 0
6083 642 -6084 0
-6084 6085 0
-6084 564 596 -5786 0
6084 5786 -6085 0
6084 -596 -6085 0
6084 -564 -6085 0
6085 5758 6086 -6087 0
6085 -12806 6086 -6087 0
-6085 6087 0
-6085 -6086 0
-6085 12806 -5758 0
6086 12870 -5746 0
-6086 -12870 0
-6086 5746 0
6087 5763 6088 -6089 0
6087 -12678 6088 -6089 0
-6087 6089 0
-6087 -6088 0
-6087 12678 -5763 0
6088 12742 -5761 0
-6088 -12742 0
-6088 5761 0
6089 5770 6090 -6091 0
6089 -12550 6090 -6091 0
-6089 6091 0
-6089 -6090 0
-6089 12550 -5770 0
6090 12614 -5766 0
-6090 -12614 0
-6090 5766 0
6091 5775 6092 -6093 0
6091 -12422 6092 -6093 0
-6091 6093 0
-6091 -6092 0
-6091 12422 -5775 0
6092 12486 -5773 0
-6092 -12486 0
-6092 5773 0
6093 5781 6094 -6095 0
6093 -12294 6094 -6095 0
-6093 6095 0
-6093 -6094 0
-6093 12294 -5781 0
6094 12358 -5778 0
-6094 -12358 0
-6094 5778 0
6095 -12166 5783 0
6095 -12230 -5785 0
6095 -12166 -12230 0
6095 5783 -5785 0
-6095 12166 5785 0
-6095 12230 -5783 0
-6096 12968 5787 0
-6096 -5787 6097 0
6096 -12968 5787 0
6096 -5787 -6097 0
-6097 11751 -642 0
-6097 642 6098 0
6097 -11751 -642 0
6097 642 -6098 0
-6098 6099 0
-6098 564 596 -5786 0
6098 5786 -6099 0
6098 -596 -6099 0
6098 -564 -6099 0
6099 5758 6100 -6101 0
6099 -12807 6100 -6101 0
-6099 6101 0
-6099 -6100 0
-6099 12807 -5758 0
6100 12871 -5746 0
-6100 -12871 0
-6100 5746 0
6101 5763 6102 -6103 0
6101 -12679 6102 -6103 0
-6101 6103 0
-6101 -6102 0
-6101 12679 -5763 0
6102 12743 -5761 0
-6102 -12743 0
-6102 5761 0
6103 5770 6104 -6105 0
6103 -12551 6104 -6105 0
-6103 6105 0
-6103 -6104 0
-6103 12551 -5770 0
6104 12615 -5766 0
-6104 -12615 0
-6104 5766 0
6105 5775 6106 -6107 0
6105 -12423 6106 -6107 0
-6105 6107 0
-6105 -6106 0
-6105 12423 -5775 0
6106 12487 -5773 0
-6106 -12487 0
-6106 5773 0
6107 5781 6108 -6109 0
6107 -12295 6108 -6109 0
-6107 6109 0
-6107 -6108 0
-6107 12295 -5781 0
6108 12359 -5778 0
-6108 -12359 0
-6108 5778 0
6109 -12167 5783 0
6109 -12231 -5785 0
6109 -12167 -12231 0
6109 5783 -5785 0
-6109 12167 5785 0
-6109 12231 -5783 0
-6110 12969 5787 0
-6110 -5787 6111 0
6110 -12969 5787 0
6110 -5787 -6111 0
-6111 11760 -642 0
-6111 642 6112 0
6111 -11760 -642 0
6111 642 -6112 0
-6112 6113 0
-6112 564 596 -5786 0
6112 5786 -6113 0
6112 -596 -6113 0
6112 -564 -6113 0
6113 5758 6114 -6115 0
6113 -12808 6114 -6115 0
-6113 6115 0
-6113 -6114 0
-6113 12808 -5758 0
6114 12872 -5746 0
-6114 -12872 0
-6114 5746 0
6115 5763 6116 -6117 0
6115 -12680 6116 -6117 0
-6115 6117 0
-6115 -6116 0
-6115 12680 -5763 0
6116 12744 -5761 0
-6116 -12744 0
-6116 5761 0
6117 5770 6118 -6119 0
6117 -12552 6118 -6119 0
-6117 6119 0
-6117 -6118 0
-6117 12552 -5770 0
6118 12616 -5766 0
-6118 -12616 0
-6118 5766 0
6119 5775 6120 -6121 0
6119 -12424 6120 -6121 0
-6119 6121 0
-6119 -6120 0
-6119 12424 -5775 0
6120 12488 -5773 0
-6120 -12488 0
-6120 5773 0
6121 5781 6122 -6123 0
6121 -12296 6122 -6123 0
-6121 6123 0
-6121 -6122 0
-6121 12296 -5781 0
6122 12360 -5778 0
-6122 -12360 0
-6122 5778 0
6123 -12168 5783 0
6123 -12232 -5785 0
6123 -12168 -12232 0
6123 5783 -5785 0
-6123 12168 5785 0
-6123 12232 -5783 0
-6124 12970 5787 0
-6124 -5787 6125 0
6124 -12970 5787 0
6124 -5787 -6125 0
-6125 11769 -642 0
-6125 642 6126 0
6125 -11769 -642 0
6125 642 -6126 0
-6126 6127 0
-6126 564 596 -5786 0
6126 5786 -6127 0
6126 -596 -6127 0
6126 -564 -6127 0
6127 5758 6128 -6129 0
6127 -12809 6128 -6129 0
-6127 6129 0
-6127 -6128 0
-6127 12809 -5758 0
6128 12873 -5746 0
-6128 -12873 0
-6128 5746 0
6129 5763 6130 -6131 0
6129 -12681 6130 -6131 0
-6129 6131 0
-6129 -6130 0
-6129 12681 -5763 0
6130 12745 -5761 0
-6130 -12745 0
-6130 5761 0
6131 5770 6132 -6133 0
6131 -12553 6132 -6133 0
-6131 6133 0
-6131 -6132 0
-6131 12553 -5770 0
6132 12617 -5766 0
-6132 -12617 0
-6132 5766 0
6133 5775 6134 -6135 0
6133 -12425 6134 -6135 0
-6133 6135 0
-6133 -6134 0
-6133 12425 -5775 0
6134 12489 -5773 0
-6134 -12489 0
-6134 5773 0
6135 5781 6136 -6137 0
6135 -12297 6136 -6137 0
-6135 6137 0
-6135 -6136 0
-6135 12297 -5781 0
6136 12361 -5778 0
-6136 -12361 0
-6136 5778 0
6137 -12169 5783 0
6137 -12233 -5785 0
6137 -12169 -12233 0
6137 5783 -5785 0
-6137 12169 5785 0
-6137 12233 -5783 0
-6138 12971 5787 0
-6138 -5787 6139 0
6138 -12971 5787 0
6138 -5787 -6139 0
-6139 11778 -642 0
-6139 642 6140 0
6139 -11778 -642 0
6139 642 -6140 0
-6140 6141 0
-6140 564 596 -5786 0
6140 5786 -6141 0
6140 -596 -6141 0
6140 -564 -6141 0
6141 5758 6142 -6143 0
6141 -12810 6142 -6143 0
-6141 6143 0
-6141 -6142 0
-6141 12810 -5758 0
6142 12874 -5746 0
-6142 -12874 0
-6142 5746 0
6143 5763 6144 -6145 0
6143 -12682 6144 -6145 0
-6143 6145 0
-6143 -6144 0
-6143 12682 -5763 0
6144 12746 -5761 0
-6144 -12746 0
-6144 5761 0
6145 5770 6146 -6147 0
6145 -12554 6146 -6147 0
-6145 6147 0
-6145 -6146 0
-6145 12554 -5770 0
6146 12618 -5766 0
-6146 -12618 0
-6146 5766 0
6147 5775 6148 -6149 0
6147 -12426 6148 -6149 0
-6147 6149 0
-6147 -6148 0
-6147 12426 -5775 0
6148 12490 -5773 0
-6148 -12490 0
-6148 5773 0
6149 5781 6150 -6151 0
6149 -12298 6150 -6151 0
-6149 6151 0
-6149 -6150 0
-6149 12298 -5781 0
6150 12362 -5778 0
-6150 -12362 0
-6150 5778 0
6151 -12170 5783 0
6151 -12234 -5785 0
6151 -12170 -12234 0
6151 5783 -5785 0
-6151 12170 5785 0
-6151 12234 -5783 0
-6152 12972 5787 0
-6152 -5787 6153 0
6152 -12972 5787 0
6152 -5787 -6153 0
-6153 11787 -642 0
-6153 642 6154 0
6153 -11787 -642 0
6153 642 -6154 0
-6154 6155 0
-6154 564 596 -5786 0
6154 5786 -6155 0
6154 -596 -6155 0
6154 -564 -6155 0
6155 5758 6156 -6157 0
6155 -12811 6156 -6157 0
-6155 6157 0
-6155 -6156 0
-6155 12811 -5758 0
6156 12875 -5746 0
-6156 -12875 0
-6156 5746 0
6157 5763 6158 -6159 0
6157 -12683 6158 -6159 0
-6157 6159 0
-6157 -6158 0
-6157 12683 -5763 0
6158 12747 -5761 0
-6158 -12747 0
-6158 5761 0
6159 5770 6160 -6161 0
6159 -12555 6160 -6161 0
-6159 6161 0
-6159 -6160 0
-6159 12555 -5770 0
6160 12619 -5766 0
-6160 -12619 0
-6160 5766 0
6161 5775 6162 -6163 0
6161 -12427 6162 -6163 0
-6161 6163 0
-6161 -6162 0
-6161 12427 -5775 0
6162 12491 -5773 0
-6162 -12491 0
-6162 5773 0
6163 5781 6164 -6165 0
6163 -12299 6164 -6165 0
-6163 6165 0
-6163 -6164 0
-6163 12299 -5781 0
6164 12363 -5778 0
-6164 -12363 0
-6164 5778 0
6165 -12171 5783 0
6165 -12235 -5785 0
6165 -12171 -12235 0
6165 5783 -5785 0
-6165 12171 5785 0
-6165 12235 -5783 0
-6166 12973 5787 0
-6166 -5787 6167 0
6166 -12973 5787 0
6166 -5787 -6167 0
-6167 11796 -642 0
-6167 642 6168 0
6167 -11796 -642 0
6167 642 -6168 0
-6168 6169 0
-6168 564 596 -5786 0
6168 5786 -6169 0
6168 -596 -6169 0
6168 -564 -6169 0
6169 5758 6170 -6171 0
6169 -12812 6170 -6171 0
-6169 6171 0
-6169 -6170 0
-6169 12812 -5758 0
6170 12876 -5746 0
-6170 -12876 0
-6170 5746 0
6171 5763 6172 -6173 0
6171 -12684 6172 -6173 0
-6171 6173 0
-6171 -6172 0
-6171 12684 -5763 0
6172 12748 -5761 0
-6172 -12748 0
-6172 5761 0
6173 5770 6174 -6175 0
6173 -12556 6174 -6175 0
-6173 6175 0
-6173 -6174 0
-6173 12556 -5770 0
6174 12620 -5766 0
-6174 -12620 0
-6174 5766 0
6175 5775 6176 -6177 0
6175 -12428 6176 -6177 0
-6175 6177 0
-6175 -6176 0
-6175 12428 -5775 0
6176 12492 -5773 0
-6176 -12492 0
-6176 5773 0
6177 5781 6178 -6179 0
6177 -12300 6178 -6179 0
-6177 6179 0
-6177 -6178 0
-6177 12300 -5781 0
6178 12364 -5778 0
-6178 -12364 0
-6178 5778 0
6179 -12172 5783 0
6179 -12236 -5785 0
6179 -12172 -12236 0
6179 5783 -5785 0
-6179 12172 5785 0
-6179 12236 -5783 0
-6180 12974 5787 0
-6180 -5787 6181 0
6180 -12974 5787 0
6180 -5787 -6181 0
-6181 11805 -642 0
-6181 642 6182 0
6181 -11805 -642 0
6181 642 -6182 0
-6182 6183 0
-6182 564 596 -5786 0
6182 5786 -6183 0
6182 -596 -6183 0
6182 -564 -6183 0
6183 5758 6184 -6185 0
6183 -12813 6184 -6185 0
-6183 6185 0
-6183 -6184 0
-6183 12813 -5758 0
6184 12877 -5746 0
-6184 -12877 0
-6184 5746 0
6185 5763 6186 -6187 0
6185 -12685 6186 -6187 0
-6185 6187 0
-6185 -6186 0
-6185 12685 -5763 0
6186 12749 -5761 0
-6186 -12749 0
-6186 5761 0
6187 5770 6188 -6189 0
6187 -12557 6188 -6189 0
-6187 6189 0
-6187 -6188 0
-6187 12557 -5770 0
6188 12621 -5766 0
-6188 -12621 0
-6188 5766 0
6189 5775 6190 -6191 0
6189 -12429 6190 -6191 0
-6189 6191 0
-6189 -6190 0
-6189 12429 -5775 0
6190 12493 -5773 0
-6190 -12493 0
-6190 5773 0
6191 5781 6192 -6193 0
6191 -12301 6192 -6193 0
-6191 6193 0
-6191 -6192 0
-6191 12301 -5781 0
6192 12365 -5778 0
-6192 -12365 0
-6192 5778 0
6193 -12173 5783 0
6193 -12237 -5785 0
6193 -12173 -12237 0
6193 5783 -5785 0
-6193 12173 5785 0
-6193 12237 -5783 0
-6194 12975 5787 0
-6194 -5787 6195 0
6194 -12975 5787 0
6194 -5787 -6195 0
-6195 11814 -642 0
-6195 642 6196 0
6195 -11814 -642 0
6195 642 -6196 0
-6196 6197 0
-6196 564 596 -5786 0
6196 5786 -6197 0
6196 -596 -6197 0
6196 -564 -6197 0
6197 5758 6198 -6199 0
6197 -12814 6198 -6199 0
-6197 6199 0
-6197 -6198 0
-6197 12814 -5758 0
6198 12878 -5746 0
-6198 -12878 0
-6198 5746 0
6199 5763 6200 -6201 0
6199 -12686 6200 -6201 0
-6199 6201 0
-6199 -6200 0
-6199 12686 -5763 0
6200 12750 -5761 0
-6200 -12750 0
-6200 5761 0
6201 5770 6202 -6203 0
6201 -12558 6202 -6203 0
-6201 6203 0
-6201 -6202 0
-6201 12558 -5770 0
6202 12622 -5766 0
-6202 -12622 0
-6202 5766 0
6203 5775 6204 -6205 0
6203 -12430 6204 -6205 0
-6203 6205 0
-6203 -6204 0
-6203 12430 -5775 0
6204 12494 -5773 0
-6204 -12494 0
-6204 5773 0
6205 5781 6206 -6207 0
6205 -12302 6206 -6207 0
-6205 6207 0
-6205 -6206 0
-6205 12302 -5781 0
6206 12366 -5778 0
-6206 -12366 0
-6206 5778 0
6207 -12174 5783 0
6207 -12238 -5785 0
6207 -12174 -12238 0
6207 5783 -5785 0
-6207 12174 5785 0
-6207 12238 -5783 0
-6208 12976 5787 0
-6208 -5787 6209 0
6208 -12976 5787 0
6208 -5787 -6209 0
-6209 11823 -642 0
-6209 642 6210 0
6209 -11823 -642 0
6209 642 -6210 0
-6210 6211 0
-6210 564 596 -5786 0
6210 5786 -6211 0
6210 -596 -6211 0
6210 -564 -6211 0
6211 5758 6212 -6213 0
6211 -12815 6212 -6213 0
-6211 6213 0
-6211 -6212 0
-6211 12815 -5758 0
6212 12879 -5746 0
-6212 -12879 0
-6212 5746 0
6213 5763 6214 -6215 0
6213 -12687 6214 -6215 0
-6213 6215 0
-6213 -6214 0
-6213 12687 -5763 0
6214 12751 -5761 0
-6214 -12751 0
-6214 5761 0
6215 5770 6216 -6217 0
6215 -12559 6216 -6217 0
-6215 6217 0
-6215 -6216 0
-6215 12559 -5770 0
6216 12623 -5766 0
-6216 -12623 0
-6216 5766 0
6217 5775 6218 -6219 0
6217 -12431 6218 -6219 0
-6217 6219 0
-6217 -6218 0
-6217 12431 -5775 0
6218 12495 -5773 0
-6218 -12495 0
-6218 5773 0
6219 5781 6220 -6221 0
6219 -12303 6220 -6221 0
-6219 6221 0
-6219 -6220 0
-6219 12303 -5781 0
6220 12367 -5778 0
-6220 -12367 0
-6220 5778 0
6221 -12175 5783 0
6221 -12239 -5785 0
6221 -12175 -12239 0
6221 5783 -5785 0
-6221 12175 5785 0
-6221 12239 -5783 0
-6222 12977 5787 0
-6222 -5787 6223 0
6222 -12977 5787 0
6222 -5787 -6223 0
-6223 11832 -642 0
-6223 642 6224 0
6223 -11832 -642 0
6223 642 -6224 0
-6224 6225 0
-6224 564 596 -5786 0
6224 5786 -6225 0
6224 -596 -6225 0
6224 -564 -6225 0
6225 5758 6226 -6227 0
6225 -12816 6226 -6227 0
-6225 6227 0
-6225 -6226 0
-6225 12816 -5758 0
6226 12880 -5746 0
-6226 -12880 0
-6226 5746 0
6227 5763 6228 -6229 0
6227 -12688 6228 -6229 0
-6227 6229 0
-6227 -6228 0
-6227 12688 -5763 0
6228 12752 -5761 0
-6228 -12752 0
-6228 5761 0
6229 5770 6230 -6231 0
6229 -12560 6230 -6231 0
-6229 6231 0
-6229 -6230 0
-6229 12560 -5770 0
6230 12624 -5766 0
-6230 -12624 0
-6230 5766 0
6231 5775 6232 -6233 0
6231 -12432 6232 -6233 0
-6231 6233 0
-6231 -6232 0
-6231 12432 -5775 0
6232 12496 -5773 0
-6232 -12496 0
-6232 5773 0
6233 5781 6234 -6235 0
6233 -12304 6234 -6235 0
-6233 6235 0
-6233 -6234 0
-6233 12304 -5781 0
6234 12368 -5778 0
-6234 -12368 0
-6234 5778 0
6235 -12176 5783 0
6235 -12240 -5785 0
6235 -12176 -12240 0
6235 5783 -5785 0
-6235 12176 5785 0
-6235 12240 -5783 0
-6236 12978 5787 0
-6236 -5787 6237 0
6236 -12978 5787 0
6236 -5787 -6237 0
-6237 11841 -642 0
-6237 642 6238 0
6237 -11841 -642 0
6237 642 -6238 0
-6238 6239 0
-6238 564 596 -5786 0
6238 5786 -6239 0
6238 -596 -6239 0
6238 -564 -6239 0
6239 5758 6240 -6241 0
6239 -12817 6240 -6241 0
-6239 6241 0
-6239 -6240 0
-6239 12817 -5758 0
6240 12881 -5746 0
-6240 -12881 0
-6240 5746 0
6241 5763 6242 -6243 0
6241 -12689 6242 -6243 0
-6241 6243 0
-6241 -6242 0
-6241 12689 -5763 0
6242 12753 -5761 0
-6242 -12753 0
-6242 5761 0
6243 5770 6244 -6245 0
6243 -12561 6244 -6245 0
-6243 6245 0
-6243 -6244 0
-6243 12561 -5770 0
6244 12625 -5766 0
-6244 -12625 0
-6244 5766 0
6245 5775 6246 -6247 0
6245 -12433 6246 -6247 0
-6245 6247 0
-6245 -6246 0
-6245 12433 -5775 0
6246 12497 -5773 0
-6246 -12497 0
-6246 5773 0
6247 5781 6248 -6249 0
6247 -12305 6248 -6249 0
-6247 6249 0
-6247 -6248 0
-6247 12305 -5781 0
6248 12369 -5778 0
-6248 -12369 0
-6248 5778 0
6249 -12177 5783 0
6249 -12241 -5785 0
6249 -12177 -12241 0
6249 5783 -5785 0
-6249 12177 5785 0
-6249 12241 -5783 0
-6250 12979 5787 0
-6250 -5787 6251 0
6250 -12979 5787 0
6250 -5787 -6251 0
-6251 11850 -642 0
-6251 642 6252 0
6251 -11850 -642 0
6251 642 -6252 0
-6252 6253 0
-6252 564 596 -5786 0
6252 5786 -6253 0
6252 -596 -6253 0
6252 -564 -6253 0
6253 5758 6254 -6255 0
6253 -12818 6254 -6255 0
-6253 6255 0
-6253 -6254 0
-6253 12818 -5758 0
6254 12882 -5746 0
-6254 -12882 0
-6254 5746 0
6255 5763 6256 -6257 0
6255 -12690 6256 -6257 0
-6255 6257 0
-6255 -6256 0
-6255 12690 -5763 0
6256 12754 -5761 0
-6256 -12754 0
-6256 5761 0
6257 5770 6258 -6259 0
6257 -12562 6258 -6259 0
-6257 6259 0
-6257 -6258 0
-6257 12562 -5770 0
6258 12626 -5766 0
-6258 -12626 0
-6258 5766 0
6259 5775 6260 -6261 0
6259 -12434 6260 -6261 0
-6259 6261 0
-6259 -6260 0
-6259 12434 -5775 0
6260 12498 -5773 0
-6260 -12498 0
-6260 5773 0
6261 5781 6262 -6263 0
6261 -12306 6262 -6263 0
-6261 6263 0
-6261 -6262 0
-6261 12306 -5781 0
6262 12370 -5778 0
-6262 -12370 0
-6262 5778 0
6263 -12178 5783 0
6263 -12242 -5785 0
6263 -12178 -12242 0
6263 5783 -5785 0
-6263 12178 5785 0
-6263 12242 -5783 0
-6264 12980 5787 0
-6264 -5787 6265 0
6264 -12980 5787 0
6264 -5787 -6265 0
-6265 11859 -642 0
-6265 642 6266 0
6265 -11859 -642 0
6265 642 -6266 0
-6266 6267 0
-6266 564 596 -5786 0
6266 5786 -6267 0
6266 -596 -6267 0
6266 -564 -6267 0
6267 5758 6268 -6269 0
6267 -12819 6268 -6269 0
-6267 6269 0
-6267 -6268 0
-6267 12819 -5758 0
6268 12883 -5746 0
-6268 -12883 0
-6268 5746 0
6269 5763 6270 -6271 0
6269 -12691 6270 -6271 0
-6269 6271 0
-6269 -6270 0
-6269 12691 -5763 0
6270 12755 -5761 0
-6270 -12755 0
-6270 5761 0
6271 5770 6272 -6273 0
6271 -12563 6272 -6273 0
-6271 6273 0
-6271 -6272 0
-6271 12563 -5770 0
6272 12627 -5766 0
-6272 -12627 0
-6272 5766 0
6273 5775 6274 -6275 0
6273 -12435 6274 -6275 0
-6273 6275 0
-6273 -6274 0
-6273 12435 -5775 0
6274 12499 -5773 0
-6274 -12499 0
-6274 5773 0
6275 5781 6276 -6277 0
6275 -12307 6276 -6277 0
-6275 6277 0
-6275 -6276 0
-6275 12307 -5781 0
6276 12371 -5778 0
-6276 -12371 0
-6276 5778 0
6277 -12179 5783 0
6277 -12243 -5785 0
6277 -12179 -12243 0
6277 5783 -5785 0
-6277 12179 5785 0
-6277 12243 -5783 0
-6278 12981 5787 0
-6278 -5787 6279 0
6278 -12981 5787 0
6278 -5787 -6279 0
-6279 11868 -642 0
-6279 642 6280 0
6279 -11868 -642 0
6279 642 -6280 0
-6280 6281 0
-6280 564 596 -5786 0
6280 5786 -6281 0
6280 -596 -6281 0
6280 -564 -6281 0
6281 5758 6282 -6283 0
6281 -12820 6282 -6283 0
-6281 6283 0
-6281 -6282 0
-6281 12820 -5758 0
6282 12884 -5746 0
-6282 -12884 0
-6282 5746 0
6283 5763 6284 -6285 0
6283 -12692 6284 -6285 0
-6283 6285 0
-6283 -6284 0
-6283 12692 -5763 0
6284 12756 -5761 0
-6284 -12756 0
-6284 5761 0
6285 5770 6286 -6287 0
6285 -12564 6286 -6287 0
-6285 6287 0
-6285 -6286 0
-6285 12564 -5770 0
6286 12628 -5766 0
-6286 -12628 0
-6286 5766 0
6287 5775 6288 -6289 0
6287 -12436 6288 -6289 0
-6287 6289 0
-6287 -6288 0
-6287 12436 -5775 0
6288 12500 -5773 0
-6288 -12500 0
-6288 5773 0
6289 5781 6290 -6291 0
6289 -12308 6290 -6291 0
-6289 6291 0
-6289 -6290 0
-6289 12308 -5781 0
6290 12372 -5778 0
-6290 -12372 0
-6290 5778 0
6291 -12180 5783 0
6291 -12244 -5785 0
6291 -12180 -12244 0
6291 5783 -5785 0
-6291 12180 5785 0
-6291 12244 -5783 0
-6292 12982 5787 0
-6292 -5787 6293 0
6292 -12982 5787 0
6292 -5787 -6293 0
-6293 11877 -642 0
-6293 642 6294 0
6293 -11877 -642 0
6293 642 -6294 0
-6294 6295 0
-6294 564 596 -5786 0
6294 5786 -6295 0
6294 -596 -6295 0
6294 -564 -6295 0
6295 5758 6296 -6297 0
6295 -12821 6296 -6297 0
-6295 6297 0
-6295 -6296 0
-6295 12821 -5758 0
6296 12885 -5746 0
-6296 -12885 0
-6296 5746 0
6297 5763 6298 -6299 0
6297 -12693 6298 -6299 0
-6297 6299 0
-6297 -6298 0
-6297 12693 -5763 0
6298 12757 -5761 0
-6298 -12757 0
-6298 5761 0
6299 5770 6300 -6301 0
6299 -12565 6300 -6301 0
-6299 6301 0
-6299 -6300 0
-6299 12565 -5770 0
6300 12629 -5766 0
-6300 -12629 0
-6300 5766 0
6301 5775 6302 -6303 0
6301 -12437 6302 -6303 0
-6301 6303 0
-6301 -6302 0
-6301 12437 -5775 0
6302 12501 -5773 0
-6302 -12501 0
-6302 5773 0
6303 5781 6304 -6305 0
6303 -12309 6304 -6305 0
-6303 6305 0
-6303 -6304 0
-6303 12309 -5781 0
6304 12373 -5778 0
-6304 -12373 0
-6304 5778 0
6305 -12181 5783 0
6305 -12245 -5785 0
6305 -12181 -12245 0
6305 5783 -5785 0
-6305 12181 5785 0
-6305 12245 -5783 0
-6306 12983 5787 0
-6306 -5787 6307 0
6306 -12983 5787 0
6306 -5787 -6307 0
-6307 11886 -642 0
-6307 642 6308 0
6307 -11886 -642 0
6307 642 -6308 0
-6308 6309 0
-6308 564 596 -5786 0
6308 5786 -6309 0
6308 -596 -6309 0
6308 -564 -6309 0
6309 5758 6310 -6311 0
6309 -12822 6310 -6311 0
-6309 6311 0
-6309 -6310 0
-6309 12822 -5758 0
6310 12886 -5746 0
-6310 -12886 0
-6310 5746 0
6311 5763 6312 -6313 0
6311 -12694 6312 -6313 0
-6311 6313 0
-6311 -6312 0
-6311 12694 -5763 0
6312 12758 -5761 0
-6312 -12758 0
-6312 5761 0
6313 5770 6314 -6315 0
6313 -12566 6314 -6315 0
-6313 6315 0
-6313 -6314 0
-6313 12566 -5770 0
6314 12630 -5766 0
-6314 -12630 0
-6314 5766 0
6315 5775 6316 -6317 0
6315 -12438 6316 -6317 0
-6315 6317 0
-6315 -6316 0
-6315 12438 -5775 0
6316 12502 -5773 0
-6316 -12502 0
-6316 5773 0
6317 5781 6318 -6319 0
6317 -12310 6318 -6319 0
-6317 6319 0
-6317 -6318 0
-6317 12310 -5781 0
6318 12374 -5778 0
-6318 -12374 0
-6318 5778 0
6319 -12182 5783 0
6319 -12246 -5785 0
6319 -12182 -12246 0
6319 5783 -5785 0
-6319 12182 5785 0
-6319 12246 -5783 0
-6320 12984 5787 0
-6320 -5787 6321 0
6320 -12984 5787 0
6320 -5787 -6321 0
-6321 11895 -642 0
-6321 642 6322 0
6321 -11895 -642 0
6321 642 -6322 0
-6322 6323 0
-6322 564 596 -5786 0
6322 5786 -6323 0
6322 -596 -6323 0
6322 -564 -6323 0
6323 5758 6324 -6325 0
6323 -12823 6324 -6325 0
-6323 6325 0
-6323 -6324 0
-6323 12823 -5758 0
6324 12887 -5746 0
-6324 -12887 0
-6324 5746 0
6325 5763 6326 -6327 0
6325 -12695 6326 -6327 0
-6325 6327 0
-6325 -6326 0
-6325 12695 -5763 0
6326 12759 -5761 0
-6326 -12759 0
-6326 5761 0
6327 5770 6328 -6329 0
6327 -12567 6328 -6329 0
-6327 6329 0
-6327 -6328 0
-6327 12567 -5770 0
6328 12631 -5766 0
-6328 -12631 0
-6328 5766 0
6329 5775 6330 -6331 0
6329 -12439 6330 -6331 0
-6329 6331 0
-6329 -6330 0
-6329 12439 -5775 0
6330 12503 -5773 0
-6330 -12503 0
-6330 5773 0
6331 5781 6332 -6333 0
6331 -12311 6332 -6333 0
-6331 6333 0
-6331 -6332 0
-6331 12311 -5781 0
6332 12375 -5778 0
-6332 -12375 0
-6332 5778 0
6333 -12183 5783 0
6333 -12247 -5785 0
6333 -12183 -12247 0
6333 5783 -5785 0
-6333 12183 5785 0
-6333 12247 -5783 0
-6334 12985 5787 0
-6334 -5787 6335 0
6334 -12985 5787 0
6334 -5787 -6335 0
-6335 11904 -642 0
-6335 642 6336 0
6335 -11904 -642 0
6335 642 -6336 0
-6336 6337 0
-6336 564 596 -5786 0
6336 5786 -6337 0
6336 -596 -6337 0
6336 -564 -6337 0
6337 5758 6338 -6339 0
6337 -12824 6338 -6339 0
-6337 6339 0
-6337 -6338 0
-6337 12824 -5758 0
6338 12888 -5746 0
-6338 -12888 0
-6338 5746 0
6339 5763 6340 -6341 0
6339 -12696 6340 -6341 0
-6339 6341 0
-6339 -6340 0
-6339 12696 -5763 0
6340 12760 -5761 0
-6340 -12760 0
-6340 5761 0
6341 5770 6342 -6343 0
6341 -12568 6342 -6343 0
-6341 6343 0
-6341 -6342 0
-6341 12568 -5770 0
6342 12632 -5766 0
-6342 -12632 0
-6342 5766 0
6343 5775 6344 -6345 0
6343 -12440 6344 -6345 0
-6343 6345 0
-6343 -6344 0
-6343 12440 -5775 0
6344 12504 -5773 0
-6344 -12504 0
-6344 5773 0
6345 5781 6346 -6347 0
6345 -12312 6346 -6347 0
-6345 6347 0
-6345 -6346 0
-6345 12312 -5781 0
6346 12376 -5778 0
-6346 -12376 0
-6346 5778 0
6347 -12184 5783 0
6347 -12248 -5785 0
6347 -12184 -12248 0
6347 5783 -5785 0
-6347 12184 5785 0
-6347 12248 -5783 0
-6348 12986 5787 0
-6348 -5787 6349 0
6348 -12986 5787 0
6348 -5787 -6349 0
-6349 11913 -642 0
-6349 642 6350 0
6349 -11913 -642 0
6349 642 -6350 0
-6350 6351 0
-6350 564 596 -5786 0
6350 5786 -6351 0
6350 -596 -6351 0
6350 -564 -6351 0
6351 5758 6352 -6353 0
6351 -12825 6352 -6353 0
-6351 6353 0
-6351 -6352 0
-6351 12825 -5758 0
6352 12889 -5746 0
-6352 -12889 0
-6352 5746 0
6353 5763 6354 -6355 0
6353 -12697 6354 -6355 0
-6353 6355 0
-6353 -6354 0
-6353 12697 -5763 0
6354 12761 -5761 0
-6354 -12761 0
-6354 5761 0
6355 5770 6356 -6357 0
6355 -12569 6356 -6357 0
-6355 6357 0
-6355 -6356 0
-6355 12569 -5770 0
6356 12633 -5766 0
-6356 -12633 0
-6356 5766 0
6357 5775 6358 -6359 0
6357 -12441 6358 -6359 0
-6357 6359 0
-6357 -6358 0
-6357 12441 -5775 0
6358 12505 -5773 0
-6358 -12505 0
-6358 5773 0
6359 5781 6360 -6361 0
6359 -12313 6360 -6361 0
-6359 6361 0
-6359 -6360 0
-6359 12313 -5781 0
6360 12377 -5778 0
-6360 -12377 0
-6360 5778 0
6361 -12185 5783 0
6361 -12249 -5785 0
6361 -12185 -12249 0
6361 5783 -5785 0
-6361 12185 5785 0
-6361 12249 -5783 0
-6362 12987 5787 0
-6362 -5787 6363 0
6362 -12987 5787 0
6362 -5787 -6363 0
-6363 11922 -642 0
-6363 642 6364 0
6363 -11922 -642 0
6363 642 -6364 0
-6364 6365 0
-6364 564 596 -5786 0
6364 5786 -6365 0
6364 -596 -6365 0
6364 -564 -6365 0
6365 5758 6366 -6367 0
6365 -12826 6366 -6367 0
-6365 6367 0
-6365 -6366 0
-6365 12826 -5758 0
6366 12890 -5746 0
-6366 -12890 0
-6366 5746 0
6367 5763 6368 -6369 0
6367 -12698 6368 -6369 0
-6367 6369 0
-6367 -6368 0
-6367 12698 -5763 0
6368 12762 -5761 0
-6368 -12762 0
-6368 5761 0
6369 5770 6370 -6371 0
6369 -12570 6370 -6371 0
-6369 6371 0
-6369 -6370 0
-6369 12570 -5770 0
6370 12634 -5766 0
-6370 -12634 0
-6370 5766 0
6371 5775 6372 -6373 0
6371 -12442 6372 -6373 0
-6371 6373 0
-6371 -6372 0
-6371 12442 -5775 0
6372 12506 -5773 0
-6372 -12506 0
-6372 5773 0
6373 5781 6374 -6375 0
6373 -12314 6374 -6375 0
-6373 6375 0
-6373 -6374 0
-6373 12314 -5781 0
6374 12378 -5778 0
-6374 -12378 0
-6374 5778 0
6375 -12186 5783 0
6375 -12250 -5785 0
6375 -12186 -12250 0
6375 5783 -5785 0
-6375 12186 5785 0
-6375 12250 -5783 0
-6376 12988 5787 0
-6376 -5787 6377 0
6376 -12988 5787 0
6376 -5787 -6377 0
-6377 11931 -642 0
-6377 642 6378 0
6377 -11931 -642 0
6377 642 -6378 0
-6378 6379 0
-6378 564 596 -5786 0
6378 5786 -6379 0
6378 -596 -6379 0
6378 -564 -6379 0
6379 5758 6380 -6381 0
6379 -12827 6380 -6381 0
-6379 6381 0
-6379 -6380 0
-6379 12827 -5758 0
6380 12891 -5746 0
-6380 -12891 0
-6380 5746 0
6381 5763 6382 -6383 0
6381 -12699 6382 -6383 0
-6381 6383 0
-6381 -6382 0
-6381 12699 -5763 0
6382 12763 -5761 0
-6382 -12763 0
-6382 5761 0
6383 5770 6384 -6385 0
6383 -12571 6384 -6385 0
-6383 6385 0
-6383 -6384 0
-6383 12571 -5770 0
6384 12635 -5766 0
-6384 -12635 0
-6384 5766 0
6385 5775 6386 -6387 0
6385 -12443 6386 -6387 0
-6385 6387 0
-6385 -6386 0
-6385 12443 -5775 0
6386 12507 -5773 0
-6386 -12507 0
-6386 5773 0
6387 5781 6388 -6389 0
6387 -12315 6388 -6389 0
-6387 6389 0
-6387 -6388 0
-6387 12315 -5781 0
6388 12379 -5778 0
-6388 -12379 0
-6388 5778 0
6389 -12187 5783 0
6389 -12251 -5785 0
6389 -12187 -12251 0
6389 5783 -5785 0
-6389 12187 5785 0
-6389 12251 -5783 0
-6390 12989 5787 0
-6390 -5787 6391 0
6390 -12989 5787 0
6390 -5787 -6391 0
-6391 11940 -642 0
-6391 642 6392 0
6391 -11940 -642 0
6391 642 -6392 0
-6392 6393 0
-6392 564 596 -5786 0
6392 5786 -6393 0
6392 -596 -6393 0
6392 -564 -6393 0
6393 5758 6394 -6395 0
6393 -12828 6394 -6395 0
-6393 6395 0
-6393 -6394 0
-6393 12828 -5758 0
6394 12892 -5746 0
-6394 -12892 0
-6394 5746 0
6395 5763 6396 -6397 0
6395 -12700 6396 -6397 0
-6395 6397 0
-6395 -6396 0
-6395 12700 -5763 0
6396 12764 -5761 0
-6396 -12764 0
-6396 5761 0
6397 5770 6398 -6399 0
6397 -12572 6398 -6399 0
-6397 6399 0
-6397 -6398 0
-6397 12572 -5770 0
6398 12636 -5766 0
-6398 -12636 0
-6398 5766 0
6399 5775 6400 -6401 0
6399 -12444 6400 -6401 0
-6399 6401 0
-6399 -6400 0
-6399 12444 -5775 0
6400 12508 -5773 0
-6400 -12508 0
-6400 5773 0
6401 5781 6402 -6403 0
6401 -12316 6402 -6403 0
-6401 6403 0
-6401 -6402 0
-6401 12316 -5781 0
6402 12380 -5778 0
-6402 -12380 0
-6402 5778 0
6403 -12188 5783 0
6403 -12252 -5785 0
6403 -12188 -12252 0
6403 5783 -5785 0
-6403 12188 5785 0
-6403 12252 -5783 0
-6404 12990 5787 0
-6404 -5787 6405 0
6404 -12990 5787 0
6404 -5787 -6405 0
-6405 11949 -642 0
-6405 642 6406 0
6405 -11949 -642 0
6405 642 -6406 0
-6406 6407 0
-6406 564 596 -5786 0
6406 5786 -6407 0
6406 -596 -6407 0
6406 -564 -6407 0
6407 5758 6408 -6409 0
6407 -12829 6408 -6409 0
-6407 6409 0
-6407 -6408 0
-6407 12829 -5758 0
6408 12893 -5746 0
-6408 -12893 0
-6408 5746 0
6409 5763 6410 -6411 0
6409 -12701 6410 -6411 0
-6409 6411 0
-6409 -6410 0
-6409 12701 -5763 0
6410 12765 -5761 0
-6410 -12765 0
-6410 5761 0
6411 5770 6412 -6413 0
6411 -12573 6412 -6413 0
-6411 6413 0
-6411 -6412 0
-6411 12573 -5770 0
6412 12637 -5766 0
-6412 -12637 0
-6412 5766 0
6413 5775 6414 -6415 0
6413 -12445 6414 -6415 0
-6413 6415 0
-6413 -6414 0
-6413 12445 -5775 0
6414 12509 -5773 0
-6414 -12509 0
-6414 5773 0
6415 5781 6416 -6417 0
6415 -12317 6416 -6417 0
-6415 6417 0
-6415 -6416 0
-6415 12317 -5781 0
6416 12381 -5778 0
-6416 -12381 0
-6416 5778 0
6417 -12189 5783 0
6417 -12253 -5785 0
6417 -12189 -12253 0
6417 5783 -5785 0
-6417 12189 5785 0
-6417 12253 -5783 0
-6418 12991 5787 0
-6418 -5787 6419 0
6418 -12991 5787 0
6418 -5787 -6419 0
-6419 11958 -642 0
-6419 642 6420 0
6419 -11958 -642 0
6419 642 -6420 0
-6420 6421 0
-6420 564 596 -5786 0
6420 5786 -6421 0
6420 -596 -6421 0
6420 -564 -6421 0
6421 5758 6422 -6423 0
6421 -12830 6422 -6423 0
-6421 6423 0
-6421 -6422 0
-6421 12830 -5758 0
6422 12894 -5746 0
-6422 -12894 0
-6422 5746 0
6423 5763 6424 -6425 0
6423 -12702 6424 -6425 0
-6423 6425 0
-6423 -6424 0
-6423 12702 -5763 0
6424 12766 -5761 0
-6424 -12766 0
-6424 5761 0
6425 5770 6426 -6427 0
6425 -12574 6426 -6427 0
-6425 6427 0
-6425 -6426 0
-6425 12574 -5770 0
6426 12638 -5766 0
-6426 -12638 0
-6426 5766 0
6427 5775 6428 -6429 0
6427 -12446 6428 -6429 0
-6427 6429 0
-6427 -6428 0
-6427 12446 -5775 0
6428 12510 -5773 0
-6428 -12510 0
-6428 5773 0
6429 5781 6430 -6431 0
6429 -12318 6430 -6431 0
-6429 6431 0
-6429 -6430 0
-6429 12318 -5781 0
6430 12382 -5778 0
-6430 -12382 0
-6430 5778 0
6431 -12190 5783 0
6431 -12254 -5785 0
6431 -12190 -12254 0
6431 5783 -5785 0
-6431 12190 5785 0
-6431 12254 -5783 0
-6432 12992 5787 0
-6432 -5787 6433 0
6432 -12992 5787 0
6432 -5787 -6433 0
-6433 11967 -642 0
-6433 642 6434 0
6433 -11967 -642 0
6433 642 -6434 0
-6434 6435 0
-6434 564 596 -5786 0
6434 5786 -6435 0
6434 -596 -6435 0
6434 -564 -6435 0
6435 5758 6436 -6437 0
6435 -12831 6436 -6437 0
-6435 6437 0
-6435 -6436 0
-6435 12831 -5758 0
6436 12895 -5746 0
-6436 -12895 0
-6436 5746 0
6437 5763 6438 -6439 0
6437 -12703 6438 -6439 0
-6437 6439 0
-6437 -6438 0
-6437 12703 -5763 0
6438 12767 -5761 0
-6438 -12767 0
-6438 5761 0
6439 5770 6440 -6441 0
6439 -12575 6440 -6441 0
-6439 6441 0
-6439 -6440 0
-6439 12575 -5770 0
6440 12639 -5766 0
-6440 -12639 0
-6440 5766 0
6441 5775 6442 -6443 0
6441 -12447 6442 -6443 0
-6441 6443 0
-6441 -6442 0
-6441 12447 -5775 0
6442 12511 -5773 0
-6442 -12511 0
-6442 5773 0
6443 5781 6444 -6445 0
6443 -12319 6444 -6445 0
-6443 6445 0
-6443 -6444 0
-6443 12319 -5781 0
6444 12383 -5778 0
-6444 -12383 0
-6444 5778 0
6445 -12191 5783 0
6445 -12255 -5785 0
6445 -12191 -12255 0
6445 5783 -5785 0
-6445 12191 5785 0
-6445 12255 -5783 0
-6446 12993 5787 0
-6446 -5787 6447 0
6446 -12993 5787 0
6446 -5787 -6447 0
-6447 11976 -642 0
-6447 642 6448 0
6447 -11976 -642 0
6447 642 -6448 0
-6448 6449 0
-6448 564 596 -5786 0
6448 5786 -6449 0
6448 -596 -6449 0
6448 -564 -6449 0
6449 5758 6450 -6451 0
6449 -12832 6450 -6451 0
-6449 6451 0
-6449 -6450 0
-6449 12832 -5758 0
6450 12896 -5746 0
-6450 -12896 0
-6450 5746 0
6451 5763 6452 -6453 0
6451 -12704 6452 -6453 0
-6451 6453 0
-6451 -6452 0
-6451 12704 -5763 0
6452 12768 -5761 0
-6452 -12768 0
-6452 5761 0
6453 5770 6454 -6455 0
6453 -12576 6454 -6455 0
-6453 6455 0
-6453 -6454 0
-6453 12576 -5770 0
6454 12640 -5766 0
-6454 -12640 0
-6454 5766 0
6455 5775 6456 -6457 0
6455 -12448 6456 -6457 0
-6455 6457 0
-6455 -6456 0
-6455 12448 -5775 0
6456 12512 -5773 0
-6456 -12512 0
-6456 5773 0
6457 5781 6458 -6459 0
6457 -12320 6458 -6459 0
-6457 6459 0
-6457 -6458 0
-6457 12320 -5781 0
6458 12384 -5778 0
-6458 -12384 0
-6458 5778 0
6459 -12192 5783 0
6459 -12256 -5785 0
6459 -12192 -12256 0
6459 5783 -5785 0
-6459 12192 5785 0
-6459 12256 -5783 0
-6460 12994 5787 0
-6460 -5787 6461 0
6460 -12994 5787 0
6460 -5787 -6461 0
-6461 11985 -642 0
-6461 642 6462 0
6461 -11985 -642 0
6461 642 -6462 0
-6462 6463 0
-6462 564 596 -5786 0
6462 5786 -6463 0
6462 -596 -6463 0
6462 -564 -6463 0
6463 5758 6464 -6465 0
6463 -12833 6464 -6465 0
-6463 6465 0
-6463 -6464 0
-6463 12833 -5758 0
6464 12897 -5746 0
-6464 -12897 0
-6464 5746 0
6465 5763 6466 -6467 0
6465 -12705 6466 -6467 0
-6465 6467 0
-6465 -6466 0
-6465 12705 -5763 0
6466 12769 -5761 0
-6466 -12769 0
-6466 5761 0
6467 5770 6468 -6469 0
6467 -12577 6468 -6469 0
-6467 6469 0
-6467 -6468 0
-6467 12577 -5770 0
6468 12641 -5766 0
-6468 -12641 0
-6468 5766 0
6469 5775 6470 -6471 0
6469 -12449 6470 -6471 0
-6469 6471 0
-6469 -6470 0
-6469 12449 -5775 0
6470 12513 -5773 0
-6470 -12513 0
-6470 5773 0
6471 5781 6472 -6473 0
6471 -12321 6472 -6473 0
-6471 6473 0
-6471 -6472 0
-6471 12321 -5781 0
6472 12385 -5778 0
-6472 -12385 0
-6472 5778 0
6473 -12193 5783 0
6473 -12257 -5785 0
6473 -12193 -12257 0
6473 5783 -5785 0
-6473 12193 5785 0
-6473 12257 -5783 0
-6474 12995 5787 0
-6474 -5787 6475 0
6474 -12995 5787 0
6474 -5787 -6475 0
-6475 11994 -642 0
-6475 642 6476 0
6475 -11994 -642 0
6475 642 -6476 0
-6476 6477 0
-6476 564 596 -5786 0
6476 5786 -6477 0
6476 -596 -6477 0
6476 -564 -6477 0
6477 5758 6478 -6479 0
6477 -12834 6478 -6479 0
-6477 6479 0
-6477 -6478 0
-6477 12834 -5758 0
6478 12898 -5746 0
-6478 -12898 0
-6478 5746 0
6479 5763 6480 -6481 0
6479 -12706 6480 -6481 0
-6479 6481 0
-6479 -6480 0
-6479 12706 -5763 0
6480 12770 -5761 0
-6480 -12770 0
-6480 5761 0
6481 5770 6482 -6483 0
6481 -12578 6482 -6483 0
-6481 6483 0
-6481 -6482 0
-6481 12578 -5770 0
6482 12642 -5766 0
-6482 -12642 0
-6482 5766 0
6483 5775 6484 -6485 0
6483 -12450 6484 -6485 0
-6483 6485 0
-6483 -6484 0
-6483 12450 -5775 0
6484 12514 -5773 0
-6484 -12514 0
-6484 5773 0
6485 5781 6486 -6487 0
6485 -12322 6486 -6487 0
-6485 6487 0
-6485 -6486 0
-6485 12322 -5781 0
6486 12386 -5778 0
-6486 -12386 0
-6486 5778 0
6487 -12194 5783 0
6487 -12258 -5785 0
6487 -12194 -12258 0
6487 5783 -5785 0
-6487 12194 5785 0
-6487 12258 -5783 0
-6488 12996 5787 0
-6488 -5787 6489 0
6488 -12996 5787 0
6488 -5787 -6489 0
-6489 12003 -642 0
-6489 642 6490 0
6489 -12003 -642 0
6489 642 -6490 0
-6490 6491 0
-6490 564 596 -5786 0
6490 5786 -6491 0
6490 -596 -6491 0
6490 -564 -6491 0
6491 5758 6492 -6493 0
6491 -12835 6492 -6493 0
-6491 6493 0
-6491 -6492 0
-6491 12835 -5758 0
6492 12899 -5746 0
-6492 -12899 0
-6492 5746 0
6493 5763 6494 -6495 0
6493 -12707 6494 -6495 0
-6493 6495 0
-6493 -6494 0
-6493 12707 -5763 0
6494 12771 -5761 0
-6494 -12771 0
-6494 5761 0
6495 5770 6496 -6497 0
6495 -12579 6496 -6497 0
-6495 6497 0
-6495 -6496 0
-6495 12579 -5770 0
6496 12643 -5766 0
-6496 -12643 0
-6496 5766 0
6497 5775 6498 -6499 0
6497 -12451 6498 -6499 0
-6497 6499 0
-6497 -6498 0
-6497 12451 -5775 0
6498 12515 -5773 0
-6498 -12515 0
-6498 5773 0
6499 5781 6500 -6501 0
6499 -12323 6500 -6501 0
-6499 6501 0
-6499 -6500 0
-6499 12323 -5781 0
6500 12387 -5778 0
-6500 -12387 0
-6500 5778 0
6501 -12195 5783 0
6501 -12259 -5785 0
6501 -12195 -12259 0
6501 5783 -5785 0
-6501 12195 5785 0
-6501 12259 -5783 0
-6502 12997 5787 0
-6502 -5787 6503 0
6502 -12997 5787 0
6502 -5787 -6503 0
-6503 12012 -642 0
-6503 642 6504 0
6503 -12012 -642 0
6503 642 -6504 0
-6504 6505 0
-6504 564 596 -5786 0
6504 5786 -6505 0
6504 -596 -6505 0
6504 -564 -6505 0
6505 5758 6506 -6507 0
6505 -12836 6506 -6507 0
-6505 6507 0
-6505 -6506 0
-6505 12836 -5758 0
6506 12900 -5746 0
-6506 -12900 0
-6506 5746 0
6507 5763 6508 -6509 0
6507 -12708 6508 -6509 0
-6507 6509 0
-6507 -6508 0
-6507 12708 -5763 0
6508 12772 -5761 0
-6508 -12772 0
-6508 5761 0
6509 5770 6510 -6511 0
6509 -12580 6510 -6511 0
-6509 6511 0
-6509 -6510 0
-6509 12580 -5770 0
6510 12644 -5766 0
-6510 -12644 0
-6510 5766 0
6511 5775 6512 -6513 0
6511 -12452 6512 -6513 0
-6511 6513 0
-6511 -6512 0
-6511 12452 -5775 0
6512 12516 -5773 0
-6512 -12516 0
-6512 5773 0
6513 5781 6514 -6515 0
6513 -12324 6514 -6515 0
-6513 6515 0
-6513 -6514 0
-6513 12324 -5781 0
6514 12388 -5778 0
-6514 -12388 0
-6514 5778 0
6515 -12196 5783 0
6515 -12260 -5785 0
6515 -12196 -12260 0
6515 5783 -5785 0
-6515 12196 5785 0
-6515 12260 -5783 0
-6516 12998 5787 0
-6516 -5787 6517 0
6516 -12998 5787 0
6516 -5787 -6517 0
-6517 12021 -642 0
-6517 642 6518 0
6517 -12021 -642 0
6517 642 -6518 0
-6518 6519 0
-6518 564 596 -5786 0
6518 5786 -6519 0
6518 -596 -6519 0
6518 -564 -6519 0
6519 5758 6520 -6521 0
6519 -12837 6520 -6521 0
-6519 6521 0
-6519 -6520 0
-6519 12837 -5758 0
6520 12901 -5746 0
-6520 -12901 0
-6520 5746 0
6521 5763 6522 -6523 0
6521 -12709 6522 -6523 0
-6521 6523 0
-6521 -6522 0
-6521 12709 -5763 0
6522 12773 -5761 0
-6522 -12773 0
-6522 5761 0
6523 5770 6524 -6525 0
6523 -12581 6524 -6525 0
-6523 6525 0
-6523 -6524 0
-6523 12581 -5770 0
6524 12645 -5766 0
-6524 -12645 0
-6524 5766 0
6525 5775 6526 -6527 0
6525 -12453 6526 -6527 0
-6525 6527 0
-6525 -6526 0
-6525 12453 -5775 0
6526 12517 -5773 0
-6526 -12517 0
-6526 5773 0
6527 5781 6528 -6529 0
6527 -12325 6528 -6529 0
-6527 6529 0
-6527 -6528 0
-6527 12325 -5781 0
6528 12389 -5778 0
-6528 -12389 0
-6528 5778 0
6529 -12197 5783 0
6529 -12261 -5785 0
6529 -12197 -12261 0
6529 5783 -5785 0
-6529 12197 5785 0
-6529 12261 -5783 0
-6530 12999 5787 0
-6530 -5787 6531 0
6530 -12999 5787 0
6530 -5787 -6531 0
-6531 12030 -642 0
-6531 642 6532 0
6531 -12030 -642 0
6531 642 -6532 0
-6532 6533 0
-6532 564 596 -5786 0
6532 5786 -6533 0
6532 -596 -6533 0
6532 -564 -6533 0
6533 5758 6534 -6535 0
6533 -12838 6534 -6535 0
-6533 6535 0
-6533 -6534 0
-6533 12838 -5758 0
6534 12902 -5746 0
-6534 -12902 0
-6534 5746 0
6535 5763 6536 -6537 0
6535 -12710 6536 -6537 0
-6535 6537 0
-6535 -6536 0
-6535 12710 -5763 0
6536 12774 -5761 0
-6536 -12774 0
-6536 5761 0
6537 5770 6538 -6539 0
6537 -12582 6538 -6539 0
-6537 6539 0
-6537 -6538 0
-6537 12582 -5770 0
6538 12646 -5766 0
-6538 -12646 0
-6538 5766 0
6539 5775 6540 -6541 0
6539 -12454 6540 -6541 0
-6539 6541 0
-6539 -6540 0
-6539 12454 -5775 0
6540 12518 -5773 0
-6540 -12518 0
-6540 5773 0
6541 5781 6542 -6543 0
6541 -12326 6542 -6543 0
-6541 6543 0
-6541 -6542 0
-6541 12326 -5781 0
6542 12390 -5778 0
-6542 -12390 0
-6542 5778 0
6543 -12198 5783 0
6543 -12262 -5785 0
6543 -12198 -12262 0
6543 5783 -5785 0
-6543 12198 5785 0
-6543 12262 -5783 0
-6544 13000 5787 0
-6544 -5787 6545 0
6544 -13000 5787 0
6544 -5787 -6545 0
-6545 12039 -642 0
-6545 642 6546 0
6545 -12039 -642 0
6545 642 -6546 0
-6546 6547 0
-6546 564 596 -5786 0
6546 5786 -6547 0
6546 -596 -6547 0
6546 -564 -6547 0
6547 5758 6548 -6549 0
6547 -12839 6548 -6549 0
-6547 6549 0
-6547 -6548 0
-6547 12839 -5758 0
6548 12903 -5746 0
-6548 -12903 0
-6548 5746 0
6549 5763 6550 -6551 0
6549 -12711 6550 -6551 0
-6549 6551 0
-6549 -6550 0
-6549 12711 -5763 0
6550 12775 -5761 0
-6550 -12775 0
-6550 5761 0
6551 5770 6552 -6553 0
6551 -12583 6552 -6553 0
-6551 6553 0
-6551 -6552 0
-6551 12583 -5770 0
6552 12647 -5766 0
-6552 -12647 0
-6552 5766 0
6553 5775 6554 -6555 0
6553 -12455 6554 -6555 0
-6553 6555 0
-6553 -6554 0
-6553 12455 -5775 0
6554 12519 -5773 0
-6554 -12519 0
-6554 5773 0
6555 5781 6556 -6557 0
6555 -12327 6556 -6557 0
-6555 6557 0
-6555 -6556 0
-6555 12327 -5781 0
6556 12391 -5778 0
-6556 -12391 0
-6556 5778 0
6557 -12199 5783 0
6557 -12263 -5785 0
6557 -12199 -12263 0
6557 5783 -5785 0
-6557 12199 5785 0
-6557 12263 -5783 0
-6558 13001 5787 0
-6558 -5787 6559 0
6558 -13001 5787 0
6558 -5787 -6559 0
-6559 12048 -642 0
-6559 642 6560 0
6559 -12048 -642 0
6559 642 -6560 0
-6560 6561 0
-6560 564 596 -5786 0
6560 5786 -6561 0
6560 -596 -6561 0
6560 -564 -6561 0
6561 5758 6562 -6563 0
6561 -12840 6562 -6563 0
-6561 6563 0
-6561 -6562 0
-6561 12840 -5758 0
6562 12904 -5746 0
-6562 -12904 0
-6562 5746 0
6563 5763 6564 -6565 0
6563 -12712 6564 -6565 0
-6563 6565 0
-6563 -6564 0
-6563 12712 -5763 0
6564 12776 -5761 0
-6564 -12776 0
-6564 5761 0
6565 5770 6566 -6567 0
6565 -12584 6566 -6567 0
-6565 6567 0
-6565 -6566 0
-6565 12584 -5770 0
6566 12648 -5766 0
-6566 -12648 0
-6566 5766 0
6567 5775 6568 -6569 0
6567 -12456 6568 -6569 0
-6567 6569 0
-6567 -6568 0
-6567 12456 -5775 0
6568 12520 -5773 0
-6568 -12520 0
-6568 5773 0
6569 5781 6570 -6571 0
6569 -12328 6570 -6571 0
-6569 6571 0
-6569 -6570 0
-6569 12328 -5781 0
6570 12392 -5778 0
-6570 -12392 0
-6570 5778 0
6571 -12200 5783 0
6571 -12264 -5785 0
6571 -12200 -12264 0
6571 5783 -5785 0
-6571 12200 5785 0
-6571 12264 -5783 0
-6572 13002 5787 0
-6572 -5787 6573 0
6572 -13002 5787 0
6572 -5787 -6573 0
-6573 12057 -642 0
-6573 642 6574 0
6573 -12057 -642 0
6573 642 -6574 0
-6574 6575 0
-6574 564 596 -5786 0
6574 5786 -6575 0
6574 -596 -6575 0
6574 -564 -6575 0
6575 5758 6576 -6577 0
6575 -12841 6576 -6577 0
-6575 6577 0
-6575 -6576 0
-6575 12841 -5758 0
6576 12905 -5746 0
-6576 -12905 0
-6576 5746 0
6577 5763 6578 -6579 0
6577 -12713 6578 -6579 0
-6577 6579 0
-6577 -6578 0
-6577 12713 -5763 0
6578 12777 -5761 0
-6578 -12777 0
-6578 5761 0
6579 5770 6580 -6581 0
6579 -12585 6580 -6581 0
-6579 6581 0
-6579 -6580 0
-6579 12585 -5770 0
6580 12649 -5766 0
-6580 -12649 0
-6580 5766 0
6581 5775 6582 -6583 0
6581 -12457 6582 -6583 0
-6581 6583 0
-6581 -6582 0
-6581 12457 -5775 0
6582 12521 -5773 0
-6582 -12521 0
-6582 5773 0
6583 5781 6584 -6585 0
6583 -12329 6584 -6585 0
-6583 6585 0
-6583 -6584 0
-6583 12329 -5781 0
6584 12393 -5778 0
-6584 -12393 0
-6584 5778 0
6585 -12201 5783 0
6585 -12265 -5785 0
6585 -12201 -12265 0
6585 5783 -5785 0
-6585 12201 5785 0
-6585 12265 -5783 0
-6586 13003 5787 0
-6586 -5787 6587 0
6586 -13003 5787 0
6586 -5787 -6587 0
-6587 12066 -642 0
-6587 642 6588 0
6587 -12066 -642 0
6587 642 -6588 0
-6588 6589 0
-6588 564 596 -5786 0
6588 5786 -6589 0
6588 -596 -6589 0
6588 -564 -6589 0
6589 5758 6590 -6591 0
6589 -12842 6590 -6591 0
-6589 6591 0
-6589 -6590 0
-6589 12842 -5758 0
6590 12906 -5746 0
-6590 -12906 0
-6590 5746 0
6591 5763 6592 -6593 0
6591 -12714 6592 -6593 0
-6591 6593 0
-6591 -6592 0
-6591 12714 -5763 0
6592 12778 -5761 0
-6592 -12778 0
-6592 5761 0
6593 5770 6594 -6595 0
6593 -12586 6594 -6595 0
-6593 6595 0
-6593 -6594 0
-6593 12586 -5770 0
6594 12650 -5766 0
-6594 -12650 0
-6594 5766 0
6595 5775 6596 -6597 0
6595 -12458 6596 -6597 0
-6595 6597 0
-6595 -6596 0
-6595 12458 -5775 0
6596 12522 -5773 0
-6596 -12522 0
-6596 5773 0
6597 5781 6598 -6599 0
6597 -12330 6598 -6599 0
-6597 6599 0
-6597 -6598 0
-6597 12330 -5781 0
6598 12394 -5778 0
-6598 -12394 0
-6598 5778 0
6599 -12202 5783 0
6599 -12266 -5785 0
6599 -12202 -12266 0
6599 5783 -5785 0
-6599 12202 5785 0
-6599 12266 -5783 0
-6600 13004 5787 0
-6600 -5787 6601 0
6600 -13004 5787 0
6600 -5787 -6601 0
-6601 12075 -642 0
-6601 642 6602 0
6601 -12075 -642 0
6601 642 -6602 0
-6602 6603 0
-6602 564 596 -5786 0
6602 5786 -6603 0
6602 -596 -6603 0
6602 -564 -6603 0
6603 5758 6604 -6605 0
6603 -12843 6604 -6605 0
-6603 6605 0
-6603 -6604 0
-6603 12843 -5758 0
6604 12907 -5746 0
-6604 -12907 0
-6604 5746 0
6605 5763 6606 -6607 0
6605 -12715 6606 -6607 0
-6605 6607 0
-6605 -6606 0
-6605 12715 -5763 0
6606 12779 -5761 0
-6606 -12779 0
-6606 5761 0
6607 5770 6608 -6609 0
6607 -12587 6608 -6609 0
-6607 6609 0
-6607 -6608 0
-6607 12587 -5770 0
6608 12651 -5766 0
-6608 -12651 0
-6608 5766 0
6609 5775 6610 -6611 0
6609 -12459 6610 -6611 0
-6609 6611 0
-6609 -6610 0
-6609 12459 -5775 0
6610 12523 -5773 0
-6610 -12523 0
-6610 5773 0
6611 5781 6612 -6613 0
6611 -12331 6612 -6613 0
-6611 6613 0
-6611 -6612 0
-6611 12331 -5781 0
6612 12395 -5778 0
-6612 -12395 0
-6612 5778 0
6613 -12203 5783 0
6613 -12267 -5785 0
6613 -12203 -12267 0
6613 5783 -5785 0
-6613 12203 5785 0
-6613 12267 -5783 0
-6614 13005 5787 0
-6614 -5787 6615 0
6614 -13005 5787 0
6614 -5787 -6615 0
-6615 12084 -642 0
-6615 642 6616 0
6615 -12084 -642 0
6615 642 -6616 0
-6616 6617 0
-6616 564 596 -5786 0
6616 5786 -6617 0
6616 -596 -6617 0
6616 -564 -6617 0
6617 5758 6618 -6619 0
6617 -12844 6618 -6619 0
-6617 6619 0
-6617 -6618 0
-6617 12844 -5758 0
6618 12908 -5746 0
-6618 -12908 0
-6618 5746 0
6619 5763 6620 -6621 0
6619 -12716 6620 -6621 0
-6619 6621 0
-6619 -6620 0
-6619 12716 -5763 0
6620 12780 -5761 0
-6620 -12780 0
-6620 5761 0
6621 5770 6622 -6623 0
6621 -12588 6622 -6623 0
-6621 6623 0
-6621 -6622 0
-6621 12588 -5770 0
6622 12652 -5766 0
-6622 -12652 0
-6622 5766 0
6623 5775 6624 -6625 0
6623 -12460 6624 -6625 0
-6623 6625 0
-6623 -6624 0
-6623 12460 -5775 0
6624 12524 -5773 0
-6624 -12524 0
-6624 5773 0
6625 5781 6626 -6627 0
6625 -12332 6626 -6627 0
-6625 6627 0
-6625 -6626 0
-6625 12332 -5781 0
6626 12396 -5778 0
-6626 -12396 0
-6626 5778 0
6627 -12204 5783 0
6627 -12268 -5785 0
6627 -12204 -12268 0
6627 5783 -5785 0
-6627 12204 5785 0
-6627 12268 -5783 0
-6628 13006 5787 0
-6628 -5787 6629 0
6628 -13006 5787 0
6628 -5787 -6629 0
-6629 12093 -642 0
-6629 642 6630 0
6629 -12093 -642 0
6629 642 -6630 0
-6630 6631 0
-6630 564 596 -5786 0
6630 5786 -6631 0
6630 -596 -6631 0
6630 -564 -6631 0
6631 5758 6632 -6633 0
6631 -12845 6632 -6633 0
-6631 6633 0
-6631 -6632 0
-6631 12845 -5758 0
6632 12909 -5746 0
-6632 -12909 0
-6632 5746 0
6633 5763 6634 -6635 0
6633 -12717 6634 -6635 0
-6633 6635 0
-6633 -6634 0
-6633 12717 -5763 0
6634 12781 -5761 0
-6634 -12781 0
-6634 5761 0
6635 5770 6636 -6637 0
6635 -12589 6636 -6637 0
-6635 6637 0
-6635 -6636 0
-6635 12589 -5770 0
6636 12653 -5766 0
-6636 -12653 0
-6636 5766 0
6637 5775 6638 -6639 0
6637 -12461 6638 -6639 0
-6637 6639 0
-6637 -6638 0
-6637 12461 -5775 0
6638 12525 -5773 0
-6638 -12525 0
-6638 5773 0
6639 5781 6640 -6641 0
6639 -12333 6640 -6641 0
-6639 6641 0
-6639 -6640 0
-6639 12333 -5781 0
6640 12397 -5778 0
-6640 -12397 0
-6640 5778 0
6641 -12205 5783 0
6641 -12269 -5785 0
6641 -12205 -12269 0
6641 5783 -5785 0
-6641 12205 5785 0
-6641 12269 -5783 0
-6642 13007 5787 0
-6642 -5787 6643 0
6642 -13007 5787 0
6642 -5787 -6643 0
-6643 12102 -642 0
-6643 642 6644 0
6643 -12102 -642 0
6643 642 -6644 0
-6644 6645 0
-6644 564 596 -5786 0
6644 5786 -6645 0
6644 -596 -6645 0
6644 -564 -6645 0
6645 5758 6646 -6647 0
6645 -12846 6646 -6647 0
-6645 6647 0
-6645 -6646 0
-6645 12846 -5758 0
6646 12910 -5746 0
-6646 -12910 0
-6646 5746 0
6647 5763 6648 -6649 0
6647 -12718 6648 -6649 0
-6647 6649 0
-6647 -6648 0
-6647 12718 -5763 0
6648 12782 -5761 0
-6648 -12782 0
-6648 5761 0
6649 5770 6650 -6651 0
6649 -12590 6650 -6651 0
-6649 6651 0
-6649 -6650 0
-6649 12590 -5770 0
6650 12654 -5766 0
-6650 -12654 0
-6650 5766 0
6651 5775 6652 -6653 0
6651 -12462 6652 -6653 0
-6651 6653 0
-6651 -6652 0
-6651 12462 -5775 0
6652 12526 -5773 0
-6652 -12526 0
-6652 5773 0
6653 5781 6654 -6655 0
6653 -12334 6654 -6655 0
-6653 6655 0
-6653 -6654 0
-6653 12334 -5781 0
6654 12398 -5778 0
-6654 -12398 0
-6654 5778 0
6655 -12206 5783 0
6655 -12270 -5785 0
6655 -12206 -12270 0
6655 5783 -5785 0
-6655 12206 5785 0
-6655 12270 -5783 0
-6656 13008 5787 0
-6656 -5787 6657 0
6656 -13008 5787 0
6656 -5787 -6657 0
-6657 12111 -642 0
-6657 642 6658 0
6657 -12111 -642 0
6657 642 -6658 0
-6658 6659 0
-6658 564 596 -5786 0
6658 5786 -6659 0
6658 -596 -6659 0
6658 -564 -6659 0
6659 5758 6660 -6661 0
6659 -12847 6660 -6661 0
-6659 6661 0
-6659 -6660 0
-6659 12847 -5758 0
6660 12911 -5746 0
-6660 -12911 0
-6660 5746 0
6661 5763 6662 -6663 0
6661 -12719 6662 -6663 0
-6661 6663 0
-6661 -6662 0
-6661 12719 -5763 0
6662 12783 -5761 0
-6662 -12783 0
-6662 5761 0
6663 5770 6664 -6665 0
6663 -12591 6664 -6665 0
-6663 6665 0
-6663 -6664 0
-6663 12591 -5770 0
6664 12655 -5766 0
-6664 -12655 0
-6664 5766 0
6665 5775 6666 -6667 0
6665 -12463 6666 -6667 0
-6665 6667 0
-6665 -6666 0
-6665 12463 -5775 0
6666 12527 -5773 0
-6666 -12527 0
-6666 5773 0
6667 5781 6668 -6669 0
6667 -12335 6668 -6669 0
-6667 6669 0
-6667 -6668 0
-6667 12335 -5781 0
6668 12399 -5778 0
-6668 -12399 0
-6668 5778 0
6669 -12207 5783 0
6669 -12271 -5785 0
6669 -12207 -12271 0
6669 5783 -5785 0
-6669 12207 5785 0
-6669 12271 -5783 0
-6670 6671 6672 0
-6670 13010 6671 0
6670 -6671 0
6670 -13010 -6672 0
6671 -9976 9995 0
-6671 9976 0
-6671 -9995 0
-6672 6673 6704 6717 0
6672 -6673 0
6672 -6717 0
6672 -6704 0
6673 -6674 -6703 0
-6673 6674 0
-6673 6703 0
-6674 -6675 -6687 0
-6674 -6675 -6688 0
-6674 6687 6688 6689 0
6674 6675 -6688 0
6674 6687 6688 -6689 0
6674 6675 -6687 0
6675 -6676 -6686 0
6675 -6685 -6686 0
-6675 6686 0
-6675 6676 6685 0
6676 6677 -6684 0
6676 -9824 6684 0
6676 -9823 6684 0
-6676 -6677 -6684 0
-6676 9823 9824 6684 0
-6677 6678 6680 0
6677 -6678 0
6677 -6680 0
-6678 6679 0
-6678 -9976 -369 0
-6678 -369 596 0
6678 369 -6679 0
6678 9976 -596 -6679 0
6679 -9819 9820 9825 0
-6679 9819 0
-6679 -9825 0
-6679 -9820 0
6680 -6681 6682 0
-6680 6681 0
-6680 -6682 0
-6681 9976 9995 0
6681 -9976 0
6681 -9995 0
6682 9976 -6683 0
-6682 -9976 0
-6682 6683 0
6683 -9995 -13009 0
-6683 9995 0
-6683 13009 0
-6684 369 542 0
6684 -369 0
6684 -542 0
6685 -13011 -13012 13013 -13014 0
-6685 13014 0
-6685 13011 0
-6685 13012 0
-6685 -13013 0
-6686 9823 9824 6679 0
-6686 9823 9824 -544 0
6686 -9823 0
6686 -9824 0
6686 544 -6679 0
6687 13011 13012 13013 -13014 0
-6687 13014 0
-6687 -13013 0
-6687 -13011 0
-6687 -13012 0
6688 13011 13012 -13013 13014 0
-6688 -13011 0
-6688 -13014 0
-6688 13013 0
-6688 -13012 0
-6689 -6690 6693 0
-6689 6691 6692 6693 0
6689 -6693 0
6689 6690 -6691 0
6689 6690 -6692 0
6690 -6685 -6686 0
6690 6677 -6684 -6686 0
-6690 6686 0
-6690 6684 6685 0
-6690 -6677 6685 0
6691 13011 13012 -13013 -13014 0
-6691 -13011 0
-6691 13014 0
-6691 13013 0
-6691 -13012 0
6692 -13011 13012 13013 13014 0
-6692 -13014 0
-6692 -13013 0
-6692 13011 0
-6692 -13012 0
-6693 6694 6697 0
-6693 6695 6696 6697 0
6693 -6697 0
6693 -6694 -6696 0
6693 -6694 -6695 0
6694 13010 -6677 0
6694 -13010 -6681 6682 0
-6694 -13010 6681 0
-6694 13010 6677 0
-6694 -13010 -6682 0
6695 -13011 13012 13013 -13014 0
-6695 13014 0
-6695 -13013 0
-6695 13011 0
-6695 -13012 0
6696 -13011 13012 -13013 13014 0
-6696 13013 0
-6696 -13014 0
-6696 13011 0
-6696 -13012 0
6697 -6698 -6699 0
6697 -6699 6702 0
-6697 6699 0
-6697 6698 -6702 0
6698 -13010 6678 -6681 6682 0
-6698 -6678 0
-6698 -6682 0
-6698 13010 0
-6698 6681 0
6699 -6698 -6701 0
6699 6700 -6701 0
-6699 6701 0
-6699 -6700 6698 0
6700 13011 -13012 -13013 0
-6700 13013 0
-6700 13012 0
-6700 -13011 0
-6701 -6682 6685 0
-6701 -6685 -6686 0
-6701 6681 6685 0
6701 -6685 6686 0
6701 -6681 6682 6685 0
6702 13011 -13012 13013 0
-6702 -13011 0
-6702 13012 0
-6702 -13013 0
-6703 13011 13012 13013 13014 0
6703 -13014 0
6703 -13013 0
6703 -13011 0
6703 -13012 0
6704 -6703 -6705 0
-6704 6703 0
-6704 6705 0
6705 -6707 -6711 0
6705 6687 6706 -6711 0
-6705 6711 0
-6705 -6706 6707 0
-6705 -6687 6707 0
6706 13011 13012 -13013 0
-6706 13013 0
-6706 -13012 0
-6706 -13011 0
6707 -6684 6685 -6686 -6708 0
-6707 6708 0
-6707 6686 0
-6707 6684 0
-6707 -6685 0
6708 6678 6709 -6710 0
-6708 -6678 0
-6708 -6709 0
-6708 6710 0
6709 -9976 -596 -6679 0
-6709 9976 0
-6709 596 0
-6709 6679 0
6710 -6681 6682 6698 0
-6710 6681 0
-6710 -6698 0
-6710 -6682 0
6711 -6692 -6712 0
6711 6692 -6714 0
-6711 6692 6714 0
-6711 -6692 6712 0
6712 6685 -6686 -6713 0
-6712 6713 0
-6712 6686 0
-6712 -6685 0
6713 -6684 -6708 0
6713 -9823 6684 0
6713 -9824 6684 0
-6713 -6684 6708 0
-6713 9823 9824 6684 0
6714 -6708 -6715 0
6714 6695 6696 -6715 0
-6714 6715 0
-6714 -6696 6708 0
-6714 -6695 6708 0
6715 6685 -6710 6716 0
-6715 -6685 0
-6715 6710 0
-6715 -6716 0
6716 -13011 13012 -13013 -13014 0
-6716 13014 0
-6716 13011 0
-6716 13013 0
-6716 -13012 0
6717 -6703 -6718 0
-6717 6703 0
-6717 6718 0
-6718 -6687 -6719 0
-6718 6687 6688 6721 0
-6718 -6688 -6719 0
6718 -6688 6719 0
6718 6687 6688 -6721 0
6718 -6687 6719 0
6719 -6685 -6686 0
6719 -6684 -6686 6720 0
-6719 6686 0
-6719 6684 6685 0
-6719 6685 -6720 0
6720 6678 -6680 0
-6720 -6678 0
-6720 6680 0
-6721 -6691 -6722 0
-6721 6691 6692 6724 0
-6721 -6692 -6722 0
6721 -6692 6722 0
6721 6691 6692 -6724 0
6721 -6691 6722 0
6722 -6685 -6686 0
6722 -6686 -6723 0
-6722 6686 0
-6722 6685 6723 0
6723 -6684 6720 0
6723 -9823 6684 0
6723 -9824 6684 0
-6723 -6684 -6720 0
-6723 9823 9824 6684 0
6724 -6720 -6725 0
6724 6695 6696 -6725 0
-6724 6725 0
-6724 -6696 6720 0
-6724 -6695 6720 0
6725 -6698 -6726 0
6725 6702 -6726 0
-6725 6726 0
-6725 6698 -6702 0
6726 6727 -6701 0
6726 -13014 -6701 0
6726 -6698 -6701 0
-6726 6701 0
-6726 13014 -6727 6698 0
6727 -13011 -13012 13013 0
-6727 13011 0
-6727 13012 0
-6727 -13013 0
6728 6687 -6729 -6734 0
6728 -6687 -6729 6730 0
-6728 6729 0
-6728 6687 6734 0
-6728 -6687 -6730 0
-6729 6682 6703 0
6729 -6682 0
6729 -6703 0
6730 6685 -6686 -6731 0
-6730 6731 0
-6730 6686 0
-6730 -6685 0
6731 -6684 6732 0
6731 -9823 6684 0
6731 -9824 6684 0
-6731 -6684 -6732 0
-6731 9823 9824 6684 0
-6732 6678 -6709 0
-6732 6678 6733 0
6732 -6678 0
6732 6709 -6733 0
-6733 6682 6698 0
6733 -6682 0
6733 -6698 0
-6734 -6688 -6735 0
-6734 6688 6736 0
6734 6688 -6736 0
6734 -6688 6735 0
6735 -6684 6685 -6686 6732 0
-6735 -6732 0
-6735 6686 0
-6735 6684 0
-6735 -6685 0
-6736 -6691 -6730 0
-6736 6691 6692 6737 0
-6736 -6692 -6730 0
6736 -6692 6730 0
6736 6691 6692 -6737 0
6736 -6691 6730 0
-6737 6738 6739 0
-6737 6695 6696 6739 0
6737 -6739 0
6737 -6696 -6738 0
6737 -6695 -6738 0
6738 13010 -6732 0
6738 -13010 -6681 0
-6738 -13010 6681 0
-6738 13010 6732 0
-6739 6681 6742 0
-6739 6740 6741 6742 0
6739 -6742 0
6739 -6681 -6740 0
6739 -6681 -6741 0
6740 13011 -13012 -13013 -13014 0
-6740 -13011 0
-6740 13014 0
-6740 13013 0
-6740 13012 0
6741 13011 -13012 13013 -13014 0
-6741 13012 0
-6741 -13013 0
-6741 -13011 0
-6741 13014 0
-6742 6685 6716 6733 0
-6742 6681 6685 6733 0
6742 -6733 0
6742 -6685 0
6742 -6681 -6716 0
-6743 6672 6744 0
-6743 13021 6744 0
6743 -6744 0
6743 -13021 -6672 0
6744 -6745 6746 0
-6744 6745 0
-6744 -6746 0
6745 6672 -6728 0
-6745 -6672 0
-6745 6728 0
6746 9964 -517 -6747 0
-6746 -9964 0
-6746 517 0
-6746 6747 0
-6747 -9962 0
-6747 9974 0
-6747 9975 514 0
6747 9962 -9974 -9975 0
6747 9962 -9974 -514 0
-6748 13022 6751 0
-6748 6749 -6751 0
6748 -6749 -6751 0
6748 -13022 6751 0
6749 9976 -11544 -6681 0
6749 -9976 -6681 -6750 0
-6749 6681 0
-6749 -9976 6750 0
-6749 9976 11544 0
6750 -9967 -12945 -556 0
-6750 9967 0
-6750 12945 0
-6750 556 0
6751 6685 -6745 0
-6751 -6685 0
-6751 6745 0
-6752 -6751 6753 0
-6752 13023 6751 0
6752 -6751 -6753 0
6752 -13023 6751 0
6753 9976 -11553 -6681 0
6753 -9976 -6681 -6754 0
-6753 6681 0
-6753 -9976 6754 0
-6753 9976 11553 0
6754 -12946 -556 0
6754 9967 -556 0
-6754 556 0
-6754 -9967 12946 0
-6755 -6751 6756 0
-6755 13024 6751 0
6755 -6751 -6756 0
6755 -13024 6751 0
6756 9976 -11562 -6681 0
6756 -9976 -6681 -6757 0
-6756 6681 0
-6756 -9976 6757 0
-6756 9976 11562 0
6757 -9967 -12947 -556 0
-6757 9967 0
-6757 12947 0
-6757 556 0
-6758 -6751 6759 0
-6758 13025 6751 0
6758 -6751 -6759 0
6758 -13025 6751 0
6759 9976 -11571 -6681 0
6759 -9976 -6681 -6760 0
-6759 6681 0
-6759 -9976 6760 0
-6759 9976 11571 0
6760 -12948 -556 0
6760 9967 -556 0
-6760 556 0
-6760 -9967 12948 0
-6761 -6751 6762 0
-6761 13026 6751 0
6761 -6751 -6762 0
6761 -13026 6751 0
6762 9976 -11580 -6681 0
6762 -9976 -6681 -6763 0
-6762 6681 0
-6762 -9976 6763 0
-6762 9976 11580 0
6763 -9967 -12949 -556 0
-6763 9967 0
-6763 12949 0
-6763 556 0
-6764 -6751 6765 0
-6764 13027 6751 0
6764 -6751 -6765 0
6764 -13027 6751 0
6765 9976 -11589 -6681 0
6765 -9976 -6681 -6766 0
-6765 6681 0
-6765 -9976 6766 0
-6765 9976 11589 0
6766 -12950 -556 0
6766 9967 -556 0
-6766 556 0
-6766 -9967 12950 0
-6767 -6751 6768 0
-6767 13028 6751 0
6767 -6751 -6768 0
6767 -13028 6751 0
6768 9976 -11598 -6681 0
6768 -9976 -6681 -6769 0
-6768 6681 0
-6768 -9976 6769 0
-6768 9976 11598 0
6769 -9967 -12951 -556 0
-6769 9967 0
-6769 12951 0
-6769 556 0
-6770 -6751 6771 0
-6770 13029 6751 0
6770 -6751 -6771 0
6770 -13029 6751 0
6771 9976 -11607 -6681 0
6771 -9976 -6681 -6772 0
-6771 6681 0
-6771 -9976 6772 0
-6771 9976 11607 0
6772 -12952 -556 0
6772 9967 -556 0
-6772 556 0
-6772 -9967 12952 0
-6773 -6751 6774 0
-6773 13030 6751 0
6773 -6751 -6774 0
6773 -13030 6751 0
6774 9976 -11616 -6681 0
6774 -9976 -6681 -6775 0
-6774 6681 0
-6774 -9976 6775 0
-6774 9976 11616 0
6775 -9967 -12953 -556 0
-6775 9967 0
-6775 12953 0
-6775 556 0
-6776 -6751 6777 0
-6776 13031 6751 0
6776 -6751 -6777 0
6776 -13031 6751 0
6777 9976 -11625 -6681 0
6777 -9976 -6681 -6778 0
-6777 6681 0
-6777 -9976 6778 0
-6777 9976 11625 0
6778 -12954 -556 0
6778 9967 -556 0
-6778 556 0
-6778 -9967 12954 0
-6779 -6751 6780 0
-6779 13032 6751 0
6779 -6751 -6780 0
6779 -13032 6751 0
6780 9976 -11634 -6681 0
6780 -9976 -6681 -6781 0
-6780 6681 0
-6780 -9976 6781 0
-6780 9976 11634 0
6781 -9967 -12955 -556 0
-6781 9967 0
-6781 12955 0
-6781 556 0
-6782 -6751 6783 0
-6782 13033 6751 0
6782 -6751 -6783 0
6782 -13033 6751 0
6783 9976 -11643 -6681 0
6783 -9976 -6681 -6784 0
-6783 6681 0
-6783 -9976 6784 0
-6783 9976 11643 0
6784 -12956 -556 0
6784 9967 -556 0
-6784 556 0
-6784 -9967 12956 0
-6785 -6751 6786 0
-6785 13034 6751 0
6785 -6751 -6786 0
6785 -13034 6751 0
6786 9976 -11652 -6681 0
6786 -9976 -6681 -6787 0
-6786 6681 0
-6786 -9976 6787 0
-6786 9976 11652 0
6787 -9967 -12957 -556 0
-6787 9967 0
-6787 12957 0
-6787 556 0
-6788 -6751 6789 0
-6788 13035 6751 0
6788 -6751 -6789 0
6788 -13035 6751 0
6789 9976 -11661 -6681 0
6789 -9976 -6681 -6790 0
-6789 6681 0
-6789 -9976 6790 0
-6789 9976 11661 0
6790 -12958 -556 0
6790 9967 -556 0
-6790 556 0
-6790 -9967 12958 0
-6791 -6751 6792 0
-6791 13036 6751 0
6791 -6751 -6792 0
6791 -13036 6751 0
6792 9976 -11670 -6681 0
6792 -9976 -6681 -6793 0
-6792 6681 0
-6792 -9976 6793 0
-6792 9976 11670 0
6793 -9967 -12959 -556 0
-6793 9967 0
-6793 12959 0
-6793 556 0
-6794 -6751 6795 0
-6794 13037 6751 0
6794 -6751 -6795 0
6794 -13037 6751 0
6795 9976 -11679 -6681 0
6795 -9976 -6681 -6796 0
-6795 6681 0
-6795 -9976 6796 0
-6795 9976 11679 0
6796 -12960 -556 0
6796 9967 -556 0
-6796 556 0
-6796 -9967 12960 0
-6797 -6751 6798 0
-6797 13038 6751 0
6797 -6751 -6798 0
6797 -13038 6751 0
6798 9976 -11688 -6681 0
6798 -9976 -6681 -6799 0
-6798 6681 0
-6798 -9976 6799 0
-6798 9976 11688 0
6799 -9967 -12961 -556 0
-6799 9967 0
-6799 12961 0
-6799 556 0
-6800 -6751 6801 0
-6800 13039 6751 0
6800 -6751 -6801 0
6800 -13039 6751 0
6801 9976 -11697 -6681 0
6801 -9976 -6681 -6802 0
-6801 6681 0
-6801 -9976 6802 0
-6801 9976 11697 0
6802 -12962 -556 0
6802 9967 -556 0
-6802 556 0
-6802 -9967 12962 0
-6803 -6751 6804 0
-6803 13040 6751 0
6803 -6751 -6804 0
6803 -13040 6751 0
6804 9976 -11706 -6681 0
6804 -9976 -6681 -6805 0
-6804 6681 0
-6804 -9976 6805 0
-6804 9976 11706 0
6805 -9967 -12963 -556 0
-6805 9967 0
-6805 12963 0
-6805 556 0
-6806 -6751 6807 0
-6806 13041 6751 0
6806 -6751 -6807 0
6806 -13041 6751 0
6807 9976 -11715 -6681 0
6807 -9976 -6681 -6808 0
-6807 6681 0
-6807 -9976 6808 0
-6807 9976 11715 0
6808 -12964 -556 0
6808 9967 -556 0
-6808 556 0
-6808 -9967 12964 0
-6809 -6751 6810 0
-6809 13042 6751 0
6809 -6751 -6810 0
6809 -13042 6751 0
6810 9976 -11724 -6681 0
6810 -9976 -6681 -6811 0
-6810 6681 0
-6810 -9976 6811 0
-6810 9976 11724 0
6811 -9967 -12965 -556 0
-6811 9967 0
-6811 12965 0
-6811 556 0
-6812 -6751 6813 0
-6812 13043 6751 0
6812 -6751 -6813 0
6812 -13043 6751 0
6813 9976 -11733 -6681 0
6813 -9976 -6681 -6814 0
-6813 6681 0
-6813 -9976 6814 0
-6813 9976 11733 0
6814 -12966 -556 0
6814 9967 -556 0
-6814 556 0
-6814 -9967 12966 0
-6815 -6751 6816 0
-6815 13044 6751 0
6815 -6751 -6816 0
6815 -13044 6751 0
6816 9976 -11742 -6681 0
6816 -9976 -6681 -6817 0
-6816 6681 0
-6816 -9976 6817 0
-6816 9976 11742 0
6817 -9967 -12967 -556 0
-6817 9967 0
-6817 12967 0
-6817 556 0
-6818 -6751 6819 0
-6818 13045 6751 0
6818 -6751 -6819 0
6818 -13045 6751 0
6819 9976 -11751 -6681 0
6819 -9976 -6681 -6820 0
-6819 6681 0
-6819 -9976 6820 0
-6819 9976 11751 0
6820 -12968 -556 0
6820 9967 -556 0
-6820 556 0
-6820 -9967 12968 0
-6821 -6751 6822 0
-6821 13046 6751 0
6821 -6751 -6822 0
6821 -13046 6751 0
6822 9976 -11760 -6681 0
6822 -9976 -6681 -6823 0
-6822 6681 0
-6822 -9976 6823 0
-6822 9976 11760 0
6823 -9967 -12969 -556 0
-6823 9967 0
-6823 12969 0
-6823 556 0
-6824 -6751 6825 0
-6824 13047 6751 0
6824 -6751 -6825 0
6824 -13047 6751 0
6825 9976 -11769 -6681 0
6825 -9976 -6681 -6826 0
-6825 6681 0
-6825 -9976 6826 0
-6825 9976 11769 0
6826 -12970 -556 0
6826 9967 -556 0
-6826 556 0
-6826 -9967 12970 0
-6827 -6751 6828 0
-6827 13048 6751 0
6827 -6751 -6828 0
6827 -13048 6751 0
6828 9976 -11778 -6681 0
6828 -9976 -6681 -6829 0
-6828 6681 0
-6828 -9976 6829 0
-6828 9976 11778 0
6829 -9967 -12971 -556 0
-6829 9967 0
-6829 12971 0
-6829 556 0
-6830 -6751 6831 0
-6830 13049 6751 0
6830 -6751 -6831 0
6830 -13049 6751 0
6831 9976 -11787 -6681 0
6831 -9976 -6681 -6832 0
-6831 6681 0
-6831 -9976 6832 0
-6831 9976 11787 0
6832 -12972 -556 0
6832 9967 -556 0
-6832 556 0
-6832 -9967 12972 0
-6833 -6751 6834 0
-6833 13050 6751 0
6833 -6751 -6834 0
6833 -13050 6751 0
6834 9976 -11796 -6681 0
6834 -9976 -6681 -6835 0
-6834 6681 0
-6834 -9976 6835 0
-6834 9976 11796 0
6835 -9967 -12973 -556 0
-6835 9967 0
-6835 12973 0
-6835 556 0
-6836 -6751 6837 0
-6836 13051 6751 0
6836 -6751 -6837 0
6836 -13051 6751 0
6837 9976 -11805 -6681 0
6837 -9976 -6681 -6838 0
-6837 6681 0
-6837 -9976 6838 0
-6837 9976 11805 0
6838 -12974 -556 0
6838 9967 -556 0
-6838 556 0
-6838 -9967 12974 0
-6839 -6751 6840 0
-6839 13052 6751 0
6839 -6751 -6840 0
6839 -13052 6751 0
6840 9976 -11814 -6681 0
6840 -9976 -6681 -6841 0
-6840 6681 0
-6840 -9976 6841 0
-6840 9976 11814 0
6841 -9967 -12975 -556 0
-6841 9967 0
-6841 12975 0
-6841 556 0
-6842 -6751 6843 0
-6842 13053 6751 0
6842 -6751 -6843 0
6842 -13053 6751 0
6843 9976 -11823 -6681 0
6843 -9976 -6681 -6844 0
-6843 6681 0
-6843 -9976 6844 0
-6843 9976 11823 0
6844 -12976 -556 0
6844 9967 -556 0
-6844 556 0
-6844 -9967 12976 0
-6845 -6751 6846 0
-6845 13054 6751 0
6845 -6751 -6846 0
6845 -13054 6751 0
6846 9976 -11832 -6681 0
6846 -9976 -6681 -6847 0
-6846 6681 0
-6846 -9976 6847 0
-6846 9976 11832 0
6847 -9967 -12977 -556 0
-6847 9967 0
-6847 12977 0
-6847 556 0
-6848 -6751 6849 0
-6848 13055 6751 0
6848 -6751 -6849 0
6848 -13055 6751 0
6849 9976 -11841 -6681 0
6849 -9976 -6681 -6850 0
-6849 6681 0
-6849 -9976 6850 0
-6849 9976 11841 0
6850 -12978 -556 0
6850 9967 -556 0
-6850 556 0
-6850 -9967 12978 0
-6851 -6751 6852 0
-6851 13056 6751 0
6851 -6751 -6852 0
6851 -13056 6751 0
6852 9976 -11850 -6681 0
6852 -9976 -6681 -6853 0
-6852 6681 0
-6852 -9976 6853 0
-6852 9976 11850 0
6853 -9967 -12979 -556 0
-6853 9967 0
-6853 12979 0
-6853 556 0
-6854 -6751 6855 0
-6854 13057 6751 0
6854 -6751 -6855 0
6854 -13057 6751 0
6855 9976 -11859 -6681 0
6855 -9976 -6681 -6856 0
-6855 6681 0
-6855 -9976 6856 0
-6855 9976 11859 0
6856 -12980 -556 0
6856 9967 -556 0
-6856 556 0
-6856 -9967 12980 0
-6857 -6751 6858 0
-6857 13058 6751 0
6857 -6751 -6858 0
6857 -13058 6751 0
6858 9976 -11868 -6681 0
6858 -9976 -6681 -6859 0
-6858 6681 0
-6858 -9976 6859 0
-6858 9976 11868 0
6859 -9967 -12981 -556 0
-6859 9967 0
-6859 12981 0
-6859 556 0
-6860 -6751 6861 0
-6860 13059 6751 0
6860 -6751 -6861 0
6860 -13059 6751 0
6861 9976 -11877 -6681 0
6861 -9976 -6681 -6862 0
-6861 6681 0
-6861 -9976 6862 0
-6861 9976 11877 0
6862 -12982 -556 0
6862 9967 -556 0
-6862 556 0
-6862 -9967 12982 0
-6863 -6751 6864 0
-6863 13060 6751 0
6863 -6751 -6864 0
6863 -13060 6751 0
6864 9976 -11886 -6681 0
6864 -9976 -6681 -6865 0
-6864 6681 0
-6864 -9976 6865 0
-6864 9976 11886 0
6865 -9967 -12983 -556 0
-6865 9967 0
-6865 12983 0
-6865 556 0
-6866 -6751 6867 0
-6866 13061 6751 0
6866 -6751 -6867 0
6866 -13061 6751 0
6867 9976 -11895 -6681 0
6867 -9976 -6681 -6868 0
-6867 6681 0
-6867 -9976 6868 0
-6867 9976 11895 0
6868 -12984 -556 0
6868 9967 -556 0
-6868 556 0
-6868 -9967 12984 0
-6869 -6751 6870 0
-6869 13062 6751 0
6869 -6751 -6870 0
6869 -13062 6751 0
6870 9976 -11904 -6681 0
6870 -9976 -6681 -6871 0
-6870 6681 0
-6870 -9976 6871 0
-6870 9976 11904 0
6871 -9967 -12985 -556 0
-6871 9967 0
-6871 12985 0
-6871 556 0
-6872 -6751 6873 0
-6872 13063 6751 0
6872 -6751 -6873 0
6872 -13063 6751 0
6873 9976 -11913 -6681 0
6873 -9976 -6681 -6874 0
-6873 6681 0
-6873 -9976 6874 0
-6873 9976 11913 0
6874 -12986 -556 0
6874 9967 -556 0
-6874 556 0
-6874 -9967 12986 0
-6875 -6751 6876 0
-6875 13064 6751 0
6875 -6751 -6876 0
6875 -13064 6751 0
6876 9976 -11922 -6681 0
6876 -9976 -6681 -6877 0
-6876 6681 0
-6876 -9976 6877 0
-6876 9976 11922 0
6877 -9967 -12987 -556 0
-6877 9967 0
-6877 12987 0
-6877 556 0
-6878 -6751 6879 0
-6878 13065 6751 0
6878 -6751 -6879 0
6878 -13065 6751 0
6879 9976 -11931 -6681 0
6879 -9976 -6681 -6880 0
-6879 6681 0
-6879 -9976 6880 0
-6879 9976 11931 0
6880 -12988 -556 0
6880 9967 -556 0
-6880 556 0
-6880 -9967 12988 0
-6881 -6751 6882 0
-6881 13066 6751 0
6881 -6751 -6882 0
6881 -13066 6751 0
6882 9976 -11940 -6681 0
6882 -9976 -6681 -6883 0
-6882 6681 0
-6882 -9976 6883 0
-6882 9976 11940 0
6883 -9967 -12989 -556 0
-6883 9967 0
-6883 12989 0
-6883 556 0
-6884 -6751 6885 0
-6884 13067 6751 0
6884 -6751 -6885 0
6884 -13067 6751 0
6885 9976 -11949 -6681 0
6885 -9976 -6681 -6886 0
-6885 6681 0
-6885 -9976 6886 0
-6885 9976 11949 0
6886 -12990 -556 0
6886 9967 -556 0
-6886 556 0
-6886 -9967 12990 0
-6887 -6751 6888 0
-6887 13068 6751 0
6887 -6751 -6888 0
6887 -13068 6751 0
6888 9976 -11958 -6681 0
6888 -9976 -6681 -6889 0
-6888 6681 0
-6888 -9976 6889 0
-6888 9976 11958 0
6889 -9967 -12991 -556 0
-6889 9967 0
-6889 12991 0
-6889 556 0
-6890 -6751 6891 0
-6890 13069 6751 0
6890 -6751 -6891 0
6890 -13069 6751 0
6891 9976 -11967 -6681 0
6891 -9976 -6681 -6892 0
-6891 6681 0
-6891 -9976 6892 0
-6891 9976 11967 0
6892 -12992 -556 0
6892 9967 -556 0
-6892 556 0
-6892 -9967 12992 0
-6893 -6751 6894 0
-6893 13070 6751 0
6893 -6751 -6894 0
6893 -13070 6751 0
6894 9976 -11976 -6681 0
6894 -9976 -6681 -6895 0
-6894 6681 0
-6894 -9976 6895 0
-6894 9976 11976 0
6895 -9967 -12993 -556 0
-6895 9967 0
-6895 12993 0
-6895 556 0
-6896 -6751 6897 0
-6896 13071 6751 0
6896 -6751 -6897 0
6896 -13071 6751 0
6897 9976 -11985 -6681 0
6897 -9976 -6681 -6898 0
-6897 6681 0
-6897 -9976 6898 0
-6897 9976 11985 0
6898 -12994 -556 0
6898 9967 -556 0
-6898 556 0
-6898 -9967 12994 0
-6899 -6751 6900 0
-6899 13072 6751 0
6899 -6751 -6900 0
6899 -13072 6751 0
6900 9976 -11994 -6681 0
6900 -9976 -6681 -6901 0
-6900 6681 0
-6900 -9976 6901 0
-6900 9976 11994 0
6901 -9967 -12995 -556 0
-6901 9967 0
-6901 12995 0
-6901 556 0
-6902 -6751 6903 0
-6902 13073 6751 0
6902 -6751 -6903 0
6902 -13073 6751 0
6903 9976 -12003 -6681 0
6903 -9976 -6681 -6904 0
-6903 6681 0
-6903 -9976 6904 0
-6903 9976 12003 0
6904 -12996 -556 0
6904 9967 -556 0
-6904 556 0
-6904 -9967 12996 0
-6905 -6751 6906 0
-6905 13074 6751 0
6905 -6751 -6906 0
6905 -13074 6751 0
6906 9976 -12012 -6681 0
6906 -9976 -6681 -6907 0
-6906 6681 0
-6906 -9976 6907 0
-6906 9976 12012 0
6907 -9967 -12997 -556 0
-6907 9967 0
-6907 12997 0
-6907 556 0
-6908 -6751 6909 0
-6908 13075 6751 0
6908 -6751 -6909 0
6908 -13075 6751 0
6909 9976 -12021 -6681 0
6909 -9976 -6681 -6910 0
-6909 6681 0
-6909 -9976 6910 0
-6909 9976 12021 0
6910 -12998 -556 0
6910 9967 -556 0
-6910 556 0
-6910 -9967 12998 0
-6911 -6751 6912 0
-6911 13076 6751 0
6911 -6751 -6912 0
6911 -13076 6751 0
6912 9976 -12030 -6681 0
6912 -9976 -6681 -6913 0
-6912 6681 0
-6912 -9976 6913 0
-6912 9976 12030 0
6913 -9967 -12999 -556 0
-6913 9967 0
-6913 12999 0
-6913 556 0
-6914 -6751 6915 0
-6914 13077 6751 0
6914 -6751 -6915 0
6914 -13077 6751 0
6915 9976 -12039 -6681 0
6915 -9976 -6681 -6916 0
-6915 6681 0
-6915 -9976 6916 0
-6915 9976 12039 0
6916 -13000 -556 0
6916 9967 -556 0
-6916 556 0
-6916 -9967 13000 0
-6917 -6751 6918 0
-6917 13078 6751 0
6917 -6751 -6918 0
6917 -13078 6751 0
6918 9976 -12048 -6681 0
6918 -9976 -6681 -6919 0
-6918 6681 0
-6918 -9976 6919 0
-6918 9976 12048 0
6919 -9967 -13001 -556 0
-6919 9967 0
-6919 13001 0
-6919 556 0
-6920 -6751 6921 0
-6920 13079 6751 0
6920 -6751 -6921 0
6920 -13079 6751 0
6921 9976 -12057 -6681 0
6921 -9976 -6681 -6922 0
-6921 6681 0
-6921 -9976 6922 0
-6921 9976 12057 0
6922 -13002 -556 0
6922 9967 -556 0
-6922 556 0
-6922 -9967 13002 0
-6923 -6751 6924 0
-6923 13080 6751 0
6923 -6751 -6924 0
6923 -13080 6751 0
6924 9976 -12066 -6681 0
6924 -9976 -6681 -6925 0
-6924 6681 0
-6924 -9976 6925 0
-6924 9976 12066 0
6925 -9967 -13003 -556 0
-6925 9967 0
-6925 13003 0
-6925 556 0
-6926 -6751 6927 0
-6926 13081 6751 0
6926 -6751 -6927 0
6926 -13081 6751 0
6927 9976 -12075 -6681 0
6927 -9976 -6681 -6928 0
-6927 6681 0
-6927 -9976 6928 0
-6927 9976 12075 0
6928 -13004 -556 0
6928 9967 -556 0
-6928 556 0
-6928 -9967 13004 0
-6929 -6751 6930 0
-6929 13082 6751 0
6929 -6751 -6930 0
6929 -13082 6751 0
6930 9976 -12084 -6681 0
6930 -9976 -6681 -6931 0
-6930 6681 0
-6930 -9976 6931 0
-6930 9976 12084 0
6931 -9967 -13005 -556 0
-6931 9967 0
-6931 13005 0
-6931 556 0
-6932 -6751 6933 0
-6932 13083 6751 0
6932 -6751 -6933 0
6932 -13083 6751 0
6933 9976 -12093 -6681 0
6933 -9976 -6681 -6934 0
-6933 6681 0
-6933 -9976 6934 0
-6933 9976 12093 0
6934 -13006 -556 0
6934 9967 -556 0
-6934 556 0
-6934 -9967 13006 0
-6935 -6751 6936 0
-6935 13084 6751 0
6935 -6751 -6936 0
6935 -13084 6751 0
6936 9976 -12102 -6681 0
6936 -9976 -6681 -6937 0
-6936 6681 0
-6936 -9976 6937 0
-6936 9976 12102 0
6937 -9967 -13007 -556 0
-6937 9967 0
-6937 13007 0
-6937 556 0
-6938 -6751 6939 0
-6938 13085 6751 0
6938 -6751 -6939 0
6938 -13085 6751 0
6939 9976 -12111 -6681 0
6939 -9976 -6681 -6940 0
-6939 6681 0
-6939 -9976 6940 0
-6939 9976 12111 0
6940 -13008 -556 0
6940 9967 -556 0
-6940 556 0
-6940 -9967 13008 0
-6941 -6745 -6942 0
-6941 13086 6745 0
6941 -6745 6942 0
6941 -13086 6745 0
6942 9963 -517 -6747 0
-6942 -9963 0
-6942 517 0
-6942 6747 0
-6943 13087 6745 0
6943 -13087 0
6943 -6745 0
-6944 -6745 -6746 0
-6944 13088 6745 0
6944 -6745 6746 0
6944 -13088 6745 0
-6945 -6745 -6946 0
-6945 13089 6745 0
6945 -6745 6946 0
6945 -13089 6745 0
6946 9965 -517 -6747 0
-6946 -9965 0
-6946 517 0
-6946 6747 0
-6947 -6745 -6942 0
-6947 13090 6745 0
6947 -6745 6942 0
6947 -13090 6745 0
-6948 13091 6745 0
6948 -13091 0
6948 -6745 0
-6949 -6716 6745 0
-6949 6745 6950 0
-6949 13092 6745 0
6949 -6745 0
6949 -13092 6716 -6950 0
-6950 6672 6728 0
6950 -6672 0
6950 -6728 0
-6951 596 6952 0
-6951 6679 6952 0
-6951 9995 6952 0
6951 -6952 0
6951 -9995 -596 -6679 0
6952 -9995 -13093 0
6952 9976 -13093 -542 0
-6952 13093 0
-6952 -9976 9995 0
-6952 9995 542 0
6953 6745 -6950 -6954 6959 0
-6953 -6745 0
-6953 -6959 0
-6953 6954 0
-6953 6950 0
6954 -13095 13099 6955 6957 0
6954 13095 -13099 6955 6957 0
-6954 -6957 0
-6954 13095 13099 0
-6954 -6955 0
-6954 -13095 -13099 0
-6955 13094 13098 0
-6955 13094 13097 6956 0
6955 -13094 0
6955 -13097 -13098 0
6955 -13098 -6956 0
-6956 13096 13099 0
-6956 13095 13096 0
6956 -13096 0
6956 -13095 -13099 0
6957 -6728 -6958 0
-6957 6728 0
-6957 6958 0
6958 -6673 6705 -6717 0
-6958 6673 0
-6958 -6705 0
-6958 6717 0
-6959 -6728 6960 0
-6959 6958 6960 0
6959 -6960 0
6959 6728 -6958 0
6960 6674 -6704 0
-6960 -6674 0
-6960 6704 0
6961 6745 -6950 6959 -6962 0
-6961 -6745 0
-6961 6962 0
-6961 -6959 0
-6961 6950 0
6962 -13096 6963 6955 6957 0
6962 13096 -6963 6955 6957 0
-6962 -6957 0
-6962 13096 6963 0
-6962 -6955 0
-6962 -13096 -6963 0
6963 -13095 -13099 0
-6963 13095 0
-6963 13099 0
6964 6745 -6950 6959 -6965 0
-6964 -6745 0
-6964 6965 0
-6964 -6959 0
-6964 6950 0
6965 13097 6955 6957 -6966 0
6965 -13097 6955 6957 6966 0
-6965 -6957 0
-6965 -13097 -6966 0
-6965 -6955 0
-6965 13097 6966 0
6966 -13095 -13096 -13099 0
-6966 13095 0
-6966 13096 0
-6966 13099 0
6967 6745 -6950 6959 -6968 0
-6967 -6745 0
-6967 6968 0
-6967 -6959 0
-6967 6950 0
6968 13098 6955 6957 -6969 0
6968 -13098 6955 6957 6969 0
-6968 -6957 0
-6968 -13098 -6969 0
-6968 -6955 0
-6968 13098 6969 0
6969 -13097 -6966 0
-6969 13097 0
-6969 6966 0
6970 6745 -6950 6959 6971 0
-6970 -6745 0
-6970 -6971 0
-6970 -6959 0
-6970 6950 0
-6971 13099 6955 6957 0
6971 -13099 0
6971 -6955 0
6971 -6957 0
-6972 -13100 6683 -6973 0
-6972 13100 6683 6973 0
-6972 -13100 -6679 6683 0
6972 -6683 0
6972 13100 -6973 0
6972 -13100 6679 6973 0
6973 -9976 542 0
6973 -9995 542 0
6973 -13010 542 0
-6973 -542 0
-6973 9976 9995 13010 0
-6974 13101 6976 0
-6974 -6975 6976 0
6974 -6976 0
6974 -13101 6975 0
-6975 6679 6683 6973 0
6975 -6679 0
6975 -6973 0
6975 -6683 0
6976 -13100 13101 6683 -6973 0
6976 13100 -13101 6683 -6973 0
-6976 6973 0
-6976 13100 13101 0
-6976 -6683 0
-6976 -13100 -13101 0
-6977 13102 6978 0
-6977 -6975 6978 0
6977 -6978 0
6977 -13102 6975 0
6978 -13102 6683 -6973 6979 0
6978 13102 6683 -6973 -6979 0
-6978 -6683 0
-6978 -13102 -6979 0
-6978 6973 0
-6978 13102 6979 0
6979 -13100 -13101 0
-6979 13100 0
-6979 13101 0
6980 -9829 -10120 0
6980 -10120 -10121 0
6980 -9829 -10121 0
-6980 9829 10121 0
-6980 10120 10121 0
-6980 9829 10120 0
6981 -121 -6982 0
6981 -6982 -6983 0
-6981 6982 0
-6981 121 6983 0
6982 -103 -106 0
6982 -106 -104 0
-6982 106 0
-6982 103 104 0
6983 -9614 9825 0
-6983 9614 0
-6983 -9825 0
6984 -121 -6982 -6985 0
6984 -6982 -6983 -6985 0
-6984 6982 0
-6984 6985 0
-6984 121 6983 0
-6985 6983 6986 0
6985 -6983 0
6985 -6986 0
6986 -107 -6982 0
6986 -95 -6987 -6982 0
-6986 6982 0
-6986 107 6987 0
-6986 95 107 0
-6987 104 105 0
6987 -104 0
6987 -105 0
6988 6989 -6993 0
-6988 -6989 0
-6988 6993 0
6989 -6990 6991 0
-6989 6990 0
-6989 -6991 0
6990 108 -118 0
-6990 -108 0
-6990 118 0
6991 -111 -6992 0
6991 -107 -6992 0
-6991 6992 0
-6991 107 111 0
6992 -103 116 0
6992 -104 116 0
-6992 -116 0
-6992 103 104 0
-6993 121 6983 0
6993 -121 0
6993 -6983 0
6994 -6983 6989 0
6994 -121 6989 -6995 0
-6994 -6989 0
-6994 6983 6995 0
-6994 121 6983 0
-6995 6996 6999 7003 0
-6995 6990 6999 7003 0
6995 -7003 0
6995 -6999 0
6995 -6990 -6996 0
6996 -107 -6992 -6997 0
6996 -111 -6992 -6997 0
-6996 6992 0
-6996 6997 0
-6996 107 111 0
-6997 107 114 0
-6997 107 6998 0
6997 -107 0
6997 -114 -6998 0
-6998 104 117 0
6998 -104 0
6998 -117 0
6999 -7000 -7001 0
-6999 7000 0
-6999 7001 0
7000 108 -118 0
7000 107 -111 -118 0
-7000 118 0
-7000 -107 -108 0
-7000 -108 111 0
7001 -93 -7002 0
-7001 93 0
-7001 7002 0
-7002 111 109 0
7002 -111 0
7002 -109 0
-7003 92 7004 0
-7003 118 7004 0
7003 -7004 0
7003 -92 -118 0
7004 -113 118 0
-7004 113 0
-7004 -118 0
-7005 9829 10120 10121 0
7005 -9829 0
7005 -10121 0
7005 -10120 0
7006 -1005 7007 0
7006 -9745 -1001 7007 0
-7006 -7007 0
-7006 9745 1005 0
-7006 1001 1005 0
-7007 996 999 1003 1007 0
7007 -1007 0
7007 -1003 0
7007 -996 0
7007 -999 0
-7008 -13114 -7009 0
-7008 13114 7009 0
7008 13114 -7009 0
7008 -13114 7009 0
7009 -7064 7066 0
7009 -7010 7061 7066 0
-7009 -7066 0
-7009 7010 7064 0
-7009 -7061 7064 0
7010 -7011 7060 0
-7010 7011 0
-7010 -7060 0
7011 7012 -7059 0
-7011 -7012 0
-7011 7059 0
-7012 13164 7013 0
-7012 7013 -7051 0
7012 -7013 0
7012 -13164 7051 0
-7013 7014 7042 0
7013 -7014 0
7013 -7042 0
-7014 7015 7024 7033 0
7014 -7015 0
7014 -7033 0
7014 -7024 0
7015 -13144 7016 0
-7015 13144 0
-7015 -7016 0
7016 -7017 0
7016 -9743 13136 0
7016 9743 -13136 0
-7016 -9743 -13136 7017 0
-7016 9743 13136 7017 0
7017 -7018 0
7017 -13137 996 0
7017 13137 -996 0
-7017 -13137 -996 7018 0
-7017 13137 996 7018 0
7018 -7019 0
7018 -9745 13138 0
7018 9745 -13138 0
-7018 -9745 -13138 7019 0
-7018 9745 13138 7019 0
7019 -7020 0
7019 -13139 999 0
7019 13139 -999 0
-7019 -13139 -999 7020 0
-7019 13139 999 7020 0
7020 -7021 0
7020 -13140 1001 0
7020 13140 -1001 0
-7020 -13140 -1001 7021 0
-7020 13140 1001 7021 0
7021 -7022 0
7021 -13141 1003 0
7021 13141 -1003 0
-7021 -13141 -1003 7022 0
-7021 13141 1003 7022 0
7022 -7023 0
7022 -13142 1005 0
7022 13142 -1005 0
-7022 -13142 -1005 7023 0
-7022 13142 1005 7023 0
7023 13143 -1007 0
7023 -13143 1007 0
-7023 -13143 -1007 0
-7023 13143 1007 0
7024 -13134 7025 0
-7024 13134 0
-7024 -7025 0
7025 -7026 0
7025 -9743 13126 0
7025 9743 -13126 0
-7025 -9743 -13126 7026 0
-7025 9743 13126 7026 0
7026 -7027 0
7026 -13127 996 0
7026 13127 -996 0
-7026 -13127 -996 7027 0
-7026 13127 996 7027 0
7027 -7028 0
7027 -9745 13128 0
7027 9745 -13128 0
-7027 -9745 -13128 7028 0
-7027 9745 13128 7028 0
7028 -7029 0
7028 -13129 999 0
7028 13129 -999 0
-7028 -13129 -999 7029 0
-7028 13129 999 7029 0
7029 -7030 0
7029 -13130 1001 0
7029 13130 -1001 0
-7029 -13130 -1001 7030 0
-7029 13130 1001 7030 0
7030 -7031 0
7030 -13131 1003 0
7030 13131 -1003 0
-7030 -13131 -1003 7031 0
-7030 13131 1003 7031 0
7031 -7032 0
7031 -13132 1005 0
7031 13132 -1005 0
-7031 -13132 -1005 7032 0
-7031 13132 1005 7032 0
7032 13133 -1007 0
7032 -13133 1007 0
-7032 -13133 -1007 0
-7032 13133 1007 0
7033 -13125 7034 0
-7033 13125 0
-7033 -7034 0
7034 -7035 0
7034 -9743 13117 0
7034 9743 -13117 0
-7034 -9743 -13117 7035 0
-7034 9743 13117 7035 0
7035 -7036 0
7035 -13118 996 0
7035 13118 -996 0
-7035 -13118 -996 7036 0
-7035 13118 996 7036 0
7036 -7037 0
7036 -9745 13119 0
7036 9745 -13119 0
-7036 -9745 -13119 7037 0
-7036 9745 13119 7037 0
7037 -7038 0
7037 -13120 999 0
7037 13120 -999 0
-7037 -13120 -999 7038 0
-7037 13120 999 7038 0
7038 -7039 0
7038 -13121 1001 0
7038 13121 -1001 0
-7038 -13121 -1001 7039 0
-7038 13121 1001 7039 0
7039 -7040 0
7039 -13122 1003 0
7039 13122 -1003 0
-7039 -13122 -1003 7040 0
-7039 13122 1003 7040 0
7040 -7041 0
7040 -13123 1005 0
7040 13123 -1005 0
-7040 -13123 -1005 7041 0
-7040 13123 1005 7041 0
7041 13124 -1007 0
7041 -13124 1007 0
-7041 -13124 -1007 0
-7041 13124 1007 0
7042 -13154 7043 0
-7042 13154 0
-7042 -7043 0
7043 -7044 0
7043 -9743 13146 0
7043 9743 -13146 0
-7043 -9743 -13146 7044 0
-7043 9743 13146 7044 0
7044 -7045 0
7044 -13147 996 0
7044 13147 -996 0
-7044 -13147 -996 7045 0
-7044 13147 996 7045 0
7045 -7046 0
7045 -9745 13148 0
7045 9745 -13148 0
-7045 -9745 -13148 7046 0
-7045 9745 13148 7046 0
7046 -7047 0
7046 -13149 999 0
7046 13149 -999 0
-7046 -13149 -999 7047 0
-7046 13149 999 7047 0
7047 -7048 0
7047 -13150 1001 0
7047 13150 -1001 0
-7047 -13150 -1001 7048 0
-7047 13150 1001 7048 0
7048 -7049 0
7048 -13151 1003 0
7048 13151 -1003 0
-7048 -13151 -1003 7049 0
-7048 13151 1003 7049 0
7049 -7050 0
7049 -13152 1005 0
7049 13152 -1005 0
-7049 -13152 -1005 7050 0
-7049 13152 1005 7050 0
7050 13153 -1007 0
7050 -13153 1007 0
-7050 -13153 -1007 0
-7050 13153 1007 0
7051 -7052 0
7051 -9743 13156 0
7051 9743 -13156 0
-7051 -9743 -13156 7052 0
-7051 9743 13156 7052 0
7052 -7053 0
7052 -13157 996 0
7052 13157 -996 0
-7052 -13157 -996 7053 0
-7052 13157 996 7053 0
7053 -7054 0
7053 -9745 13158 0
7053 9745 -13158 0
-7053 -9745 -13158 7054 0
-7053 9745 13158 7054 0
7054 -7055 0
7054 -13159 999 0
7054 13159 -999 0
-7054 -13159 -999 7055 0
-7054 13159 999 7055 0
7055 -7056 0
7055 -13160 1001 0
7055 13160 -1001 0
-7055 -13160 -1001 7056 0
-7055 13160 1001 7056 0
7056 -7057 0
7056 -13161 1003 0
7056 13161 -1003 0
-7056 -13161 -1003 7057 0
-7056 13161 1003 7057 0
7057 -7058 0
7057 -13162 1005 0
7057 13162 -1005 0
-7057 -13162 -1005 7058 0
-7057 13162 1005 7058 0
7058 13163 -1007 0
7058 -13163 1007 0
-7058 -13163 -1007 0
-7058 13163 1007 0
-7059 -13107 -6994 0
-7059 6988 6994 0
-7059 -13107 13108 0
7059 13107 -6994 0
7059 13107 -6988 0
7059 -13108 -6988 6994 0
7060 -13115 -13116 0
7060 -13114 -13116 0
-7060 13116 0
-7060 13114 13115 0
-7061 -13105 7062 0
-7061 -13105 6981 0
-7061 6981 7062 0
-7061 -13105 -6985 0
7061 13105 -6981 0
7061 13105 -7062 0
7061 -6981 6985 -7062 0
7062 6984 -7063 0
7062 -6984 7063 0
-7062 -6984 -7063 0
-7062 6984 7063 0
7063 -13105 -13106 0
-7063 13105 0
-7063 13106 0
7064 7059 -7065 0
-7064 -7059 0
-7064 7065 0
7065 -7012 -7061 0
-7065 7012 0
-7065 7061 0
-7066 7007 0
-7066 7059 7061 0
7066 -7007 -7061 0
7066 -7007 -7059 0
-7067 -7009 7068 0
-7067 13115 7009 0
7067 -7009 -7068 0
7067 -13115 7009 0
7068 7064 -7069 0
7068 -7064 7069 0
-7068 -7064 -7069 0
-7068 7064 7069 0
7069 13114 -13115 0
7069 -13114 13115 0
-7069 -13114 -13115 0
-7069 13114 13115 0
-7070 -7009 7071 0
-7070 13116 7009 0
7070 -7009 -7071 0
7070 -13116 7009 0
7071 -7064 7073 0
7071 -13116 7064 7072 0
7071 13116 7064 -7072 0
-7071 -7064 -7073 0
-7071 -13116 7064 -7072 0
-7071 13116 7064 7072 0
7072 -13114 -13115 0
-7072 13114 0
-7072 13115 0
7073 -13116 7074 0
7073 13116 -7074 0
-7073 13116 7074 0
-7073 -13116 -7074 0
-7074 13114 13115 0
7074 -13114 0
7074 -13115 0
-7075 13117 7076 0
-7075 9743 -7076 0
7075 -13117 7076 0
7075 -9743 -7076 0
7076 -7011 7066 -7079 0
7076 -7011 7066 -7077 0
-7076 7011 0
-7076 -7066 0
-7076 7077 7079 0
7077 7060 7061 -7078 0
-7077 7078 0
-7077 -7061 0
-7077 -7060 0
7078 -13135 13145 13155 0
-7078 13135 0
-7078 -13155 0
-7078 -13145 0
7079 -7065 -7080 7081 0
-7079 7065 0
-7079 7080 0
-7079 -7081 0
7080 7015 -7024 0
7080 7015 -7033 0
-7080 -7015 0
-7080 7024 7033 0
-7081 7024 -7033 0
-7081 7024 7042 0
7081 -7024 0
7081 7033 -7042 0
7082 -13118 7076 0
-7082 13118 0
-7082 -7076 0
-7083 13119 7076 0
-7083 9745 -7076 0
7083 -13119 7076 0
7083 -9745 -7076 0
7084 -13120 7076 0
-7084 13120 0
-7084 -7076 0
-7085 13121 7076 0
-7085 1001 -7076 0
7085 -1001 -7076 0
7085 -13121 7076 0
7086 -13122 7076 0
-7086 13122 0
-7086 -7076 0
-7087 13123 7076 0
-7087 1005 -7076 0
7087 -1005 -7076 0
7087 -13123 7076 0
7088 -13124 7076 0
-7088 13124 0
-7088 -7076 0
-7089 -7009 7090 0
-7089 13125 7009 0
7089 -7009 -7090 0
7089 -13125 7009 0
-7090 13125 7091 0
-7090 7034 7011 0
-7090 7034 7091 0
-7090 13125 7011 0
7090 -13125 -7034 0
7090 -7011 -7091 0
-7091 13125 -13155 0
-7091 13125 13135 0
-7091 13125 -13145 0
7091 -13125 0
7091 -13135 13145 13155 0
-7092 13126 7093 0
-7092 9743 -7093 0
7092 -13126 7093 0
7092 -9743 -7093 0
7093 -7011 7066 -7096 0
7093 -7011 7066 -7094 0
-7093 7011 0
-7093 -7066 0
-7093 7094 7096 0
7094 7060 7061 -7095 0
-7094 7095 0
-7094 -7061 0
-7094 -7060 0
7095 -13135 13145 -13155 0
-7095 13135 0
-7095 -13145 0
-7095 13155 0
7096 7015 -7024 -7065 0
-7096 7065 0
-7096 7024 0
-7096 -7015 0
7097 -13127 7093 0
-7097 13127 0
-7097 -7093 0
-7098 13128 7093 0
-7098 9745 -7093 0
7098 -13128 7093 0
7098 -9745 -7093 0
7099 -13129 7093 0
-7099 13129 0
-7099 -7093 0
-7100 13130 7093 0
-7100 1001 -7093 0
7100 -1001 -7093 0
7100 -13130 7093 0
7101 -13131 7093 0
-7101 13131 0
-7101 -7093 0
-7102 13132 7093 0
-7102 1005 -7093 0
7102 -1005 -7093 0
7102 -13132 7093 0
7103 -13133 7093 0
-7103 13133 0
-7103 -7093 0
-7104 -7009 7105 0
-7104 13134 7009 0
7104 -7009 -7105 0
7104 -13134 7009 0
-7105 13134 7106 0
-7105 7025 7011 0
-7105 7025 7106 0
-7105 13134 7011 0
7105 -13134 -7025 0
7105 -7011 -7106 0
-7106 13134 13135 0
-7106 13134 13155 0
-7106 13134 -13145 0
7106 -13134 0
7106 -13135 13145 -13155 0
-7107 -7009 7108 0
-7107 13135 7009 0
7107 -7009 -7108 0
7107 -13135 7009 0
-7108 7080 7112 0
-7108 7080 -7109 0
-7108 7011 7080 0
7108 -7080 0
7108 -7011 7109 -7112 0
7109 -7091 -7106 7111 0
7109 -7091 -7106 7110 0
-7109 7091 0
-7109 7106 0
-7109 -7110 -7111 0
7110 -13135 -13164 0
-7110 13135 0
-7110 13164 0
-7111 -13145 13154 0
-7111 13154 13155 0
-7111 -13135 13154 0
7111 -13154 0
7111 13135 13145 -13155 0
-7112 13144 -13155 0
-7112 -13135 13144 0
-7112 13144 13145 0
7112 -13144 0
7112 13135 -13145 13155 0
-7113 13136 7114 0
-7113 9743 -7114 0
7113 -13136 7114 0
7113 -9743 -7114 0
7114 -7011 7066 -7117 0
7114 -7011 7066 -7115 0
-7114 7011 0
-7114 -7066 0
-7114 7115 7117 0
7115 7060 7061 -7116 0
-7115 7116 0
-7115 -7061 0
-7115 -7060 0
7116 13135 -13145 13155 0
-7116 -13135 0
-7116 13145 0
-7116 -13155 0
7117 -7015 -7065 0
-7117 7015 0
-7117 7065 0
7118 -13137 7114 0
-7118 13137 0
-7118 -7114 0
-7119 13138 7114 0
-7119 9745 -7114 0
7119 -13138 7114 0
7119 -9745 -7114 0
7120 -13139 7114 0
-7120 13139 0
-7120 -7114 0
-7121 13140 7114 0
-7121 1001 -7114 0
7121 -1001 -7114 0
7121 -13140 7114 0
7122 -13141 7114 0
-7122 13141 0
-7122 -7114 0
-7123 13142 7114 0
-7123 1005 -7114 0
7123 -1005 -7114 0
7123 -13142 7114 0
7124 -13143 7114 0
-7124 13143 0
-7124 -7114 0
-7125 -7009 7126 0
-7125 13144 7009 0
7125 -7009 -7126 0
7125 -13144 7009 0
-7126 13144 7112 0
-7126 7016 7011 0
-7126 7016 7112 0
-7126 13144 7011 0
7126 -13144 -7016 0
7126 -7011 -7112 0
-7127 -7009 7128 0
-7127 13145 7009 0
7127 -7009 -7128 0
7127 -13145 7009 0
-7128 7015 7011 0
-7128 7015 -7112 7129 0
7128 -7015 0
7128 -7011 7112 0
7128 -7011 -7129 0
7129 -7091 -7106 -7111 -7130 0
-7129 7130 0
-7129 7111 0
-7129 7091 0
-7129 7106 0
7130 -13145 -13164 0
-7130 13145 0
-7130 13164 0
-7131 13146 7132 0
-7131 9743 -7132 0
7131 -13146 7132 0
7131 -9743 -7132 0
7132 -7011 7066 -7135 0
7132 -7011 7066 -7133 0
-7132 7011 0
-7132 -7066 0
-7132 7133 7135 0
7133 7060 7061 -7134 0
-7133 7134 0
-7133 -7061 0
-7133 -7060 0
7134 13135 13145 -13155 0
-7134 13155 0
-7134 -13145 0
-7134 -13135 0
7135 7014 -7065 -7081 0
-7135 -7014 0
-7135 7065 0
-7135 7081 0
7136 -13147 7132 0
-7136 13147 0
-7136 -7132 0
-7137 13148 7132 0
-7137 9745 -7132 0
7137 -13148 7132 0
7137 -9745 -7132 0
7138 -13149 7132 0
-7138 13149 0
-7138 -7132 0
-7139 13150 7132 0
-7139 1001 -7132 0
7139 -1001 -7132 0
7139 -13150 7132 0
7140 -13151 7132 0
-7140 13151 0
-7140 -7132 0
-7141 13152 7132 0
-7141 1005 -7132 0
7141 -1005 -7132 0
7141 -13152 7132 0
7142 -13153 7132 0
-7142 13153 0
-7142 -7132 0
-7143 -7009 7144 0
-7143 13154 7009 0
7143 -7009 -7144 0
7143 -13154 7009 0
-7144 13154 7111 0
-7144 7043 7011 0
-7144 7043 7111 0
-7144 13154 7011 0
7144 -13154 -7043 0
7144 -7011 -7111 0
-7145 -7009 7146 0
-7145 13155 7009 0
7145 -7009 -7146 0
7145 -13155 7009 0
-7146 -7015 7147 0
-7146 7081 7147 0
7146 -7147 0
7146 7015 -7081 0
7147 -7011 -7112 -7148 0
7147 -7011 7106 -7112 0
-7147 7011 0
-7147 7112 0
-7147 -7106 7148 0
7148 -7091 7111 0
7148 -13155 -13164 -7091 0
-7148 7091 0
-7148 13164 -7111 0
-7148 13155 -7111 0
-7149 13156 7150 0
-7149 9743 -7150 0
7149 -13156 7150 0
7149 -9743 -7150 0
7150 -7011 7066 -7153 0
7150 -7011 7066 7151 0
-7150 7011 0
-7150 -7066 0
-7150 -7151 7153 0
-7151 7060 7061 7152 0
7151 -7152 0
7151 -7061 0
7151 -7060 0
-7152 13135 13145 13155 0
7152 -13135 0
7152 -13155 0
7152 -13145 0
7153 7013 -7065 0
-7153 -7013 0
-7153 7065 0
7154 -13157 7150 0
-7154 13157 0
-7154 -7150 0
-7155 13158 7150 0
-7155 9745 -7150 0
7155 -13158 7150 0
7155 -9745 -7150 0
7156 -13159 7150 0
-7156 13159 0
-7156 -7150 0
-7157 13160 7150 0
-7157 1001 -7150 0
7157 -1001 -7150 0
7157 -13160 7150 0
7158 -13161 7150 0
-7158 13161 0
-7158 -7150 0
-7159 13162 7150 0
-7159 1005 -7150 0
7159 -1005 -7150 0
7159 -13162 7150 0
7160 -13163 7150 0
-7160 13163 0
-7160 -7150 0
-7161 -7009 7162 0
-7161 13164 7009 0
7161 -7009 -7162 0
7161 -13164 7009 0
-7162 13164 -7163 0
-7162 7051 7011 0
-7162 7051 -7163 0
-7162 13164 7011 0
7162 -13164 -7051 0
7162 -7011 7163 0
7163 -13135 13164 0
7163 -13145 13164 0
7163 -13155 13164 0
-7163 -13164 0
-7163 13135 13145 13155 0
7164 7007 -7012 -7059 7061 0
-7164 -7061 0
-7164 7059 0
-7164 -7007 0
-7164 7012 0
7165 7012 -7059 -7060 7066 0
-7165 -7066 0
-7165 -7012 0
-7165 7060 0
-7165 7059 0
7166 -120 -6993 0
7166 13167 -6993 0
-7166 6993 0
-7166 -13167 120 0
7167 -13167 -13168 -6983 0
-7167 13167 0
-7167 13168 0
-7167 6983 0
7168 -120 -7169 0
7168 13169 -7169 0
-7168 7169 0
-7168 -13169 120 0
-7169 13167 6993 0
7169 -13167 0
7169 -6993 0
7170 13170 -7169 0
-7170 -13170 0
-7170 7169 0
7171 13171 -7169 0
-7171 -13171 0
-7171 7169 0
7172 13172 -7169 0
-7172 -13172 0
-7172 7169 0
7173 13173 -7169 0
-7173 -13173 0
-7173 7169 0
7174 13174 -7169 0
-7174 -13174 0
-7174 7169 0
7175 13175 -7169 0
-7175 -13175 0
-7175 7169 0
7176 13176 -7169 0
-7176 -13176 0
-7176 7169 0
7177 13177 -7169 0
-7177 -13177 0
-7177 7169 0
7178 13178 -7169 0
-7178 -13178 0
-7178 7169 0
7179 13179 -7169 0
-7179 -13179 0
-7179 7169 0
7180 13180 -7169 0
-7180 -13180 0
-7180 7169 0
7181 13181 -7169 0
-7181 -13181 0
-7181 7169 0
7182 13182 -7169 0
-7182 -13182 0
-7182 7169 0
7183 13183 -7169 0
-7183 -13183 0
-7183 7169 0
7184 13184 -7169 0
-7184 -13184 0
-7184 7169 0
7185 13185 -7169 0
-7185 -13185 0
-7185 7169 0
7186 13186 -7169 0
-7186 -13186 0
-7186 7169 0
7187 13187 -7169 0
-7187 -13187 0
-7187 7169 0
7188 13188 -7169 0
-7188 -13188 0
-7188 7169 0
7189 13189 -7169 0
-7189 -13189 0
-7189 7169 0
7190 13190 -7169 0
-7190 -13190 0
-7190 7169 0
7191 13191 -7169 0
-7191 -13191 0
-7191 7169 0
7192 13192 -7169 0
-7192 -13192 0
-7192 7169 0
7193 13193 -7169 0
-7193 -13193 0
-7193 7169 0
7194 13194 -7169 0
-7194 -13194 0
-7194 7169 0
7195 13195 -7169 0
-7195 -13195 0
-7195 7169 0
7196 13196 -7169 0
-7196 -13196 0
-7196 7169 0
7197 13197 -7169 0
-7197 -13197 0
-7197 7169 0
7198 13198 -7169 0
-7198 -13198 0
-7198 7169 0
7199 13199 -7169 0
-7199 -13199 0
-7199 7169 0
7200 13200 -7169 0
-7200 -13200 0
-7200 7169 0
7201 13201 -7169 0
-7201 -13201 0
-7201 7169 0
7202 13202 -7203 0
7202 6983 -7203 0
-7202 7203 0
-7202 -13202 -6983 0
-7203 13202 6993 0
-7203 6993 7204 0
-7203 13169 6993 0
7203 -6993 0
7203 -13169 -13202 -7204 0
-7204 13199 13200 13201 7205 0
7204 -7205 0
7204 -13201 0
7204 -13199 0
7204 -13200 0
-7205 13196 13197 13198 7206 0
7205 -7206 0
7205 -13198 0
7205 -13196 0
7205 -13197 0
-7206 13193 13194 13195 7207 0
7206 -7207 0
7206 -13195 0
7206 -13193 0
7206 -13194 0
-7207 13190 13191 13192 7208 0
7207 -7208 0
7207 -13192 0
7207 -13190 0
7207 -13191 0
-7208 13187 13188 13189 7209 0
7208 -7209 0
7208 -13189 0
7208 -13187 0
7208 -13188 0
-7209 13184 13185 13186 7210 0
7209 -7210 0
7209 -13186 0
7209 -13184 0
7209 -13185 0
-7210 13181 13182 13183 7211 0
7210 -7211 0
7210 -13183 0
7210 -13181 0
7210 -13182 0
-7211 13178 13179 13180 7212 0
7211 -7212 0
7211 -13180 0
7211 -13178 0
7211 -13179 0
-7212 13176 13177 0
7212 -13176 0
7212 -13177 0
-7213 13203 7214 0
-7213 6983 7214 0
7213 -7214 0
7213 -13203 -6983 0
7214 -13202 13203 -7215 0
7214 -13202 7204 -7215 0
7214 13202 -13203 -7204 -7215 0
-7214 13202 7204 0
-7214 -13202 -13203 -7204 0
-7214 7215 0
-7214 13202 13203 0
7215 -13169 6993 0
-7215 13169 0
-7215 -6993 0
-7216 13204 7217 0
-7216 6983 7217 0
7216 -7217 0
7216 -13204 -6983 0
7217 -7204 -7215 -7218 0
7217 -13203 7204 -7215 0
-7217 7215 0
-7217 -7204 7218 0
-7217 13203 7204 0
7218 13204 -7219 0
7218 -13204 7219 0
-7218 -13204 -7219 0
-7218 13204 7219 0
7219 -13202 -13203 0
-7219 13202 0
-7219 13203 0
-7220 13205 7221 0
-7220 6983 7221 0
7220 -7221 0
7220 -13205 -6983 0
7221 -7204 -7215 -7222 0
7221 -13204 7204 -7215 0
-7221 7215 0
-7221 -7204 7222 0
-7221 13204 7204 0
7222 13205 -7223 0
7222 -13205 7223 0
-7222 -13205 -7223 0
-7222 13205 7223 0
7223 -13202 -13203 -13204 0
-7223 13202 0
-7223 13203 0
-7223 13204 0
-7224 13206 7225 0
-7224 6983 7225 0
7224 -7225 0
7224 -13206 -6983 0
7225 -7204 -7215 -7226 0
7225 -13205 7204 -7215 0
-7225 7215 0
-7225 -7204 7226 0
-7225 13205 7204 0
7226 13206 -7227 0
7226 -13206 7227 0
-7226 -13206 -7227 0
-7226 13206 7227 0
7227 -13205 -7223 0
-7227 13205 0
-7227 7223 0
-7228 13207 7229 0
-7228 6983 7229 0
7228 -7229 0
7228 -13207 -6983 0
7229 -7204 -7215 -7230 0
7229 -13206 7204 -7215 0
-7229 7215 0
-7229 -7204 7230 0
-7229 13206 7204 0
7230 13207 -7231 0
7230 -13207 7231 0
-7230 -13207 -7231 0
-7230 13207 7231 0
7231 -13206 -7227 0
-7231 13206 0
-7231 7227 0
-7232 13208 7233 0
-7232 6983 7233 0
7232 -7233 0
7232 -13208 -6983 0
7233 -7204 -7215 -7234 0
7233 -13207 7204 -7215 0
-7233 7215 0
-7233 -7204 7234 0
-7233 13207 7204 0
7234 13208 -7235 0
7234 -13208 7235 0
-7234 -13208 -7235 0
-7234 13208 7235 0
7235 -13207 -7231 0
-7235 13207 0
-7235 7231 0
-7236 13209 7237 0
-7236 6983 7237 0
7236 -7237 0
7236 -13209 -6983 0
7237 -7204 -7215 -7238 0
7237 -13208 7204 -7215 0
-7237 7215 0
-7237 -7204 7238 0
-7237 13208 7204 0
7238 13209 -7239 0
7238 -13209 7239 0
-7238 -13209 -7239 0
-7238 13209 7239 0
7239 -13208 -7235 0
-7239 13208 0
-7239 7235 0
-7240 13210 7241 0
-7240 6983 7241 0
7240 -7241 0
7240 -13210 -6983 0
7241 -7204 -7215 -7242 0
7241 -13209 7204 -7215 0
-7241 7215 0
-7241 -7204 7242 0
-7241 13209 7204 0
7242 13210 -7243 0
7242 -13210 7243 0
-7242 -13210 -7243 0
-7242 13210 7243 0
7243 -13209 -7239 0
-7243 13209 0
-7243 7239 0
-7244 13211 7245 0
-7244 6983 7245 0
7244 -7245 0
7244 -13211 -6983 0
7245 -7204 -7215 -7246 0
7245 -13210 7204 -7215 0
-7245 7215 0
-7245 -7204 7246 0
-7245 13210 7204 0
7246 13211 -7247 0
7246 -13211 7247 0
-7246 -13211 -7247 0
-7246 13211 7247 0
7247 -13210 -7243 0
-7247 13210 0
-7247 7243 0
-7248 13212 7249 0
-7248 6983 7249 0
7248 -7249 0
7248 -13212 -6983 0
7249 -7204 -7215 -7250 0
7249 -13211 7204 -7215 0
-7249 7215 0
-7249 -7204 7250 0
-7249 13211 7204 0
7250 13212 -7251 0
7250 -13212 7251 0
-7250 -13212 -7251 0
-7250 13212 7251 0
7251 -13211 -7247 0
-7251 13211 0
-7251 7247 0
-7252 13213 7253 0
-7252 6983 7253 0
7252 -7253 0
7252 -13213 -6983 0
7253 -7204 -7215 -7254 0
7253 -13212 7204 -7215 0
-7253 7215 0
-7253 -7204 7254 0
-7253 13212 7204 0
7254 13213 -7255 0
7254 -13213 7255 0
-7254 -13213 -7255 0
-7254 13213 7255 0
7255 -13212 -7251 0
-7255 13212 0
-7255 7251 0
-7256 13214 7257 0
-7256 6983 7257 0
7256 -7257 0
7256 -13214 -6983 0
7257 -7204 -7215 -7258 0
7257 -13213 7204 -7215 0
-7257 7215 0
-7257 -7204 7258 0
-7257 13213 7204 0
7258 13214 -7259 0
7258 -13214 7259 0
-7258 -13214 -7259 0
-7258 13214 7259 0
7259 -13213 -7255 0
-7259 13213 0
-7259 7255 0
-7260 13215 7261 0
-7260 6983 7261 0
7260 -7261 0
7260 -13215 -6983 0
7261 -7204 -7215 -7262 0
7261 -13214 7204 -7215 0
-7261 7215 0
-7261 -7204 7262 0
-7261 13214 7204 0
7262 13215 -7263 0
7262 -13215 7263 0
-7262 -13215 -7263 0
-7262 13215 7263 0
7263 -13214 -7259 0
-7263 13214 0
-7263 7259 0
-7264 13216 7265 0
-7264 6983 7265 0
7264 -7265 0
7264 -13216 -6983 0
7265 -7204 -7215 -7266 0
7265 -13215 7204 -7215 0
-7265 7215 0
-7265 -7204 7266 0
-7265 13215 7204 0
7266 13216 -7267 0
7266 -13216 7267 0
-7266 -13216 -7267 0
-7266 13216 7267 0
7267 -13215 -7263 0
-7267 13215 0
-7267 7263 0
-7268 13217 7269 0
-7268 6983 7269 0
7268 -7269 0
7268 -13217 -6983 0
7269 -7204 -7215 -7270 0
7269 -13216 7204 -7215 0
-7269 7215 0
-7269 -7204 7270 0
-7269 13216 7204 0
7270 13217 -7271 0
7270 -13217 7271 0
-7270 -13217 -7271 0
-7270 13217 7271 0
7271 -13216 -7267 0
-7271 13216 0
-7271 7267 0
-7272 13218 7273 0
-7272 6983 7273 0
7272 -7273 0
7272 -13218 -6983 0
7273 -7204 -7215 -7274 0
7273 -13217 7204 -7215 0
-7273 7215 0
-7273 -7204 7274 0
-7273 13217 7204 0
7274 13218 -7275 0
7274 -13218 7275 0
-7274 -13218 -7275 0
-7274 13218 7275 0
7275 -13217 -7271 0
-7275 13217 0
-7275 7271 0
-7276 13219 7277 0
-7276 6983 7277 0
7276 -7277 0
7276 -13219 -6983 0
7277 -7204 -7215 -7278 0
7277 -13218 7204 -7215 0
-7277 7215 0
-7277 -7204 7278 0
-7277 13218 7204 0
7278 13219 -7279 0
7278 -13219 7279 0
-7278 -13219 -7279 0
-7278 13219 7279 0
7279 -13218 -7275 0
-7279 13218 0
-7279 7275 0
-7280 13220 7281 0
-7280 6983 7281 0
7280 -7281 0
7280 -13220 -6983 0
7281 -7204 -7215 -7282 0
7281 -13219 7204 -7215 0
-7281 7215 0
-7281 -7204 7282 0
-7281 13219 7204 0
7282 13220 -7283 0
7282 -13220 7283 0
-7282 -13220 -7283 0
-7282 13220 7283 0
7283 -13219 -7279 0
-7283 13219 0
-7283 7279 0
-7284 13221 7285 0
-7284 6983 7285 0
7284 -7285 0
7284 -13221 -6983 0
7285 -7204 -7215 -7286 0
7285 -13220 7204 -7215 0
-7285 7215 0
-7285 -7204 7286 0
-7285 13220 7204 0
7286 13221 -7287 0
7286 -13221 7287 0
-7286 -13221 -7287 0
-7286 13221 7287 0
7287 -13220 -7283 0
-7287 13220 0
-7287 7283 0
-7288 13222 7289 0
-7288 6983 7289 0
7288 -7289 0
7288 -13222 -6983 0
7289 -7204 -7215 -7290 0
7289 -13221 7204 -7215 0
-7289 7215 0
-7289 -7204 7290 0
-7289 13221 7204 0
7290 13222 -7291 0
7290 -13222 7291 0
-7290 -13222 -7291 0
-7290 13222 7291 0
7291 -13221 -7287 0
-7291 13221 0
-7291 7287 0
-7292 13223 7293 0
-7292 6983 7293 0
7292 -7293 0
7292 -13223 -6983 0
7293 -7204 -7215 -7294 0
7293 -13222 7204 -7215 0
-7293 7215 0
-7293 -7204 7294 0
-7293 13222 7204 0
7294 13223 -7295 0
7294 -13223 7295 0
-7294 -13223 -7295 0
-7294 13223 7295 0
7295 -13222 -7291 0
-7295 13222 0
-7295 7291 0
-7296 13224 7297 0
-7296 6983 7297 0
7296 -7297 0
7296 -13224 -6983 0
7297 -7204 -7215 -7298 0
7297 -13223 7204 -7215 0
-7297 7215 0
-7297 -7204 7298 0
-7297 13223 7204 0
7298 13224 -7299 0
7298 -13224 7299 0
-7298 -13224 -7299 0
-7298 13224 7299 0
7299 -13223 -7295 0
-7299 13223 0
-7299 7295 0
-7300 13225 7301 0
-7300 6983 7301 0
7300 -7301 0
7300 -13225 -6983 0
7301 -7204 -7215 -7302 0
7301 -13224 7204 -7215 0
-7301 7215 0
-7301 -7204 7302 0
-7301 13224 7204 0
7302 13225 -7303 0
7302 -13225 7303 0
-7302 -13225 -7303 0
-7302 13225 7303 0
7303 -13224 -7299 0
-7303 13224 0
-7303 7299 0
-7304 13226 7305 0
-7304 6983 7305 0
7304 -7305 0
7304 -13226 -6983 0
7305 -7204 -7215 -7306 0
7305 -13225 7204 -7215 0
-7305 7215 0
-7305 -7204 7306 0
-7305 13225 7204 0
7306 13226 -7307 0
7306 -13226 7307 0
-7306 -13226 -7307 0
-7306 13226 7307 0
7307 -13225 -7303 0
-7307 13225 0
-7307 7303 0
-7308 13227 7309 0
-7308 6983 7309 0
7308 -7309 0
7308 -13227 -6983 0
7309 -7204 -7215 -7310 0
7309 -13226 7204 -7215 0
-7309 7215 0
-7309 -7204 7310 0
-7309 13226 7204 0
7310 13227 -7311 0
7310 -13227 7311 0
-7310 -13227 -7311 0
-7310 13227 7311 0
7311 -13226 -7307 0
-7311 13226 0
-7311 7307 0
-7312 13228 7313 0
-7312 6983 7313 0
7312 -7313 0
7312 -13228 -6983 0
7313 -7204 -7215 -7314 0
7313 -13227 7204 -7215 0
-7313 7215 0
-7313 -7204 7314 0
-7313 13227 7204 0
7314 13228 -7315 0
7314 -13228 7315 0
-7314 -13228 -7315 0
-7314 13228 7315 0
7315 -13227 -7311 0
-7315 13227 0
-7315 7311 0
-7316 13229 7317 0
-7316 6983 7317 0
7316 -7317 0
7316 -13229 -6983 0
7317 -7204 -7215 -7318 0
7317 -13228 7204 -7215 0
-7317 7215 0
-7317 -7204 7318 0
-7317 13228 7204 0
7318 13229 -7319 0
7318 -13229 7319 0
-7318 -13229 -7319 0
-7318 13229 7319 0
7319 -13228 -7315 0
-7319 13228 0
-7319 7315 0
-7320 13230 7321 0
-7320 6983 7321 0
7320 -7321 0
7320 -13230 -6983 0
7321 -7204 -7215 -7322 0
7321 -13229 7204 -7215 0
-7321 7215 0
-7321 -7204 7322 0
-7321 13229 7204 0
7322 13230 -7323 0
7322 -13230 7323 0
-7322 -13230 -7323 0
-7322 13230 7323 0
7323 -13229 -7319 0
-7323 13229 0
-7323 7319 0
-7324 13231 7325 0
-7324 6983 7325 0
7324 -7325 0
7324 -13231 -6983 0
7325 -7204 -7215 -7326 0
7325 -13230 7204 -7215 0
-7325 7215 0
-7325 -7204 7326 0
-7325 13230 7204 0
7326 13231 -7327 0
7326 -13231 7327 0
-7326 -13231 -7327 0
-7326 13231 7327 0
7327 -13230 -7323 0
-7327 13230 0
-7327 7323 0
-7328 13232 7329 0
-7328 6983 7329 0
7328 -7329 0
7328 -13232 -6983 0
7329 -7204 -7215 -7330 0
7329 -13231 7204 -7215 0
-7329 7215 0
-7329 -7204 7330 0
-7329 13231 7204 0
7330 13232 -7331 0
7330 -13232 7331 0
-7330 -13232 -7331 0
-7330 13232 7331 0
7331 -13231 -7327 0
-7331 13231 0
-7331 7327 0
-7332 13233 7333 0
-7332 6983 7333 0
7332 -7333 0
7332 -13233 -6983 0
7333 -7204 -7215 -7334 0
7333 -13232 7204 -7215 0
-7333 7215 0
-7333 -7204 7334 0
-7333 13232 7204 0
7334 13233 -7335 0
7334 -13233 7335 0
-7334 -13233 -7335 0
-7334 13233 7335 0
7335 -13232 -7331 0
-7335 13232 0
-7335 7331 0
7336 -13169 -120 -7338 0
7336 -13169 -120 -7337 0
-7336 13169 0
-7336 120 0
-7336 7337 7338 0
7337 -13170 13202 7204 0
-7337 13170 0
-7337 -13202 0
-7337 -7204 0
7338 13231 13232 13233 -7339 0
-7338 7339 0
-7338 -13233 0
-7338 -13231 0
-7338 -13232 0
7339 13228 13229 13230 -7340 0
-7339 7340 0
-7339 -13230 0
-7339 -13228 0
-7339 -13229 0
7340 13225 13226 13227 -7341 0
-7340 7341 0
-7340 -13227 0
-7340 -13225 0
-7340 -13226 0
7341 13222 13223 13224 -7342 0
-7341 7342 0
-7341 -13224 0
-7341 -13222 0
-7341 -13223 0
7342 13219 13220 13221 -7343 0
-7342 7343 0
-7342 -13221 0
-7342 -13219 0
-7342 -13220 0
7343 13216 13217 13218 -7344 0
-7343 7344 0
-7343 -13218 0
-7343 -13216 0
-7343 -13217 0
7344 13213 13214 13215 -7345 0
-7344 7345 0
-7344 -13215 0
-7344 -13213 0
-7344 -13214 0
7345 13210 13211 13212 -7346 0
-7345 7346 0
-7345 -13212 0
-7345 -13210 0
-7345 -13211 0
7346 13207 13208 13209 -7347 0
-7346 7347 0
-7346 -13209 0
-7346 -13207 0
-7346 -13208 0
7347 13204 13205 13206 -7348 0
-7347 7348 0
-7347 -13206 0
-7347 -13204 0
-7347 -13205 0
7348 -13170 13202 13203 0
-7348 13170 0
-7348 -13203 0
-7348 -13202 0
-7349 120 6993 0
-7349 13235 120 0
7349 -120 0
7349 -13235 -6993 0
7350 -13236 -6983 0
-7350 13236 0
-7350 6983 0
-7351 6993 7352 0
-7351 13237 7352 0
7351 -7352 0
7351 -13237 -6993 0
7352 13235 13236 -120 0
-7352 120 0
-7352 -13236 0
-7352 -13235 0
-7353 13238 7352 0
7353 -13238 0
7353 -7352 0
-7354 13239 7352 0
7354 -13239 0
7354 -7352 0
-7355 13240 7352 0
7355 -13240 0
7355 -7352 0
-7356 120 6993 0
-7356 13241 120 0
7356 -120 0
7356 -13241 -6993 0
-7357 13242 7358 0
-7357 6983 7358 0
7357 -7358 0
7357 -13242 -6983 0
7358 -13241 -7359 0
-7358 13241 0
-7358 7359 0
7359 -13237 -120 0
-7359 13237 0
-7359 120 0
-7360 13243 7361 0
-7360 6983 7361 0
7360 -7361 0
7360 -13243 -6983 0
7361 -13242 -7359 0
-7361 13242 0
-7361 7359 0
-7362 13244 7363 0
-7362 6983 7363 0
7362 -7363 0
7362 -13244 -6983 0
7363 -13243 -7359 0
-7363 13243 0
-7363 7359 0
-7364 13245 7365 0
-7364 6983 7365 0
7364 -7365 0
7364 -13245 -6983 0
7365 -13244 -7359 0
-7365 13244 0
-7365 7359 0
-7366 13246 7367 0
-7366 6983 7367 0
7366 -7367 0
7366 -13246 -6983 0
7367 -13245 -7359 0
-7367 13245 0
-7367 7359 0
-7368 13247 7369 0
-7368 6983 7369 0
7368 -7369 0
7368 -13247 -6983 0
7369 -13246 -7359 0
-7369 13246 0
-7369 7359 0
-7370 13248 7371 0
-7370 6983 7371 0
7370 -7371 0
7370 -13248 -6983 0
7371 -13247 -7359 0
-7371 13247 0
-7371 7359 0
-7372 13249 7373 0
-7372 6983 7373 0
7372 -7373 0
7372 -13249 -6983 0
7373 -13248 -7359 0
-7373 13248 0
-7373 7359 0
-7374 13250 7375 0
-7374 6983 7375 0
7374 -7375 0
7374 -13250 -6983 0
7375 -13249 -7359 0
-7375 13249 0
-7375 7359 0
-7376 13251 7377 0
-7376 6983 7377 0
7376 -7377 0
7376 -13251 -6983 0
7377 -13250 -7359 0
-7377 13250 0
-7377 7359 0
-7378 13252 7379 0
-7378 6983 7379 0
7378 -7379 0
7378 -13252 -6983 0
7379 -13251 -7359 0
-7379 13251 0
-7379 7359 0
-7380 13253 7381 0
-7380 6983 7381 0
7380 -7381 0
7380 -13253 -6983 0
7381 -13252 -7359 0
-7381 13252 0
-7381 7359 0
-7382 13254 7383 0
-7382 6983 7383 0
7382 -7383 0
7382 -13254 -6983 0
7383 -13253 -7359 0
-7383 13253 0
-7383 7359 0
-7384 13255 7385 0
-7384 6983 7385 0
7384 -7385 0
7384 -13255 -6983 0
7385 -13254 -7359 0
-7385 13254 0
-7385 7359 0
-7386 13256 7387 0
-7386 6983 7387 0
7386 -7387 0
7386 -13256 -6983 0
7387 -13255 -7359 0
-7387 13255 0
-7387 7359 0
-7388 13257 7389 0
-7388 6983 7389 0
7388 -7389 0
7388 -13257 -6983 0
7389 -13256 -7359 0
-7389 13256 0
-7389 7359 0
-7390 13258 7391 0
-7390 6983 7391 0
7390 -7391 0
7390 -13258 -6983 0
7391 -13257 -7359 0
-7391 13257 0
-7391 7359 0
-7392 13259 7393 0
-7392 6983 7393 0
7392 -7393 0
7392 -13259 -6983 0
7393 -13258 -7359 0
-7393 13258 0
-7393 7359 0
-7394 13260 7395 0
-7394 6983 7395 0
7394 -7395 0
7394 -13260 -6983 0
7395 -13259 -7359 0
-7395 13259 0
-7395 7359 0
-7396 13261 7397 0
-7396 6983 7397 0
7396 -7397 0
7396 -13261 -6983 0
7397 -13260 -7359 0
-7397 13260 0
-7397 7359 0
-7398 13262 7399 0
-7398 6983 7399 0
7398 -7399 0
7398 -13262 -6983 0
7399 -13261 -7359 0
-7399 13261 0
-7399 7359 0
-7400 13263 7401 0
-7400 6983 7401 0
7400 -7401 0
7400 -13263 -6983 0
7401 -13262 -7359 0
-7401 13262 0
-7401 7359 0
-7402 13264 7403 0
-7402 6983 7403 0
7402 -7403 0
7402 -13264 -6983 0
7403 -13263 -7359 0
-7403 13263 0
-7403 7359 0
-7404 13265 7405 0
-7404 6983 7405 0
7404 -7405 0
7404 -13265 -6983 0
7405 -13264 -7359 0
-7405 13264 0
-7405 7359 0
-7406 13266 7407 0
-7406 6983 7407 0
7406 -7407 0
7406 -13266 -6983 0
7407 -13265 -7359 0
-7407 13265 0
-7407 7359 0
-7408 13267 7409 0
-7408 6983 7409 0
7408 -7409 0
7408 -13267 -6983 0
7409 -13266 -7359 0
-7409 13266 0
-7409 7359 0
-7410 13268 7411 0
-7410 6983 7411 0
7410 -7411 0
7410 -13268 -6983 0
7411 -13267 -7359 0
-7411 13267 0
-7411 7359 0
-7412 13269 7413 0
-7412 6983 7413 0
7412 -7413 0
7412 -13269 -6983 0
7413 -13268 -7359 0
-7413 13268 0
-7413 7359 0
-7414 13270 7415 0
-7414 6983 7415 0
7414 -7415 0
7414 -13270 -6983 0
7415 -13269 -7359 0
-7415 13269 0
-7415 7359 0
-7416 13271 7417 0
-7416 6983 7417 0
7416 -7417 0
7416 -13271 -6983 0
7417 -13270 -7359 0
-7417 13270 0
-7417 7359 0
-7418 13272 7419 0
-7418 6983 7419 0
7418 -7419 0
7418 -13272 -6983 0
7419 -13271 -7359 0
-7419 13271 0
-7419 7359 0
7420 -13237 -13238 13241 6993 0
-7420 -6993 0
-7420 13237 0
-7420 13238 0
-7420 -13241 0
7421 -13237 -120 7435 0
7421 -13237 -120 -7422 0
-7421 13237 0
-7421 120 0
-7421 7422 -7435 0
-7422 13244 7423 -7434 0
-7422 13241 7423 7434 0
7422 -7423 0
7422 -13241 7434 0
7422 -13244 -7434 0
7423 13239 13240 -7424 0
7423 13239 13240 -13241 0
-7423 -13239 0
-7423 -13240 0
-7423 13241 7424 0
-7424 13242 13243 13244 7425 0
7424 -7425 0
7424 -13244 0
7424 -13242 0
7424 -13243 0
-7425 13245 13246 13247 7426 0
7425 -7426 0
7425 -13247 0
7425 -13245 0
7425 -13246 0
-7426 13248 13249 13250 7427 0
7426 -7427 0
7426 -13250 0
7426 -13248 0
7426 -13249 0
-7427 13251 13252 13253 7428 0
7427 -7428 0
7427 -13253 0
7427 -13251 0
7427 -13252 0
-7428 13254 13255 13256 7429 0
7428 -7429 0
7428 -13256 0
7428 -13254 0
7428 -13255 0
-7429 13257 13258 13259 7430 0
7429 -7430 0
7429 -13259 0
7429 -13257 0
7429 -13258 0
-7430 13260 13261 13262 7431 0
7430 -7431 0
7430 -13262 0
7430 -13260 0
7430 -13261 0
-7431 13263 13264 13265 7432 0
7431 -7432 0
7431 -13265 0
7431 -13263 0
7431 -13264 0
-7432 13266 13267 13268 7433 0
7432 -7433 0
7432 -13268 0
7432 -13266 0
7432 -13267 0
-7433 13269 13270 13271 13272 0
7433 -13272 0
7433 -13271 0
7433 -13269 0
7433 -13270 0
7434 -13239 -13240 0
-7434 13239 0
-7434 13240 0
7435 -13239 13243 0
-7435 13239 0
-7435 -13243 0
7436 7437 -7442 0
7436 -7437 7442 0
-7436 -7437 -7442 0
-7436 7437 7442 0
-7437 10122 0
-7437 -10123 0
-7437 -7438 7441 0
7437 -10122 10123 7438 0
7437 -10122 10123 -7441 0
-7438 10124 7439 0
7438 -10124 0
7438 -7439 0
-7439 10125 10126 7440 0
7439 -7440 0
7439 -10126 0
7439 -10125 0
-7440 10127 10128 10129 0
7440 -10127 0
7440 -10129 0
7440 -10128 0
7441 10124 10125 -10126 7440 0
-7441 -10124 0
-7441 -7440 0
-7441 10126 0
-7441 -10125 0
7442 10122 -7444 0
7442 -10123 -7444 0
7442 7443 -7444 0
-7442 7444 0
-7442 -10122 10123 -7443 0
7443 -10124 7439 0
-7443 10124 0
-7443 -7439 0
7444 -6991 6997 0
-7444 6991 0
-7444 -6997 0
-7445 227 -7444 0
-7445 13276 227 0
7445 -227 0
7445 -13276 7444 0
-7446 7447 -7449 0
-7446 13277 7449 0
7446 -7447 -7449 0
7446 -13277 7449 0
7447 7444 -7448 0
7447 -7444 7448 0
-7447 -7444 -7448 0
-7447 7444 7448 0
7448 13277 -13281 0
7448 -13277 13281 0
-7448 -13277 -13281 0
-7448 13277 13281 0
-7449 227 7444 0
-7449 7450 -7452 0
-7449 7444 -7452 0
-7449 227 7450 0
7449 -7444 -7450 0
7449 -227 7452 0
-7450 13277 13278 13281 7451 0
7450 -7451 0
7450 -13281 0
7450 -13277 0
7450 -13278 0
-7451 13279 13280 0
7451 -13279 0
7451 -13280 0
7452 13277 13278 13281 -7453 0
-7452 7453 0
-7452 -13281 0
-7452 -13277 0
-7452 -13278 0
7453 13279 -13280 0
-7453 -13279 0
-7453 13280 0
-7454 13278 7449 0
-7454 -7449 7455 0
7454 -13278 7449 0
7454 -7449 -7455 0
7455 -7444 7457 0
7455 -13278 7444 7456 0
7455 13278 7444 -7456 0
-7455 -7444 -7457 0
-7455 -13278 7444 -7456 0
-7455 13278 7444 7456 0
7456 -13277 -13281 0
-7456 13277 0
-7456 13281 0
7457 -13278 7458 0
7457 13278 -7458 0
-7457 13278 7458 0
-7457 -13278 -7458 0
-7458 13277 13281 0
7458 -13277 0
7458 -13281 0
-7459 13279 7449 0
-7459 -7449 7460 0
7459 -13279 7449 0
7459 -7449 -7460 0
7460 -7444 7462 0
7460 -13279 7444 7461 0
7460 13279 7444 -7461 0
-7460 -7444 -7462 0
-7460 -13279 7444 -7461 0
-7460 13279 7444 7461 0
7461 -13277 -13278 -13281 0
-7461 13277 0
-7461 13278 0
-7461 13281 0
7462 -13279 7463 0
7462 13279 -7463 0
-7462 13279 7463 0
-7462 -13279 -7463 0
-7463 13277 13278 13281 0
7463 -13277 0
7463 -13281 0
7463 -13278 0
-7464 13280 7449 0
-7464 -7449 7465 0
7464 -13280 7449 0
7464 -7449 -7465 0
7465 -7444 7467 0
7465 -13280 7444 7466 0
7465 13280 7444 -7466 0
-7465 -7444 -7467 0
-7465 -13280 7444 -7466 0
-7465 13280 7444 7466 0
7466 -13279 -7461 0
-7466 13279 0
-7466 7461 0
7467 -7450 -7452 0
7467 13280 -7450 0
-7467 7450 0
-7467 -13280 7452 0
-7468 13281 7449 0
-7468 -13281 -7449 0
7468 -13281 7449 0
7468 13281 -7449 0
7469 -13280 -227 0
-7469 13280 0
-7469 227 0
7470 -13276 6996 7001 7444 0
-7470 -7444 0
-7470 -7001 0
-7470 13276 0
-7470 -6996 0
-7471 112 -7444 0
-7471 13285 112 0
7471 -112 0
7471 -13285 7444 0
-7472 7473 -7475 0
-7472 13286 7475 0
7472 -7473 -7475 0
7472 -13286 7475 0
7473 7444 -7474 0
7473 -7444 7474 0
-7473 -7444 -7474 0
-7473 7444 7474 0
7474 13286 -13290 0
7474 -13286 13290 0
-7474 -13286 -13290 0
-7474 13286 13290 0
-7475 112 7444 0
-7475 7476 -7478 0
-7475 7444 -7478 0
-7475 112 7476 0
7475 -7444 -7476 0
7475 -112 7478 0
-7476 13286 13287 13290 7477 0
7476 -7477 0
7476 -13290 0
7476 -13286 0
7476 -13287 0
-7477 13288 13289 0
7477 -13288 0
7477 -13289 0
7478 13286 13287 13290 -7479 0
-7478 7479 0
-7478 -13290 0
-7478 -13286 0
-7478 -13287 0
7479 13288 -13289 0
-7479 -13288 0
-7479 13289 0
-7480 13287 7475 0
-7480 -7475 7481 0
7480 -13287 7475 0
7480 -7475 -7481 0
7481 -7444 7483 0
7481 -13287 7444 7482 0
7481 13287 7444 -7482 0
-7481 -7444 -7483 0
-7481 -13287 7444 -7482 0
-7481 13287 7444 7482 0
7482 -13286 -13290 0
-7482 13286 0
-7482 13290 0
7483 -13287 7484 0
7483 13287 -7484 0
-7483 13287 7484 0
-7483 -13287 -7484 0
-7484 13286 13290 0
7484 -13286 0
7484 -13290 0
-7485 13288 7475 0
-7485 -7475 7486 0
7485 -13288 7475 0
7485 -7475 -7486 0
7486 -7444 7488 0
7486 -13288 7444 7487 0
7486 13288 7444 -7487 0
-7486 -7444 -7488 0
-7486 -13288 7444 -7487 0
-7486 13288 7444 7487 0
7487 -13286 -13287 -13290 0
-7487 13286 0
-7487 13287 0
-7487 13290 0
7488 -13288 7489 0
7488 13288 -7489 0
-7488 13288 7489 0
-7488 -13288 -7489 0
-7489 13286 13287 13290 0
7489 -13286 0
7489 -13290 0
7489 -13287 0
-7490 13289 7475 0
-7490 -7475 7491 0
7490 -13289 7475 0
7490 -7475 -7491 0
7491 -7444 7493 0
7491 -13289 7444 7492 0
7491 13289 7444 -7492 0
-7491 -7444 -7493 0
-7491 -13289 7444 -7492 0
-7491 13289 7444 7492 0
7492 -13288 -7487 0
-7492 13288 0
-7492 7487 0
7493 -7476 -7478 0
7493 13289 -7476 0
-7493 7476 0
-7493 -13289 7478 0
-7494 13290 7475 0
-7494 -13290 -7475 0
7494 -13290 7475 0
7494 13290 -7475 0
7495 -13289 -112 0
-7495 13289 0
-7495 112 0
7496 6996 7004 -7499 0
7496 7497 6996 -7499 0
-7496 7499 0
-7496 -6996 0
-7496 -7497 -7004 0
-7497 111 7498 0
7497 -111 0
7497 -7498 0
7498 -107 118 0
-7498 107 0
-7498 -118 0
7499 -13285 7444 0
-7499 13285 0
-7499 -7444 0
-7500 13294 -7501 0
-7500 121 7501 0
7500 -121 7501 0
7500 -13294 -7501 0
-7501 -9825 6983 0
-7501 9822 6983 0
7501 -6983 0
7501 -9822 9825 0
-7502 13295 -7501 0
-7502 9821 7501 0
-7502 -9825 7501 0
7502 -13295 -7501 0
7502 -9821 9825 7501 0
-7503 13296 7505 0
-7503 7504 -7505 0
7503 -7504 -7505 0
7503 -13296 7505 0
7504 13294 -120 0
-7504 -13294 0
-7504 120 0
7505 7501 7504 -7506 0
7505 7501 -7504 7506 0
-7505 -7501 0
-7505 -7504 -7506 0
-7505 7504 7506 0
7506 -9821 9822 9825 13295 0
-7506 -13295 0
-7506 -9825 0
-7506 9821 0
-7506 -9822 0
7507 -13296 7501 -7504 7506 0
-7507 7504 0
-7507 -7506 0
-7507 13296 0
-7507 -7501 0
7508 13296 7501 7504 -7506 0
-7508 -7501 0
-7508 -7504 0
-7508 -13296 0
-7508 7506 0
-7509 13299 7510 0
-7509 7501 -7506 7510 0
7509 -7510 0
7509 -13299 -7501 0
7509 -13299 7506 0
7510 7501 -7511 0
-7510 -7501 0
-7510 7511 0
7511 -13296 13299 6993 7506 0
-7511 -6993 0
-7511 -7506 0
-7511 13296 0
-7511 -13299 0
7512 100 235 7513 -7514 0
-7512 -100 0
-7512 7514 0
-7512 -7513 0
-7512 -235 0
-7513 103 107 0
7513 -103 0
7513 -107 0
7514 91 112 7515 -7517 0
-7514 -91 0
-7514 7517 0
-7514 -7515 0
-7514 -112 0
-7515 -107 227 7444 0
-7515 227 7444 7516 0
7515 -7444 0
7515 -227 0
7515 107 -7516 0
7516 -101 103 -104 149 0
-7516 -149 0
-7516 101 0
-7516 104 0
-7516 -103 0
-7517 107 111 118 7004 0
7517 -7004 0
7517 -118 0
7517 -107 0
7517 -111 0
-7518 13303 7519 0
-7518 996 -7519 0
7518 -996 -7519 0
7518 -13303 7519 0
7519 -120 -7520 0
-7519 120 0
-7519 7520 0
7520 -7521 0
7520 -9743 13310 0
7520 9743 -13310 0
-7520 -9743 -13310 7521 0
-7520 9743 13310 7521 0
7521 -7522 0
7521 -13303 996 0
7521 13303 -996 0
-7521 -13303 -996 7522 0
-7521 13303 996 7522 0
7522 -7523 0
7522 -9745 13304 0
7522 9745 -13304 0
-7522 -9745 -13304 7523 0
-7522 9745 13304 7523 0
7523 -7524 0
7523 -13305 999 0
7523 13305 -999 0
-7523 -13305 -999 7524 0
-7523 13305 999 7524 0
7524 -7525 0
7524 -13306 1001 0
7524 13306 -1001 0
-7524 -13306 -1001 7525 0
-7524 13306 1001 7525 0
7525 -7526 0
7525 -13307 1003 0
7525 13307 -1003 0
-7525 -13307 -1003 7526 0
-7525 13307 1003 7526 0
7526 -7527 0
7526 -13308 1005 0
7526 13308 -1005 0
-7526 -13308 -1005 7527 0
-7526 13308 1005 7527 0
7527 13309 -1007 0
7527 -13309 1007 0
-7527 -13309 -1007 0
-7527 13309 1007 0
-7528 13304 7519 0
-7528 9745 -7519 0
7528 -13304 7519 0
7528 -9745 -7519 0
-7529 13305 7519 0
-7529 999 -7519 0
7529 -999 -7519 0
7529 -13305 7519 0
-7530 13306 7519 0
-7530 1001 -7519 0
7530 -1001 -7519 0
7530 -13306 7519 0
-7531 13307 7519 0
-7531 1003 -7519 0
7531 -1003 -7519 0
7531 -13307 7519 0
-7532 13308 7519 0
-7532 1005 -7519 0
7532 -1005 -7519 0
7532 -13308 7519 0
-7533 13309 7519 0
-7533 1007 -7519 0
7533 -1007 -7519 0
7533 -13309 7519 0
-7534 13310 120 0
-7534 9743 -120 0
7534 -13310 120 0
7534 -9743 -120 0
7535 13302 -120 -7520 0
-7535 7520 0
-7535 120 0
-7535 -13302 0
-7536 7537 -7545 0
-7536 13312 7545 0
7536 -7537 -7545 0
7536 -13312 7545 0
7537 7538 -7539 0
7537 -7538 7539 0
-7537 -7538 -7539 0
-7537 7538 7539 0
7538 13312 -13316 0
7538 -13312 13316 0
-7538 -13312 -13316 0
-7538 13312 13316 0
7539 -7540 7544 0
-7539 7540 0
-7539 -7544 0
-7540 -13109 7542 0
-7540 -13110 7542 0
-7540 7541 7542 0
7540 -7542 0
7540 13109 13110 -7541 0
-7541 -13110 121 -6983 0
-7541 13110 121 6983 0
7541 -121 0
7541 -13110 6983 0
7541 13110 -6983 0
7542 9614 -121 -7543 0
7542 9614 13109 -121 0
-7542 -9614 0
-7542 121 0
-7542 -13109 7543 0
7543 13110 -6983 0
7543 -13110 6983 0
-7543 -13110 -6983 0
-7543 13110 6983 0
7544 -9829 13111 0
7544 -10120 13111 0
7544 -10121 13111 0
-7544 -13111 0
-7544 9829 10120 10121 0
-7545 7546 7549 0
-7545 7546 -7550 0
7545 -7546 0
7545 -7549 7550 0
7546 -7539 -7547 0
-7546 7539 0
-7546 7547 0
-7547 13312 13313 13316 7548 0
7547 -7548 0
7547 -13316 0
7547 -13312 0
7547 -13313 0
-7548 13314 13315 0
7548 -13314 0
7548 -13315 0
7549 7540 -7544 0
-7549 -7540 0
-7549 7544 0
7550 13312 13313 13316 -7551 0
-7550 7551 0
-7550 -13316 0
-7550 -13312 0
-7550 -13313 0
7551 13314 -13315 0
-7551 -13314 0
-7551 13315 0
-7552 13313 7545 0
-7552 -7545 7553 0
7552 -13313 7545 0
7552 -7545 -7553 0
7553 -7539 7555 0
7553 13313 -7554 7539 0
7553 -13313 7554 7539 0
-7553 -7539 -7555 0
-7553 -13313 -7554 7539 0
-7553 13313 7554 7539 0
7554 -13312 -13316 0
-7554 13312 0
-7554 13316 0
7555 -13313 7556 0
7555 13313 -7556 0
-7555 13313 7556 0
-7555 -13313 -7556 0
-7556 13312 13316 0
7556 -13312 0
7556 -13316 0
-7557 13314 7545 0
-7557 -7545 7558 0
7557 -13314 7545 0
7557 -7545 -7558 0
7558 -7539 7560 0
7558 -13314 7539 7559 0
7558 13314 7539 -7559 0
-7558 -7539 -7560 0
-7558 -13314 7539 -7559 0
-7558 13314 7539 7559 0
7559 -13312 -13313 -13316 0
-7559 13312 0
-7559 13313 0
-7559 13316 0
7560 -13314 7561 0
7560 13314 -7561 0
-7560 13314 7561 0
-7560 -13314 -7561 0
-7561 13312 13313 13316 0
7561 -13312 0
7561 -13316 0
7561 -13313 0
-7562 13315 7545 0
-7562 -7545 7563 0
7562 -13315 7545 0
7562 -7545 -7563 0
7563 -7539 7565 0
7563 -13315 7539 7564 0
7563 13315 7539 -7564 0
-7563 -7539 -7565 0
-7563 -13315 7539 -7564 0
-7563 13315 7539 7564 0
7564 -13314 -7559 0
-7564 13314 0
-7564 7559 0
7565 -7547 -7550 0
7565 13315 -7547 0
-7565 7547 0
-7565 -13315 7550 0
-7566 13316 7545 0
-7566 -13316 -7545 0
7566 -13316 7545 0
7566 13316 -7545 0
7567 -13317 7568 0
7567 13317 -7568 0
-7567 13317 7568 0
-7567 -13317 -7568 0
-7568 7544 7547 0
7568 -7544 0
7568 -7547 0
7569 13317 -13318 0
7569 -13318 7568 0
7569 -13317 13318 -7568 0
-7569 13318 7568 0
-7569 13317 13318 0
-7569 -13317 -13318 -7568 0
7570 -13319 7568 0
7570 -13319 7571 0
7570 13319 -7568 -7571 0
-7570 13319 7568 0
-7570 13319 7571 0
-7570 -13319 -7568 -7571 0
7571 -13317 -13318 0
-7571 13317 0
-7571 13318 0
7572 -13320 7568 0
7572 -13320 7573 0
7572 13320 -7568 -7573 0
-7572 13320 7568 0
-7572 13320 7573 0
-7572 -13320 -7568 -7573 0
7573 -13317 -13318 -13319 0
-7573 13317 0
-7573 13318 0
-7573 13319 0
7574 -13321 7568 0
7574 -13321 7575 0
7574 13321 -7568 -7575 0
-7574 13321 7568 0
-7574 13321 7575 0
-7574 -13321 -7568 -7575 0
7575 -13320 -7573 0
-7575 13320 0
-7575 7573 0
7576 -13322 7568 0
7576 -13322 7577 0
7576 13322 -7568 -7577 0
-7576 13322 7568 0
-7576 13322 7577 0
-7576 -13322 -7568 -7577 0
7577 -13321 -7575 0
-7577 13321 0
-7577 7575 0
7578 -13323 7568 0
7578 -13323 7579 0
7578 13323 -7568 -7579 0
-7578 13323 7568 0
-7578 13323 7579 0
-7578 -13323 -7568 -7579 0
7579 -13322 -7577 0
-7579 13322 0
-7579 7577 0
7580 -13324 7568 0
7580 -13324 7581 0
7580 13324 -7568 -7581 0
-7580 13324 7568 0
-7580 13324 7581 0
-7580 -13324 -7568 -7581 0
7581 -13323 -7579 0
-7581 13323 0
-7581 7579 0
7582 -13325 7568 0
7582 -13325 7583 0
7582 13325 -7568 -7583 0
-7582 13325 7568 0
-7582 13325 7583 0
-7582 -13325 -7568 -7583 0
7583 -13324 -7581 0
-7583 13324 0
-7583 7581 0
7584 -13326 7568 0
7584 -13326 7585 0
7584 13326 -7568 -7585 0
-7584 13326 7568 0
-7584 13326 7585 0
-7584 -13326 -7568 -7585 0
7585 -13325 -7583 0
-7585 13325 0
-7585 7583 0
7586 -13327 7568 0
7586 -13327 7587 0
7586 13327 -7568 -7587 0
-7586 13327 7568 0
-7586 13327 7587 0
-7586 -13327 -7568 -7587 0
7587 -13326 -7585 0
-7587 13326 0
-7587 7585 0
7588 -13328 7568 0
7588 -13328 7589 0
7588 13328 -7568 -7589 0
-7588 13328 7568 0
-7588 13328 7589 0
-7588 -13328 -7568 -7589 0
7589 -13327 -7587 0
-7589 13327 0
-7589 7587 0
7590 -13329 7568 0
7590 -13329 7591 0
7590 13329 -7568 -7591 0
-7590 13329 7568 0
-7590 13329 7591 0
-7590 -13329 -7568 -7591 0
7591 -13328 -7589 0
-7591 13328 0
-7591 7589 0
7592 -13330 7568 0
7592 -13330 7593 0
7592 13330 -7568 -7593 0
-7592 13330 7568 0
-7592 13330 7593 0
-7592 -13330 -7568 -7593 0
7593 -13329 -7591 0
-7593 13329 0
-7593 7591 0
7594 -13331 7568 0
7594 -13331 7595 0
7594 13331 -7568 -7595 0
-7594 13331 7568 0
-7594 13331 7595 0
-7594 -13331 -7568 -7595 0
7595 -13330 -7593 0
-7595 13330 0
-7595 7593 0
7596 -13332 7568 0
7596 -13332 7597 0
7596 13332 -7568 -7597 0
-7596 13332 7568 0
-7596 13332 7597 0
-7596 -13332 -7568 -7597 0
7597 -13331 -7595 0
-7597 13331 0
-7597 7595 0
7598 -13333 7568 0
7598 -13333 7599 0
7598 13333 -7568 -7599 0
-7598 13333 7568 0
-7598 13333 7599 0
-7598 -13333 -7568 -7599 0
7599 -13332 -7597 0
-7599 13332 0
-7599 7597 0
7600 -13334 7568 0
7600 -13334 7601 0
7600 13334 -7568 -7601 0
-7600 13334 7568 0
-7600 13334 7601 0
-7600 -13334 -7568 -7601 0
7601 -13333 -7599 0
-7601 13333 0
-7601 7599 0
7602 -13335 7568 0
7602 -13335 7603 0
7602 13335 -7568 -7603 0
-7602 13335 7568 0
-7602 13335 7603 0
-7602 -13335 -7568 -7603 0
7603 -13334 -7601 0
-7603 13334 0
-7603 7601 0
7604 -13336 7568 0
7604 -13336 7605 0
7604 13336 -7568 -7605 0
-7604 13336 7568 0
-7604 13336 7605 0
-7604 -13336 -7568 -7605 0
7605 -13335 -7603 0
-7605 13335 0
-7605 7603 0
7606 -13337 7568 0
7606 -13337 7607 0
7606 13337 -7568 -7607 0
-7606 13337 7568 0
-7606 13337 7607 0
-7606 -13337 -7568 -7607 0
7607 -13336 -7605 0
-7607 13336 0
-7607 7605 0
7608 -13338 7568 0
7608 -13338 7609 0
7608 13338 -7568 -7609 0
-7608 13338 7568 0
-7608 13338 7609 0
-7608 -13338 -7568 -7609 0
7609 -13337 -7607 0
-7609 13337 0
-7609 7607 0
7610 -13339 7568 0
7610 -13339 7611 0
7610 13339 -7568 -7611 0
-7610 13339 7568 0
-7610 13339 7611 0
-7610 -13339 -7568 -7611 0
7611 -13338 -7609 0
-7611 13338 0
-7611 7609 0
7612 -13340 7568 0
7612 -13340 7613 0
7612 13340 -7568 -7613 0
-7612 13340 7568 0
-7612 13340 7613 0
-7612 -13340 -7568 -7613 0
7613 -13339 -7611 0
-7613 13339 0
-7613 7611 0
7614 -13341 7568 0
7614 -13341 7615 0
7614 13341 -7568 -7615 0
-7614 13341 7568 0
-7614 13341 7615 0
-7614 -13341 -7568 -7615 0
7615 -13340 -7613 0
-7615 13340 0
-7615 7613 0
7616 -13342 7568 0
7616 -13342 7617 0
7616 13342 -7568 -7617 0
-7616 13342 7568 0
-7616 13342 7617 0
-7616 -13342 -7568 -7617 0
7617 -13341 -7615 0
-7617 13341 0
-7617 7615 0
7618 -13343 7568 0
7618 -13343 7619 0
7618 13343 -7568 -7619 0
-7618 13343 7568 0
-7618 13343 7619 0
-7618 -13343 -7568 -7619 0
7619 -13342 -7617 0
-7619 13342 0
-7619 7617 0
7620 -13344 7568 0
7620 -13344 7621 0
7620 13344 -7568 -7621 0
-7620 13344 7568 0
-7620 13344 7621 0
-7620 -13344 -7568 -7621 0
7621 -13343 -7619 0
-7621 13343 0
-7621 7619 0
7622 -13345 7568 0
7622 -13345 7623 0
7622 13345 -7568 -7623 0
-7622 13345 7568 0
-7622 13345 7623 0
-7622 -13345 -7568 -7623 0
7623 -13344 -7621 0
-7623 13344 0
-7623 7621 0
7624 -13346 7568 0
7624 -13346 7625 0
7624 13346 -7568 -7625 0
-7624 13346 7568 0
-7624 13346 7625 0
-7624 -13346 -7568 -7625 0
7625 -13345 -7623 0
-7625 13345 0
-7625 7623 0
7626 -13347 7568 0
7626 -13347 7627 0
7626 13347 -7568 -7627 0
-7626 13347 7568 0
-7626 13347 7627 0
-7626 -13347 -7568 -7627 0
7627 -13346 -7625 0
-7627 13346 0
-7627 7625 0
7628 -13348 7568 0
7628 -13348 7629 0
7628 13348 -7568 -7629 0
-7628 13348 7568 0
-7628 13348 7629 0
-7628 -13348 -7568 -7629 0
7629 -13347 -7627 0
-7629 13347 0
-7629 7627 0
-7630 13349 7631 0
-7630 -13349 -7631 0
7630 -13349 7631 0
7630 13349 -7631 0
-7631 7547 0
-7631 7539 7632 0
7631 -7539 -7547 0
7631 -7547 -7632 0
7632 -7540 -7544 0
-7632 7540 0
-7632 7544 0
-7633 13350 7631 0
-7633 13349 13350 0
-7633 -13349 -13350 -7631 0
7633 13349 -13350 0
7633 -13350 7631 0
7633 -13349 13350 -7631 0
-7634 13351 7631 0
-7634 -7631 7635 0
7634 -13351 7631 0
7634 -7631 -7635 0
7635 13351 -7636 0
7635 -13351 7636 0
-7635 -13351 -7636 0
-7635 13351 7636 0
7636 -13349 -13350 0
-7636 13349 0
-7636 13350 0
-7637 13352 7631 0
-7637 -7631 7638 0
7637 -13352 7631 0
7637 -7631 -7638 0
7638 13352 -7639 0
7638 -13352 7639 0
-7638 -13352 -7639 0
-7638 13352 7639 0
7639 -13349 -13350 -13351 0
-7639 13349 0
-7639 13350 0
-7639 13351 0
-7640 13353 7641 0
-7640 -13353 -7641 0
7640 -13353 7641 0
7640 13353 -7641 0
-7641 7642 7632 0
-7641 7547 7642 0
7641 -7642 0
7641 -7547 -7632 0
7642 -7549 7550 0
-7642 7549 0
-7642 -7550 0
-7643 13354 7641 0
-7643 13353 13354 0
-7643 -13353 -13354 -7641 0
7643 13353 -13354 0
7643 -13354 7641 0
7643 -13353 13354 -7641 0
-7644 13355 7641 0
-7644 -7641 7645 0
7644 -13355 7641 0
7644 -7641 -7645 0
7645 13355 -7646 0
7645 -13355 7646 0
-7645 -13355 -7646 0
-7645 13355 7646 0
7646 -13353 -13354 0
-7646 13353 0
-7646 13354 0
-7647 13356 7641 0
-7647 -7641 7648 0
7647 -13356 7641 0
7647 -7641 -7648 0
7648 13356 -7649 0
7648 -13356 7649 0
-7648 -13356 -7649 0
-7648 13356 7649 0
7649 -13353 -13354 -13355 0
-7649 13353 0
-7649 13354 0
-7649 13355 0
-7650 13317 -7651 0
-7650 13357 7651 0
7650 -13357 7651 0
7650 -13317 -7651 0
-7651 7632 7653 0
-7651 7547 7653 0
-7651 7652 7653 0
7651 -7653 0
7651 -7547 -7632 -7652 0
7652 -13356 -7649 0
-7652 13356 0
-7652 7649 0
7653 -7549 7550 -7652 0
-7653 7549 0
-7653 -7550 0
-7653 7652 0
-7654 13317 -7655 0
-7654 13358 7655 0
7654 -13358 7655 0
7654 -13317 -7655 0
-7655 7632 7657 0
-7655 7547 7657 0
-7655 -7656 7657 0
7655 -7657 0
7655 -7547 -7632 7656 0
-7656 13353 13354 13355 13356 0
7656 -13356 0
7656 -13355 0
7656 -13353 0
7656 -13354 0
7657 -7549 7550 7656 0
-7657 7549 0
-7657 -7550 0
-7657 -7656 0
-7658 13317 -7659 0
-7658 13359 7659 0
7658 -13359 7659 0
7658 -13317 -7659 0
-7659 7632 7661 0
-7659 7547 7661 0
-7659 7660 7661 0
7659 -7661 0
7659 -7547 -7632 -7660 0
7660 -13353 13354 13355 13356 0
-7660 -13356 0
-7660 -13355 0
-7660 13353 0
-7660 -13354 0
7661 -7549 7550 -7660 0
-7661 7549 0
-7661 -7550 0
-7661 7660 0
-7662 13317 -7663 0
-7662 13360 7663 0
7662 -13360 7663 0
7662 -13317 -7663 0
-7663 7632 7665 0
-7663 7547 7665 0
-7663 7664 7665 0
7663 -7665 0
7663 -7547 -7632 -7664 0
7664 13353 -13354 13355 13356 0
-7664 13354 0
-7664 -13356 0
-7664 -13353 0
-7664 -13355 0
7665 -7549 7550 -7664 0
-7665 7549 0
-7665 -7550 0
-7665 7664 0
-7666 13317 -7667 0
-7666 13361 7667 0
7666 -13361 7667 0
7666 -13317 -7667 0
-7667 7632 7669 0
-7667 7547 7669 0
-7667 7668 7669 0
7667 -7669 0
7667 -7547 -7632 -7668 0
7668 -13353 -13354 13355 13356 0
-7668 13354 0
-7668 -13356 0
-7668 13353 0
-7668 -13355 0
7669 -7549 7550 -7668 0
-7669 7549 0
-7669 -7550 0
-7669 7668 0
-7670 13317 -7671 0
-7670 13362 7671 0
7670 -13362 7671 0
7670 -13317 -7671 0
-7671 7632 7673 0
-7671 7547 7673 0
-7671 7672 7673 0
7671 -7673 0
7671 -7547 -7632 -7672 0
7672 13353 13354 -13355 13356 0
-7672 -13353 0
-7672 -13356 0
-7672 13355 0
-7672 -13354 0
7673 -7549 7550 -7672 0
-7673 7549 0
-7673 -7550 0
-7673 7672 0
-7674 13317 -7675 0
-7674 13363 7675 0
7674 -13363 7675 0
7674 -13317 -7675 0
-7675 7632 7677 0
-7675 7547 7677 0
-7675 7676 7677 0
7675 -7677 0
7675 -7547 -7632 -7676 0
7676 -13353 13354 -13355 13356 0
-7676 13355 0
-7676 -13356 0
-7676 13353 0
-7676 -13354 0
7677 -7549 7550 -7676 0
-7677 7549 0
-7677 -7550 0
-7677 7676 0
-7678 13317 -7679 0
-7678 13364 7679 0
7678 -13364 7679 0
7678 -13317 -7679 0
-7679 7632 7681 0
-7679 7547 7681 0
-7679 7680 7681 0
7679 -7681 0
7679 -7547 -7632 -7680 0
7680 13353 -13354 -13355 13356 0
-7680 -13353 0
-7680 -13356 0
-7680 13355 0
-7680 13354 0
7681 -7549 7550 -7680 0
-7681 7549 0
-7681 -7550 0
-7681 7680 0
-7682 13317 -7683 0
-7682 13365 7683 0
7682 -13365 7683 0
7682 -13317 -7683 0
-7683 7632 7685 0
-7683 7547 7685 0
-7683 7684 7685 0
7683 -7685 0
7683 -7547 -7632 -7684 0
7684 -13353 -13354 -13355 13356 0
-7684 13355 0
-7684 -13356 0
-7684 13353 0
-7684 13354 0
7685 -7549 7550 -7684 0
-7685 7549 0
-7685 -7550 0
-7685 7684 0
-7686 13317 -7687 0
-7686 13366 7687 0
7686 -13366 7687 0
7686 -13317 -7687 0
-7687 7632 7689 0
-7687 7547 7689 0
-7687 7688 7689 0
7687 -7689 0
7687 -7547 -7632 -7688 0
7688 13353 13354 13355 -13356 0
-7688 13356 0
-7688 -13355 0
-7688 -13353 0
-7688 -13354 0
7689 -7549 7550 -7688 0
-7689 7549 0
-7689 -7550 0
-7689 7688 0
-7690 13317 -7691 0
-7690 13367 7691 0
7690 -13367 7691 0
7690 -13317 -7691 0
-7691 7632 7693 0
-7691 7547 7693 0
-7691 7692 7693 0
7691 -7693 0
7691 -7547 -7632 -7692 0
7692 -13353 13354 13355 -13356 0
-7692 13356 0
-7692 -13355 0
-7692 13353 0
-7692 -13354 0
7693 -7549 7550 -7692 0
-7693 7549 0
-7693 -7550 0
-7693 7692 0
-7694 13317 -7695 0
-7694 13368 7695 0
7694 -13368 7695 0
7694 -13317 -7695 0
-7695 7632 7697 0
-7695 7547 7697 0
-7695 7696 7697 0
7695 -7697 0
7695 -7547 -7632 -7696 0
7696 13353 -13354 13355 -13356 0
-7696 13354 0
-7696 -13355 0
-7696 -13353 0
-7696 13356 0
7697 -7549 7550 -7696 0
-7697 7549 0
-7697 -7550 0
-7697 7696 0
-7698 13317 -7699 0
-7698 13369 7699 0
7698 -13369 7699 0
7698 -13317 -7699 0
-7699 7632 7701 0
-7699 7547 7701 0
-7699 7700 7701 0
7699 -7701 0
7699 -7547 -7632 -7700 0
7700 -13353 -13354 13355 -13356 0
-7700 13356 0
-7700 13353 0
-7700 13354 0
-7700 -13355 0
7701 -7549 7550 -7700 0
-7701 7549 0
-7701 -7550 0
-7701 7700 0
-7702 13317 -7703 0
-7702 13370 7703 0
7702 -13370 7703 0
7702 -13317 -7703 0
-7703 7632 7705 0
-7703 7547 7705 0
-7703 7704 7705 0
7703 -7705 0
7703 -7547 -7632 -7704 0
7704 13353 13354 -13355 -13356 0
-7704 -13353 0
-7704 13356 0
-7704 13355 0
-7704 -13354 0
7705 -7549 7550 -7704 0
-7705 7549 0
-7705 -7550 0
-7705 7704 0
-7706 13317 -7707 0
-7706 13371 7707 0
7706 -13371 7707 0
7706 -13317 -7707 0
-7707 7632 7709 0
-7707 7547 7709 0
-7707 7708 7709 0
7707 -7709 0
7707 -7547 -7632 -7708 0
7708 -13353 13354 -13355 -13356 0
-7708 13356 0
-7708 13353 0
-7708 13355 0
-7708 -13354 0
7709 -7549 7550 -7708 0
-7709 7549 0
-7709 -7550 0
-7709 7708 0
-7710 13317 -7711 0
-7710 13372 7711 0
7710 -13372 7711 0
7710 -13317 -7711 0
-7711 7632 7713 0
-7711 7547 7713 0
-7711 7712 7713 0
7711 -7713 0
7711 -7547 -7632 -7712 0
7712 13353 -13354 -13355 -13356 0
-7712 -13353 0
-7712 13356 0
-7712 13355 0
-7712 13354 0
7713 -7549 7550 -7712 0
-7713 7549 0
-7713 -7550 0
-7713 7712 0
7714 -13373 7568 0
7714 -13317 -7568 7715 0
7714 13317 -7568 -7715 0
-7714 13373 7568 0
-7714 13317 -7568 7715 0
-7714 -13317 -7568 -7715 0
-7715 7717 0
-7715 13357 -7716 0
7715 -13357 -7717 0
7715 7716 -7717 0
7716 -13352 -7639 0
-7716 13352 0
-7716 7639 0
7717 7718 7720 -7721 0
7717 -13371 7718 -7721 0
-7717 7721 0
-7717 -7718 0
-7717 13371 -7720 0
7718 13372 -7719 0
-7718 -13372 0
-7718 7719 0
7719 13349 -13350 -13351 -13352 0
-7719 -13349 0
-7719 13352 0
-7719 13351 0
-7719 13350 0
7720 -13349 13350 -13351 -13352 0
-7720 13352 0
-7720 13349 0
-7720 13351 0
-7720 -13350 0
7721 7722 7724 -7725 0
7721 -13369 7722 -7725 0
-7721 7725 0
-7721 -7722 0
-7721 13369 -7724 0
7722 13370 -7723 0
-7722 -13370 0
-7722 7723 0
7723 13349 13350 -13351 -13352 0
-7723 -13349 0
-7723 13352 0
-7723 13351 0
-7723 -13350 0
7724 -13349 -13350 13351 -13352 0
-7724 13352 0
-7724 13349 0
-7724 13350 0
-7724 -13351 0
7725 7726 7728 -7729 0
7725 -13367 7726 -7729 0
-7725 7729 0
-7725 -7726 0
-7725 13367 -7728 0
7726 13368 -7727 0
-7726 -13368 0
-7726 7727 0
7727 13349 -13350 13351 -13352 0
-7727 13350 0
-7727 -13351 0
-7727 -13349 0
-7727 13352 0
7728 -13349 13350 13351 -13352 0
-7728 13352 0
-7728 -13351 0
-7728 13349 0
-7728 -13350 0
7729 7730 7732 -7733 0
7729 -13365 7730 -7733 0
-7729 7733 0
-7729 -7730 0
-7729 13365 -7732 0
7730 13366 -7731 0
-7730 -13366 0
-7730 7731 0
7731 13349 13350 13351 -13352 0
-7731 13352 0
-7731 -13351 0
-7731 -13349 0
-7731 -13350 0
7732 -13349 -13350 -13351 13352 0
-7732 13351 0
-7732 -13352 0
-7732 13349 0
-7732 13350 0
7733 7734 7736 -7737 0
7733 -13363 7734 -7737 0
-7733 7737 0
-7733 -7734 0
-7733 13363 -7736 0
7734 13364 -7735 0
-7734 -13364 0
-7734 7735 0
7735 13349 -13350 -13351 13352 0
-7735 -13349 0
-7735 -13352 0
-7735 13351 0
-7735 13350 0
7736 -13349 13350 -13351 13352 0
-7736 13351 0
-7736 -13352 0
-7736 13349 0
-7736 -13350 0
7737 7738 7740 -7741 0
7737 -13361 7738 -7741 0
-7737 7741 0
-7737 -7738 0
-7737 13361 -7740 0
7738 13362 -7739 0
-7738 -13362 0
-7738 7739 0
7739 13349 13350 -13351 13352 0
-7739 -13349 0
-7739 -13352 0
-7739 13351 0
-7739 -13350 0
7740 -13349 -13350 13351 13352 0
-7740 13350 0
-7740 -13352 0
-7740 13349 0
-7740 -13351 0
7741 -13360 -7743 0
7741 7742 -7743 0
-7741 7743 0
-7741 13360 -7742 0
7742 13349 -13350 13351 13352 0
-7742 13350 0
-7742 -13352 0
-7742 -13349 0
-7742 -13351 0
7743 -13358 7744 0
7743 -13359 -7745 0
7743 -13358 -13359 0
7743 7744 -7745 0
-7743 13358 7745 0
-7743 13359 -7744 0
7744 -13349 13350 13351 13352 0
-7744 -13352 0
-7744 -13351 0
-7744 13349 0
-7744 -13350 0
-7745 13349 13350 13351 13352 0
7745 -13352 0
7745 -13351 0
7745 -13349 0
7745 -13350 0
7746 -13373 -13374 7568 0
-7746 13373 0
-7746 13374 0
-7746 -7568 0
-7747 13318 -7651 0
-7747 13375 7651 0
7747 -13375 7651 0
7747 -13318 -7651 0
-7748 13318 -7655 0
-7748 13376 7655 0
7748 -13376 7655 0
7748 -13318 -7655 0
-7749 13318 -7659 0
-7749 13377 7659 0
7749 -13377 7659 0
7749 -13318 -7659 0
-7750 13318 -7663 0
-7750 13378 7663 0
7750 -13378 7663 0
7750 -13318 -7663 0
-7751 13318 -7667 0
-7751 13379 7667 0
7751 -13379 7667 0
7751 -13318 -7667 0
-7752 13318 -7671 0
-7752 13380 7671 0
7752 -13380 7671 0
7752 -13318 -7671 0
-7753 13318 -7675 0
-7753 13381 7675 0
7753 -13381 7675 0
7753 -13318 -7675 0
-7754 13318 -7679 0
-7754 13382 7679 0
7754 -13382 7679 0
7754 -13318 -7679 0
-7755 13318 -7683 0
-7755 13383 7683 0
7755 -13383 7683 0
7755 -13318 -7683 0
-7756 13318 -7687 0
-7756 13384 7687 0
7756 -13384 7687 0
7756 -13318 -7687 0
-7757 13318 -7691 0
-7757 13385 7691 0
7757 -13385 7691 0
7757 -13318 -7691 0
-7758 13318 -7695 0
-7758 13386 7695 0
7758 -13386 7695 0
7758 -13318 -7695 0
-7759 13318 -7699 0
-7759 13387 7699 0
7759 -13387 7699 0
7759 -13318 -7699 0
-7760 13318 -7703 0
-7760 13388 7703 0
7760 -13388 7703 0
7760 -13318 -7703 0
-7761 13318 -7707 0
-7761 13389 7707 0
7761 -13389 7707 0
7761 -13318 -7707 0
-7762 13318 -7711 0
-7762 13390 7711 0
7762 -13390 7711 0
7762 -13318 -7711 0
7763 -13391 7568 0
7763 -7568 7764 -7780 0
7763 -7568 -7764 7780 0
-7763 13391 7568 0
-7763 -7568 7764 7780 0
-7763 -7568 -7764 -7780 0
7764 -13318 7765 0
7764 13318 -7765 0
-7764 13318 7765 0
-7764 -13318 -7765 0
-7765 7766 0
-7765 13375 -7716 0
7765 -13375 -7766 0
7765 7716 -7766 0
7766 7720 7767 -7768 0
7766 -13389 7767 -7768 0
-7766 7768 0
-7766 -7767 0
-7766 13389 -7720 0
7767 13390 -7719 0
-7767 -13390 0
-7767 7719 0
7768 7724 7769 -7770 0
7768 -13387 7769 -7770 0
-7768 7770 0
-7768 -7769 0
-7768 13387 -7724 0
7769 13388 -7723 0
-7769 -13388 0
-7769 7723 0
7770 7728 7771 -7772 0
7770 -13385 7771 -7772 0
-7770 7772 0
-7770 -7771 0
-7770 13385 -7728 0
7771 13386 -7727 0
-7771 -13386 0
-7771 7727 0
7772 7732 7773 -7774 0
7772 -13383 7773 -7774 0
-7772 7774 0
-7772 -7773 0
-7772 13383 -7732 0
7773 13384 -7731 0
-7773 -13384 0
-7773 7731 0
7774 7736 7775 -7776 0
7774 -13381 7775 -7776 0
-7774 7776 0
-7774 -7775 0
-7774 13381 -7736 0
7775 13382 -7735 0
-7775 -13382 0
-7775 7735 0
7776 7740 7777 -7778 0
7776 -13379 7777 -7778 0
-7776 7778 0
-7776 -7777 0
-7776 13379 -7740 0
7777 13380 -7739 0
-7777 -13380 0
-7777 7739 0
7778 -13378 -7779 0
7778 7742 -7779 0
-7778 7779 0
-7778 13378 -7742 0
7779 -13376 7744 0
7779 -13377 -7745 0
7779 -13376 -13377 0
7779 7744 -7745 0
-7779 13376 7745 0
-7779 13377 -7744 0
7780 13317 -7715 0
-7780 -13317 0
-7780 7715 0
7781 -13391 -13392 7568 0
-7781 13391 0
-7781 13392 0
-7781 -7568 0
-7782 13319 -7651 0
-7782 13393 7651 0
7782 -13393 7651 0
7782 -13319 -7651 0
-7783 13319 -7655 0
-7783 13394 7655 0
7783 -13394 7655 0
7783 -13319 -7655 0
-7784 13319 -7659 0
-7784 13395 7659 0
7784 -13395 7659 0
7784 -13319 -7659 0
-7785 13319 -7663 0
-7785 13396 7663 0
7785 -13396 7663 0
7785 -13319 -7663 0
-7786 13319 -7667 0
-7786 13397 7667 0
7786 -13397 7667 0
7786 -13319 -7667 0
-7787 13319 -7671 0
-7787 13398 7671 0
7787 -13398 7671 0
7787 -13319 -7671 0
-7788 13319 -7675 0
-7788 13399 7675 0
7788 -13399 7675 0
7788 -13319 -7675 0
-7789 13319 -7679 0
-7789 13400 7679 0
7789 -13400 7679 0
7789 -13319 -7679 0
-7790 13319 -7683 0
-7790 13401 7683 0
7790 -13401 7683 0
7790 -13319 -7683 0
-7791 13319 -7687 0
-7791 13402 7687 0
7791 -13402 7687 0
7791 -13319 -7687 0
-7792 13319 -7691 0
-7792 13403 7691 0
7792 -13403 7691 0
7792 -13319 -7691 0
-7793 13319 -7695 0
-7793 13404 7695 0
7793 -13404 7695 0
7793 -13319 -7695 0
-7794 13319 -7699 0
-7794 13405 7699 0
7794 -13405 7699 0
7794 -13319 -7699 0
-7795 13319 -7703 0
-7795 13406 7703 0
7795 -13406 7703 0
7795 -13319 -7703 0
-7796 13319 -7707 0
-7796 13407 7707 0
7796 -13407 7707 0
7796 -13319 -7707 0
-7797 13319 -7711 0
-7797 13408 7711 0
7797 -13408 7711 0
7797 -13319 -7711 0
7798 -13409 7568 0
7798 -7568 7799 -7815 0
7798 -7568 -7799 7815 0
-7798 13409 7568 0
-7798 -7568 7799 7815 0
-7798 -7568 -7799 -7815 0
7799 -13319 7800 0
7799 13319 -7800 0
-7799 13319 7800 0
-7799 -13319 -7800 0
-7800 7801 0
-7800 13393 -7716 0
7800 -13393 -7801 0
7800 7716 -7801 0
7801 7720 7802 -7803 0
7801 -13407 7802 -7803 0
-7801 7803 0
-7801 -7802 0
-7801 13407 -7720 0
7802 13408 -7719 0
-7802 -13408 0
-7802 7719 0
7803 7724 7804 -7805 0
7803 -13405 7804 -7805 0
-7803 7805 0
-7803 -7804 0
-7803 13405 -7724 0
7804 13406 -7723 0
-7804 -13406 0
-7804 7723 0
7805 7728 7806 -7807 0
7805 -13403 7806 -7807 0
-7805 7807 0
-7805 -7806 0
-7805 13403 -7728 0
7806 13404 -7727 0
-7806 -13404 0
-7806 7727 0
7807 7732 7808 -7809 0
7807 -13401 7808 -7809 0
-7807 7809 0
-7807 -7808 0
-7807 13401 -7732 0
7808 13402 -7731 0
-7808 -13402 0
-7808 7731 0
7809 7736 7810 -7811 0
7809 -13399 7810 -7811 0
-7809 7811 0
-7809 -7810 0
-7809 13399 -7736 0
7810 13400 -7735 0
-7810 -13400 0
-7810 7735 0
7811 7740 7812 -7813 0
7811 -13397 7812 -7813 0
-7811 7813 0
-7811 -7812 0
-7811 13397 -7740 0
7812 13398 -7739 0
-7812 -13398 0
-7812 7739 0
7813 -13396 -7814 0
7813 7742 -7814 0
-7813 7814 0
-7813 13396 -7742 0
7814 -13394 7744 0
7814 -13395 -7745 0
7814 -13394 -13395 0
7814 7744 -7745 0
-7814 13394 7745 0
-7814 13395 -7744 0
7815 -7765 -7780 0
7815 13318 -7765 0
7815 13318 -7780 0
-7815 -13318 7765 0
-7815 7765 7780 0
-7815 -13318 7780 0
7816 -13409 -13410 7568 0
-7816 13409 0
-7816 13410 0
-7816 -7568 0
-7817 13320 -7651 0
-7817 13411 7651 0
7817 -13411 7651 0
7817 -13320 -7651 0
-7818 13320 -7655 0
-7818 13412 7655 0
7818 -13412 7655 0
7818 -13320 -7655 0
-7819 13320 -7659 0
-7819 13413 7659 0
7819 -13413 7659 0
7819 -13320 -7659 0
-7820 13320 -7663 0
-7820 13414 7663 0
7820 -13414 7663 0
7820 -13320 -7663 0
-7821 13320 -7667 0
-7821 13415 7667 0
7821 -13415 7667 0
7821 -13320 -7667 0
-7822 13320 -7671 0
-7822 13416 7671 0
7822 -13416 7671 0
7822 -13320 -7671 0
-7823 13320 -7675 0
-7823 13417 7675 0
7823 -13417 7675 0
7823 -13320 -7675 0
-7824 13320 -7679 0
-7824 13418 7679 0
7824 -13418 7679 0
7824 -13320 -7679 0
-7825 13320 -7683 0
-7825 13419 7683 0
7825 -13419 7683 0
7825 -13320 -7683 0
-7826 13320 -7687 0
-7826 13420 7687 0
7826 -13420 7687 0
7826 -13320 -7687 0
-7827 13320 -7691 0
-7827 13421 7691 0
7827 -13421 7691 0
7827 -13320 -7691 0
-7828 13320 -7695 0
-7828 13422 7695 0
7828 -13422 7695 0
7828 -13320 -7695 0
-7829 13320 -7699 0
-7829 13423 7699 0
7829 -13423 7699 0
7829 -13320 -7699 0
-7830 13320 -7703 0
-7830 13424 7703 0
7830 -13424 7703 0
7830 -13320 -7703 0
-7831 13320 -7707 0
-7831 13425 7707 0
7831 -13425 7707 0
7831 -13320 -7707 0
-7832 13320 -7711 0
-7832 13426 7711 0
7832 -13426 7711 0
7832 -13320 -7711 0
7833 -13427 7568 0
7833 -7568 7834 -7850 0
7833 -7568 -7834 7850 0
-7833 13427 7568 0
-7833 -7568 7834 7850 0
-7833 -7568 -7834 -7850 0
7834 -13320 7835 0
7834 13320 -7835 0
-7834 13320 7835 0
-7834 -13320 -7835 0
-7835 7836 0
-7835 13411 -7716 0
7835 -13411 -7836 0
7835 7716 -7836 0
7836 7720 7837 -7838 0
7836 -13425 7837 -7838 0
-7836 7838 0
-7836 -7837 0
-7836 13425 -7720 0
7837 13426 -7719 0
-7837 -13426 0
-7837 7719 0
7838 7724 7839 -7840 0
7838 -13423 7839 -7840 0
-7838 7840 0
-7838 -7839 0
-7838 13423 -7724 0
7839 13424 -7723 0
-7839 -13424 0
-7839 7723 0
7840 7728 7841 -7842 0
7840 -13421 7841 -7842 0
-7840 7842 0
-7840 -7841 0
-7840 13421 -7728 0
7841 13422 -7727 0
-7841 -13422 0
-7841 7727 0
7842 7732 7843 -7844 0
7842 -13419 7843 -7844 0
-7842 7844 0
-7842 -7843 0
-7842 13419 -7732 0
7843 13420 -7731 0
-7843 -13420 0
-7843 7731 0
7844 7736 7845 -7846 0
7844 -13417 7845 -7846 0
-7844 7846 0
-7844 -7845 0
-7844 13417 -7736 0
7845 13418 -7735 0
-7845 -13418 0
-7845 7735 0
7846 7740 7847 -7848 0
7846 -13415 7847 -7848 0
-7846 7848 0
-7846 -7847 0
-7846 13415 -7740 0
7847 13416 -7739 0
-7847 -13416 0
-7847 7739 0
7848 -13414 -7849 0
7848 7742 -7849 0
-7848 7849 0
-7848 13414 -7742 0
7849 -13412 7744 0
7849 -13413 -7745 0
7849 -13412 -13413 0
7849 7744 -7745 0
-7849 13412 7745 0
-7849 13413 -7744 0
7850 -7800 -7815 0
7850 13319 -7800 0
7850 13319 -7815 0
-7850 -13319 7800 0
-7850 7800 7815 0
-7850 -13319 7815 0
7851 -13427 -13428 7568 0
-7851 13427 0
-7851 13428 0
-7851 -7568 0
-7852 13321 -7651 0
-7852 13429 7651 0
7852 -13429 7651 0
7852 -13321 -7651 0
-7853 13321 -7655 0
-7853 13430 7655 0
7853 -13430 7655 0
7853 -13321 -7655 0
-7854 13321 -7659 0
-7854 13431 7659 0
7854 -13431 7659 0
7854 -13321 -7659 0
-7855 13321 -7663 0
-7855 13432 7663 0
7855 -13432 7663 0
7855 -13321 -7663 0
-7856 13321 -7667 0
-7856 13433 7667 0
7856 -13433 7667 0
7856 -13321 -7667 0
-7857 13321 -7671 0
-7857 13434 7671 0
7857 -13434 7671 0
7857 -13321 -7671 0
-7858 13321 -7675 0
-7858 13435 7675 0
7858 -13435 7675 0
7858 -13321 -7675 0
-7859 13321 -7679 0
-7859 13436 7679 0
7859 -13436 7679 0
7859 -13321 -7679 0
-7860 13321 -7683 0
-7860 13437 7683 0
7860 -13437 7683 0
7860 -13321 -7683 0
-7861 13321 -7687 0
-7861 13438 7687 0
7861 -13438 7687 0
7861 -13321 -7687 0
-7862 13321 -7691 0
-7862 13439 7691 0
7862 -13439 7691 0
7862 -13321 -7691 0
-7863 13321 -7695 0
-7863 13440 7695 0
7863 -13440 7695 0
7863 -13321 -7695 0
-7864 13321 -7699 0
-7864 13441 7699 0
7864 -13441 7699 0
7864 -13321 -7699 0
-7865 13321 -7703 0
-7865 13442 7703 0
7865 -13442 7703 0
7865 -13321 -7703 0
-7866 13321 -7707 0
-7866 13443 7707 0
7866 -13443 7707 0
7866 -13321 -7707 0
-7867 13321 -7711 0
-7867 13444 7711 0
7867 -13444 7711 0
7867 -13321 -7711 0
7868 -13445 7568 0
7868 -7568 7869 -7885 0
7868 -7568 -7869 7885 0
-7868 13445 7568 0
-7868 -7568 7869 7885 0
-7868 -7568 -7869 -7885 0
7869 -13321 7870 0
7869 13321 -7870 0
-7869 13321 7870 0
-7869 -13321 -7870 0
-7870 7871 0
-7870 13429 -7716 0
7870 -13429 -7871 0
7870 7716 -7871 0
7871 7720 7872 -7873 0
7871 -13443 7872 -7873 0
-7871 7873 0
-7871 -7872 0
-7871 13443 -7720 0
7872 13444 -7719 0
-7872 -13444 0
-7872 7719 0
7873 7724 7874 -7875 0
7873 -13441 7874 -7875 0
-7873 7875 0
-7873 -7874 0
-7873 13441 -7724 0
7874 13442 -7723 0
-7874 -13442 0
-7874 7723 0
7875 7728 7876 -7877 0
7875 -13439 7876 -7877 0
-7875 7877 0
-7875 -7876 0
-7875 13439 -7728 0
7876 13440 -7727 0
-7876 -13440 0
-7876 7727 0
7877 7732 7878 -7879 0
7877 -13437 7878 -7879 0
-7877 7879 0
-7877 -7878 0
-7877 13437 -7732 0
7878 13438 -7731 0
-7878 -13438 0
-7878 7731 0
7879 7736 7880 -7881 0
7879 -13435 7880 -7881 0
-7879 7881 0
-7879 -7880 0
-7879 13435 -7736 0
7880 13436 -7735 0
-7880 -13436 0
-7880 7735 0
7881 7740 7882 -7883 0
7881 -13433 7882 -7883 0
-7881 7883 0
-7881 -7882 0
-7881 13433 -7740 0
7882 13434 -7739 0
-7882 -13434 0
-7882 7739 0
7883 -13432 -7884 0
7883 7742 -7884 0
-7883 7884 0
-7883 13432 -7742 0
7884 -13430 7744 0
7884 -13431 -7745 0
7884 -13430 -13431 0
7884 7744 -7745 0
-7884 13430 7745 0
-7884 13431 -7744 0
7885 -7835 -7850 0
7885 13320 -7835 0
7885 13320 -7850 0
-7885 -13320 7835 0
-7885 7835 7850 0
-7885 -13320 7850 0
7886 -13445 -13446 7568 0
-7886 13445 0
-7886 13446 0
-7886 -7568 0
-7887 13322 -7651 0
-7887 13447 7651 0
7887 -13447 7651 0
7887 -13322 -7651 0
-7888 13322 -7655 0
-7888 13448 7655 0
7888 -13448 7655 0
7888 -13322 -7655 0
-7889 13322 -7659 0
-7889 13449 7659 0
7889 -13449 7659 0
7889 -13322 -7659 0
-7890 13322 -7663 0
-7890 13450 7663 0
7890 -13450 7663 0
7890 -13322 -7663 0
-7891 13322 -7667 0
-7891 13451 7667 0
7891 -13451 7667 0
7891 -13322 -7667 0
-7892 13322 -7671 0
-7892 13452 7671 0
7892 -13452 7671 0
7892 -13322 -7671 0
-7893 13322 -7675 0
-7893 13453 7675 0
7893 -13453 7675 0
7893 -13322 -7675 0
-7894 13322 -7679 0
-7894 13454 7679 0
7894 -13454 7679 0
7894 -13322 -7679 0
-7895 13322 -7683 0
-7895 13455 7683 0
7895 -13455 7683 0
7895 -13322 -7683 0
-7896 13322 -7687 0
-7896 13456 7687 0
7896 -13456 7687 0
7896 -13322 -7687 0
-7897 13322 -7691 0
-7897 13457 7691 0
7897 -13457 7691 0
7897 -13322 -7691 0
-7898 13322 -7695 0
-7898 13458 7695 0
7898 -13458 7695 0
7898 -13322 -7695 0
-7899 13322 -7699 0
-7899 13459 7699 0
7899 -13459 7699 0
7899 -13322 -7699 0
-7900 13322 -7703 0
-7900 13460 7703 0
7900 -13460 7703 0
7900 -13322 -7703 0
-7901 13322 -7707 0
-7901 13461 7707 0
7901 -13461 7707 0
7901 -13322 -7707 0
-7902 13322 -7711 0
-7902 13462 7711 0
7902 -13462 7711 0
7902 -13322 -7711 0
7903 -13463 7568 0
7903 -7568 7904 -7920 0
7903 -7568 -7904 7920 0
-7903 13463 7568 0
-7903 -7568 7904 7920 0
-7903 -7568 -7904 -7920 0
7904 -13322 7905 0
7904 13322 -7905 0
-7904 13322 7905 0
-7904 -13322 -7905 0
-7905 7906 0
-7905 13447 -7716 0
7905 -13447 -7906 0
7905 7716 -7906 0
7906 7720 7907 -7908 0
7906 -13461 7907 -7908 0
-7906 7908 0
-7906 -7907 0
-7906 13461 -7720 0
7907 13462 -7719 0
-7907 -13462 0
-7907 7719 0
7908 7724 7909 -7910 0
7908 -13459 7909 -7910 0
-7908 7910 0
-7908 -7909 0
-7908 13459 -7724 0
7909 13460 -7723 0
-7909 -13460 0
-7909 7723 0
7910 7728 7911 -7912 0
7910 -13457 7911 -7912 0
-7910 7912 0
-7910 -7911 0
-7910 13457 -7728 0
7911 13458 -7727 0
-7911 -13458 0
-7911 7727 0
7912 7732 7913 -7914 0
7912 -13455 7913 -7914 0
-7912 7914 0
-7912 -7913 0
-7912 13455 -7732 0
7913 13456 -7731 0
-7913 -13456 0
-7913 7731 0
7914 7736 7915 -7916 0
7914 -13453 7915 -7916 0
-7914 7916 0
-7914 -7915 0
-7914 13453 -7736 0
7915 13454 -7735 0
-7915 -13454 0
-7915 7735 0
7916 7740 7917 -7918 0
7916 -13451 7917 -7918 0
-7916 7918 0
-7916 -7917 0
-7916 13451 -7740 0
7917 13452 -7739 0
-7917 -13452 0
-7917 7739 0
7918 -13450 -7919 0
7918 7742 -7919 0
-7918 7919 0
-7918 13450 -7742 0
7919 -13448 7744 0
7919 -13449 -7745 0
7919 -13448 -13449 0
7919 7744 -7745 0
-7919 13448 7745 0
-7919 13449 -7744 0
7920 -7870 -7885 0
7920 13321 -7870 0
7920 13321 -7885 0
-7920 -13321 7870 0
-7920 7870 7885 0
-7920 -13321 7885 0
7921 -13463 -13464 7568 0
-7921 13463 0
-7921 13464 0
-7921 -7568 0
-7922 13323 -7651 0
-7922 13465 7651 0
7922 -13465 7651 0
7922 -13323 -7651 0
-7923 13323 -7655 0
-7923 13466 7655 0
7923 -13466 7655 0
7923 -13323 -7655 0
-7924 13323 -7659 0
-7924 13467 7659 0
7924 -13467 7659 0
7924 -13323 -7659 0
-7925 13323 -7663 0
-7925 13468 7663 0
7925 -13468 7663 0
7925 -13323 -7663 0
-7926 13323 -7667 0
-7926 13469 7667 0
7926 -13469 7667 0
7926 -13323 -7667 0
-7927 13323 -7671 0
-7927 13470 7671 0
7927 -13470 7671 0
7927 -13323 -7671 0
-7928 13323 -7675 0
-7928 13471 7675 0
7928 -13471 7675 0
7928 -13323 -7675 0
-7929 13323 -7679 0
-7929 13472 7679 0
7929 -13472 7679 0
7929 -13323 -7679 0
-7930 13323 -7683 0
-7930 13473 7683 0
7930 -13473 7683 0
7930 -13323 -7683 0
-7931 13323 -7687 0
-7931 13474 7687 0
7931 -13474 7687 0
7931 -13323 -7687 0
-7932 13323 -7691 0
-7932 13475 7691 0
7932 -13475 7691 0
7932 -13323 -7691 0
-7933 13323 -7695 0
-7933 13476 7695 0
7933 -13476 7695 0
7933 -13323 -7695 0
-7934 13323 -7699 0
-7934 13477 7699 0
7934 -13477 7699 0
7934 -13323 -7699 0
-7935 13323 -7703 0
-7935 13478 7703 0
7935 -13478 7703 0
7935 -13323 -7703 0
-7936 13323 -7707 0
-7936 13479 7707 0
7936 -13479 7707 0
7936 -13323 -7707 0
-7937 13323 -7711 0
-7937 13480 7711 0
7937 -13480 7711 0
7937 -13323 -7711 0
7938 -13481 7568 0
7938 -7568 7939 -7955 0
7938 -7568 -7939 7955 0
-7938 13481 7568 0
-7938 -7568 7939 7955 0
-7938 -7568 -7939 -7955 0
7939 -13323 7940 0
7939 13323 -7940 0
-7939 13323 7940 0
-7939 -13323 -7940 0
-7940 7941 0
-7940 13465 -7716 0
7940 -13465 -7941 0
7940 7716 -7941 0
7941 7720 7942 -7943 0
7941 -13479 7942 -7943 0
-7941 7943 0
-7941 -7942 0
-7941 13479 -7720 0
7942 13480 -7719 0
-7942 -13480 0
-7942 7719 0
7943 7724 7944 -7945 0
7943 -13477 7944 -7945 0
-7943 7945 0
-7943 -7944 0
-7943 13477 -7724 0
7944 13478 -7723 0
-7944 -13478 0
-7944 7723 0
7945 7728 7946 -7947 0
7945 -13475 7946 -7947 0
-7945 7947 0
-7945 -7946 0
-7945 13475 -7728 0
7946 13476 -7727 0
-7946 -13476 0
-7946 7727 0
7947 7732 7948 -7949 0
7947 -13473 7948 -7949 0
-7947 7949 0
-7947 -7948 0
-7947 13473 -7732 0
7948 13474 -7731 0
-7948 -13474 0
-7948 7731 0
7949 7736 7950 -7951 0
7949 -13471 7950 -7951 0
-7949 7951 0
-7949 -7950 0
-7949 13471 -7736 0
7950 13472 -7735 0
-7950 -13472 0
-7950 7735 0
7951 7740 7952 -7953 0
7951 -13469 7952 -7953 0
-7951 7953 0
-7951 -7952 0
-7951 13469 -7740 0
7952 13470 -7739 0
-7952 -13470 0
-7952 7739 0
7953 -13468 -7954 0
7953 7742 -7954 0
-7953 7954 0
-7953 13468 -7742 0
7954 -13466 7744 0
7954 -13467 -7745 0
7954 -13466 -13467 0
7954 7744 -7745 0
-7954 13466 7745 0
-7954 13467 -7744 0
7955 -7905 -7920 0
7955 13322 -7905 0
7955 13322 -7920 0
-7955 -13322 7905 0
-7955 7905 7920 0
-7955 -13322 7920 0
7956 -13481 -13482 7568 0
-7956 13481 0
-7956 13482 0
-7956 -7568 0
-7957 13324 -7651 0
-7957 13483 7651 0
7957 -13483 7651 0
7957 -13324 -7651 0
-7958 13324 -7655 0
-7958 13484 7655 0
7958 -13484 7655 0
7958 -13324 -7655 0
-7959 13324 -7659 0
-7959 13485 7659 0
7959 -13485 7659 0
7959 -13324 -7659 0
-7960 13324 -7663 0
-7960 13486 7663 0
7960 -13486 7663 0
7960 -13324 -7663 0
-7961 13324 -7667 0
-7961 13487 7667 0
7961 -13487 7667 0
7961 -13324 -7667 0
-7962 13324 -7671 0
-7962 13488 7671 0
7962 -13488 7671 0
7962 -13324 -7671 0
-7963 13324 -7675 0
-7963 13489 7675 0
7963 -13489 7675 0
7963 -13324 -7675 0
-7964 13324 -7679 0
-7964 13490 7679 0
7964 -13490 7679 0
7964 -13324 -7679 0
-7965 13324 -7683 0
-7965 13491 7683 0
7965 -13491 7683 0
7965 -13324 -7683 0
-7966 13324 -7687 0
-7966 13492 7687 0
7966 -13492 7687 0
7966 -13324 -7687 0
-7967 13324 -7691 0
-7967 13493 7691 0
7967 -13493 7691 0
7967 -13324 -7691 0
-7968 13324 -7695 0
-7968 13494 7695 0
7968 -13494 7695 0
7968 -13324 -7695 0
-7969 13324 -7699 0
-7969 13495 7699 0
7969 -13495 7699 0
7969 -13324 -7699 0
-7970 13324 -7703 0
-7970 13496 7703 0
7970 -13496 7703 0
7970 -13324 -7703 0
-7971 13324 -7707 0
-7971 13497 7707 0
7971 -13497 7707 0
7971 -13324 -7707 0
-7972 13324 -7711 0
-7972 13498 7711 0
7972 -13498 7711 0
7972 -13324 -7711 0
7973 -13499 7568 0
7973 -7568 7974 -7990 0
7973 -7568 -7974 7990 0
-7973 13499 7568 0
-7973 -7568 7974 7990 0
-7973 -7568 -7974 -7990 0
7974 -13324 7975 0
7974 13324 -7975 0
-7974 13324 7975 0
-7974 -13324 -7975 0
-7975 7976 0
-7975 13483 -7716 0
7975 -13483 -7976 0
7975 7716 -7976 0
7976 7720 7977 -7978 0
7976 -13497 7977 -7978 0
-7976 7978 0
-7976 -7977 0
-7976 13497 -7720 0
7977 13498 -7719 0
-7977 -13498 0
-7977 7719 0
7978 7724 7979 -7980 0
7978 -13495 7979 -7980 0
-7978 7980 0
-7978 -7979 0
-7978 13495 -7724 0
7979 13496 -7723 0
-7979 -13496 0
-7979 7723 0
7980 7728 7981 -7982 0
7980 -13493 7981 -7982 0
-7980 7982 0
-7980 -7981 0
-7980 13493 -7728 0
7981 13494 -7727 0
-7981 -13494 0
-7981 7727 0
7982 7732 7983 -7984 0
7982 -13491 7983 -7984 0
-7982 7984 0
-7982 -7983 0
-7982 13491 -7732 0
7983 13492 -7731 0
-7983 -13492 0
-7983 7731 0
7984 7736 7985 -7986 0
7984 -13489 7985 -7986 0
-7984 7986 0
-7984 -7985 0
-7984 13489 -7736 0
7985 13490 -7735 0
-7985 -13490 0
-7985 7735 0
7986 7740 7987 -7988 0
7986 -13487 7987 -7988 0
-7986 7988 0
-7986 -7987 0
-7986 13487 -7740 0
7987 13488 -7739 0
-7987 -13488 0
-7987 7739 0
7988 -13486 -7989 0
7988 7742 -7989 0
-7988 7989 0
-7988 13486 -7742 0
7989 -13484 7744 0
7989 -13485 -7745 0
7989 -13484 -13485 0
7989 7744 -7745 0
-7989 13484 7745 0
-7989 13485 -7744 0
7990 -7940 -7955 0
7990 13323 -7940 0
7990 13323 -7955 0
-7990 -13323 7940 0
-7990 7940 7955 0
-7990 -13323 7955 0
7991 -13499 -13500 7568 0
-7991 13499 0
-7991 13500 0
-7991 -7568 0
-7992 13325 -7651 0
-7992 13501 7651 0
7992 -13501 7651 0
7992 -13325 -7651 0
-7993 13325 -7655 0
-7993 13502 7655 0
7993 -13502 7655 0
7993 -13325 -7655 0
-7994 13325 -7659 0
-7994 13503 7659 0
7994 -13503 7659 0
7994 -13325 -7659 0
-7995 13325 -7663 0
-7995 13504 7663 0
7995 -13504 7663 0
7995 -13325 -7663 0
-7996 13325 -7667 0
-7996 13505 7667 0
7996 -13505 7667 0
7996 -13325 -7667 0
-7997 13325 -7671 0
-7997 13506 7671 0
7997 -13506 7671 0
7997 -13325 -7671 0
-7998 13325 -7675 0
-7998 13507 7675 0
7998 -13507 7675 0
7998 -13325 -7675 0
-7999 13325 -7679 0
-7999 13508 7679 0
7999 -13508 7679 0
7999 -13325 -7679 0
-8000 13325 -7683 0
-8000 13509 7683 0
8000 -13509 7683 0
8000 -13325 -7683 0
-8001 13325 -7687 0
-8001 13510 7687 0
8001 -13510 7687 0
8001 -13325 -7687 0
-8002 13325 -7691 0
-8002 13511 7691 0
8002 -13511 7691 0
8002 -13325 -7691 0
-8003 13325 -7695 0
-8003 13512 7695 0
8003 -13512 7695 0
8003 -13325 -7695 0
-8004 13325 -7699 0
-8004 13513 7699 0
8004 -13513 7699 0
8004 -13325 -7699 0
-8005 13325 -7703 0
-8005 13514 7703 0
8005 -13514 7703 0
8005 -13325 -7703 0
-8006 13325 -7707 0
-8006 13515 7707 0
8006 -13515 7707 0
8006 -13325 -7707 0
-8007 13325 -7711 0
-8007 13516 7711 0
8007 -13516 7711 0
8007 -13325 -7711 0
8008 -13517 7568 0
8008 -7568 8009 -8025 0
8008 -7568 -8009 8025 0
-8008 13517 7568 0
-8008 -7568 8009 8025 0
-8008 -7568 -8009 -8025 0
8009 -13325 8010 0
8009 13325 -8010 0
-8009 13325 8010 0
-8009 -13325 -8010 0
-8010 8011 0
-8010 13501 -7716 0
8010 -13501 -8011 0
8010 7716 -8011 0
8011 7720 8012 -8013 0
8011 -13515 8012 -8013 0
-8011 8013 0
-8011 -8012 0
-8011 13515 -7720 0
8012 13516 -7719 0
-8012 -13516 0
-8012 7719 0
8013 7724 8014 -8015 0
8013 -13513 8014 -8015 0
-8013 8015 0
-8013 -8014 0
-8013 13513 -7724 0
8014 13514 -7723 0
-8014 -13514 0
-8014 7723 0
8015 7728 8016 -8017 0
8015 -13511 8016 -8017 0
-8015 8017 0
-8015 -8016 0
-8015 13511 -7728 0
8016 13512 -7727 0
-8016 -13512 0
-8016 7727 0
8017 7732 8018 -8019 0
8017 -13509 8018 -8019 0
-8017 8019 0
-8017 -8018 0
-8017 13509 -7732 0
8018 13510 -7731 0
-8018 -13510 0
-8018 7731 0
8019 7736 8020 -8021 0
8019 -13507 8020 -8021 0
-8019 8021 0
-8019 -8020 0
-8019 13507 -7736 0
8020 13508 -7735 0
-8020 -13508 0
-8020 7735 0
8021 7740 8022 -8023 0
8021 -13505 8022 -8023 0
-8021 8023 0
-8021 -8022 0
-8021 13505 -7740 0
8022 13506 -7739 0
-8022 -13506 0
-8022 7739 0
8023 -13504 -8024 0
8023 7742 -8024 0
-8023 8024 0
-8023 13504 -7742 0
8024 -13502 7744 0
8024 -13503 -7745 0
8024 -13502 -13503 0
8024 7744 -7745 0
-8024 13502 7745 0
-8024 13503 -7744 0
8025 -7975 -7990 0
8025 13324 -7975 0
8025 13324 -7990 0
-8025 -13324 7975 0
-8025 7975 7990 0
-8025 -13324 7990 0
8026 -13517 -13518 7568 0
-8026 13517 0
-8026 13518 0
-8026 -7568 0
-8027 13326 -7651 0
-8027 13519 7651 0
8027 -13519 7651 0
8027 -13326 -7651 0
-8028 13326 -7655 0
-8028 13520 7655 0
8028 -13520 7655 0
8028 -13326 -7655 0
-8029 13326 -7659 0
-8029 13521 7659 0
8029 -13521 7659 0
8029 -13326 -7659 0
-8030 13326 -7663 0
-8030 13522 7663 0
8030 -13522 7663 0
8030 -13326 -7663 0
-8031 13326 -7667 0
-8031 13523 7667 0
8031 -13523 7667 0
8031 -13326 -7667 0
-8032 13326 -7671 0
-8032 13524 7671 0
8032 -13524 7671 0
8032 -13326 -7671 0
-8033 13326 -7675 0
-8033 13525 7675 0
8033 -13525 7675 0
8033 -13326 -7675 0
-8034 13326 -7679 0
-8034 13526 7679 0
8034 -13526 7679 0
8034 -13326 -7679 0
-8035 13326 -7683 0
-8035 13527 7683 0
8035 -13527 7683 0
8035 -13326 -7683 0
-8036 13326 -7687 0
-8036 13528 7687 0
8036 -13528 7687 0
8036 -13326 -7687 0
-8037 13326 -7691 0
-8037 13529 7691 0
8037 -13529 7691 0
8037 -13326 -7691 0
-8038 13326 -7695 0
-8038 13530 7695 0
8038 -13530 7695 0
8038 -13326 -7695 0
-8039 13326 -7699 0
-8039 13531 7699 0
8039 -13531 7699 0
8039 -13326 -7699 0
-8040 13326 -7703 0
-8040 13532 7703 0
8040 -13532 7703 0
8040 -13326 -7703 0
-8041 13326 -7707 0
-8041 13533 7707 0
8041 -13533 7707 0
8041 -13326 -7707 0
-8042 13326 -7711 0
-8042 13534 7711 0
8042 -13534 7711 0
8042 -13326 -7711 0
8043 -13535 7568 0
8043 -7568 8044 -8060 0
8043 -7568 -8044 8060 0
-8043 13535 7568 0
-8043 -7568 8044 8060 0
-8043 -7568 -8044 -8060 0
8044 -13326 8045 0
8044 13326 -8045 0
-8044 13326 8045 0
-8044 -13326 -8045 0
-8045 8046 0
-8045 13519 -7716 0
8045 -13519 -8046 0
8045 7716 -8046 0
8046 7720 8047 -8048 0
8046 -13533 8047 -8048 0
-8046 8048 0
-8046 -8047 0
-8046 13533 -7720 0
8047 13534 -7719 0
-8047 -13534 0
-8047 7719 0
8048 7724 8049 -8050 0
8048 -13531 8049 -8050 0
-8048 8050 0
-8048 -8049 0
-8048 13531 -7724 0
8049 13532 -7723 0
-8049 -13532 0
-8049 7723 0
8050 7728 8051 -8052 0
8050 -13529 8051 -8052 0
-8050 8052 0
-8050 -8051 0
-8050 13529 -7728 0
8051 13530 -7727 0
-8051 -13530 0
-8051 7727 0
8052 7732 8053 -8054 0
8052 -13527 8053 -8054 0
-8052 8054 0
-8052 -8053 0
-8052 13527 -7732 0
8053 13528 -7731 0
-8053 -13528 0
-8053 7731 0
8054 7736 8055 -8056 0
8054 -13525 8055 -8056 0
-8054 8056 0
-8054 -8055 0
-8054 13525 -7736 0
8055 13526 -7735 0
-8055 -13526 0
-8055 7735 0
8056 7740 8057 -8058 0
8056 -13523 8057 -8058 0
-8056 8058 0
-8056 -8057 0
-8056 13523 -7740 0
8057 13524 -7739 0
-8057 -13524 0
-8057 7739 0
8058 -13522 -8059 0
8058 7742 -8059 0
-8058 8059 0
-8058 13522 -7742 0
8059 -13520 7744 0
8059 -13521 -7745 0
8059 -13520 -13521 0
8059 7744 -7745 0
-8059 13520 7745 0
-8059 13521 -7744 0
8060 -8010 -8025 0
8060 13325 -8010 0
8060 13325 -8025 0
-8060 -13325 8010 0
-8060 8010 8025 0
-8060 -13325 8025 0
8061 -13535 -13536 7568 0
-8061 13535 0
-8061 13536 0
-8061 -7568 0
-8062 13327 -7651 0
-8062 13537 7651 0
8062 -13537 7651 0
8062 -13327 -7651 0
-8063 13327 -7655 0
-8063 13538 7655 0
8063 -13538 7655 0
8063 -13327 -7655 0
-8064 13327 -7659 0
-8064 13539 7659 0
8064 -13539 7659 0
8064 -13327 -7659 0
-8065 13327 -7663 0
-8065 13540 7663 0
8065 -13540 7663 0
8065 -13327 -7663 0
-8066 13327 -7667 0
-8066 13541 7667 0
8066 -13541 7667 0
8066 -13327 -7667 0
-8067 13327 -7671 0
-8067 13542 7671 0
8067 -13542 7671 0
8067 -13327 -7671 0
-8068 13327 -7675 0
-8068 13543 7675 0
8068 -13543 7675 0
8068 -13327 -7675 0
-8069 13327 -7679 0
-8069 13544 7679 0
8069 -13544 7679 0
8069 -13327 -7679 0
-8070 13327 -7683 0
-8070 13545 7683 0
8070 -13545 7683 0
8070 -13327 -7683 0
-8071 13327 -7687 0
-8071 13546 7687 0
8071 -13546 7687 0
8071 -13327 -7687 0
-8072 13327 -7691 0
-8072 13547 7691 0
8072 -13547 7691 0
8072 -13327 -7691 0
-8073 13327 -7695 0
-8073 13548 7695 0
8073 -13548 7695 0
8073 -13327 -7695 0
-8074 13327 -7699 0
-8074 13549 7699 0
8074 -13549 7699 0
8074 -13327 -7699 0
-8075 13327 -7703 0
-8075 13550 7703 0
8075 -13550 7703 0
8075 -13327 -7703 0
-8076 13327 -7707 0
-8076 13551 7707 0
8076 -13551 7707 0
8076 -13327 -7707 0
-8077 13327 -7711 0
-8077 13552 7711 0
8077 -13552 7711 0
8077 -13327 -7711 0
8078 -13553 7568 0
8078 -7568 8079 -8095 0
8078 -7568 -8079 8095 0
-8078 13553 7568 0
-8078 -7568 8079 8095 0
-8078 -7568 -8079 -8095 0
8079 -13327 8080 0
8079 13327 -8080 0
-8079 13327 8080 0
-8079 -13327 -8080 0
-8080 8081 0
-8080 13537 -7716 0
8080 -13537 -8081 0
8080 7716 -8081 0
8081 7720 8082 -8083 0
8081 -13551 8082 -8083 0
-8081 8083 0
-8081 -8082 0
-8081 13551 -7720 0
8082 13552 -7719 0
-8082 -13552 0
-8082 7719 0
8083 7724 8084 -8085 0
8083 -13549 8084 -8085 0
-8083 8085 0
-8083 -8084 0
-8083 13549 -7724 0
8084 13550 -7723 0
-8084 -13550 0
-8084 7723 0
8085 7728 8086 -8087 0
8085 -13547 8086 -8087 0
-8085 8087 0
-8085 -8086 0
-8085 13547 -7728 0
8086 13548 -7727 0
-8086 -13548 0
-8086 7727 0
8087 7732 8088 -8089 0
8087 -13545 8088 -8089 0
-8087 8089 0
-8087 -8088 0
-8087 13545 -7732 0
8088 13546 -7731 0
-8088 -13546 0
-8088 7731 0
8089 7736 8090 -8091 0
8089 -13543 8090 -8091 0
-8089 8091 0
-8089 -8090 0
-8089 13543 -7736 0
8090 13544 -7735 0
-8090 -13544 0
-8090 7735 0
8091 7740 8092 -8093 0
8091 -13541 8092 -8093 0
-8091 8093 0
-8091 -8092 0
-8091 13541 -7740 0
8092 13542 -7739 0
-8092 -13542 0
-8092 7739 0
8093 -13540 -8094 0
8093 7742 -8094 0
-8093 8094 0
-8093 13540 -7742 0
8094 -13538 7744 0
8094 -13539 -7745 0
8094 -13538 -13539 0
8094 7744 -7745 0
-8094 13538 7745 0
-8094 13539 -7744 0
8095 -8045 -8060 0
8095 13326 -8045 0
8095 13326 -8060 0
-8095 -13326 8045 0
-8095 8045 8060 0
-8095 -13326 8060 0
8096 -13553 -13554 7568 0
-8096 13553 0
-8096 13554 0
-8096 -7568 0
-8097 13328 -7651 0
-8097 13555 7651 0
8097 -13555 7651 0
8097 -13328 -7651 0
-8098 13328 -7655 0
-8098 13556 7655 0
8098 -13556 7655 0
8098 -13328 -7655 0
-8099 13328 -7659 0
-8099 13557 7659 0
8099 -13557 7659 0
8099 -13328 -7659 0
-8100 13328 -7663 0
-8100 13558 7663 0
8100 -13558 7663 0
8100 -13328 -7663 0
-8101 13328 -7667 0
-8101 13559 7667 0
8101 -13559 7667 0
8101 -13328 -7667 0
-8102 13328 -7671 0
-8102 13560 7671 0
8102 -13560 7671 0
8102 -13328 -7671 0
-8103 13328 -7675 0
-8103 13561 7675 0
8103 -13561 7675 0
8103 -13328 -7675 0
-8104 13328 -7679 0
-8104 13562 7679 0
8104 -13562 7679 0
8104 -13328 -7679 0
-8105 13328 -7683 0
-8105 13563 7683 0
8105 -13563 7683 0
8105 -13328 -7683 0
-8106 13328 -7687 0
-8106 13564 7687 0
8106 -13564 7687 0
8106 -13328 -7687 0
-8107 13328 -7691 0
-8107 13565 7691 0
8107 -13565 7691 0
8107 -13328 -7691 0
-8108 13328 -7695 0
-8108 13566 7695 0
8108 -13566 7695 0
8108 -13328 -7695 0
-8109 13328 -7699 0
-8109 13567 7699 0
8109 -13567 7699 0
8109 -13328 -7699 0
-8110 13328 -7703 0
-8110 13568 7703 0
8110 -13568 7703 0
8110 -13328 -7703 0
-8111 13328 -7707 0
-8111 13569 7707 0
8111 -13569 7707 0
8111 -13328 -7707 0
-8112 13328 -7711 0
-8112 13570 7711 0
8112 -13570 7711 0
8112 -13328 -7711 0
8113 -13571 7568 0
8113 -7568 8114 -8130 0
8113 -7568 -8114 8130 0
-8113 13571 7568 0
-8113 -7568 8114 8130 0
-8113 -7568 -8114 -8130 0
8114 -13328 8115 0
8114 13328 -8115 0
-8114 13328 8115 0
-8114 -13328 -8115 0
-8115 8116 0
-8115 13555 -7716 0
8115 -13555 -8116 0
8115 7716 -8116 0
8116 7720 8117 -8118 0
8116 -13569 8117 -8118 0
-8116 8118 0
-8116 -8117 0
-8116 13569 -7720 0
8117 13570 -7719 0
-8117 -13570 0
-8117 7719 0
8118 7724 8119 -8120 0
8118 -13567 8119 -8120 0
-8118 8120 0
-8118 -8119 0
-8118 13567 -7724 0
8119 13568 -7723 0
-8119 -13568 0
-8119 7723 0
8120 7728 8121 -8122 0
8120 -13565 8121 -8122 0
-8120 8122 0
-8120 -8121 0
-8120 13565 -7728 0
8121 13566 -7727 0
-8121 -13566 0
-8121 7727 0
8122 7732 8123 -8124 0
8122 -13563 8123 -8124 0
-8122 8124 0
-8122 -8123 0
-8122 13563 -7732 0
8123 13564 -7731 0
-8123 -13564 0
-8123 7731 0
8124 7736 8125 -8126 0
8124 -13561 8125 -8126 0
-8124 8126 0
-8124 -8125 0
-8124 13561 -7736 0
8125 13562 -7735 0
-8125 -13562 0
-8125 7735 0
8126 7740 8127 -8128 0
8126 -13559 8127 -8128 0
-8126 8128 0
-8126 -8127 0
-8126 13559 -7740 0
8127 13560 -7739 0
-8127 -13560 0
-8127 7739 0
8128 -13558 -8129 0
8128 7742 -8129 0
-8128 8129 0
-8128 13558 -7742 0
8129 -13556 7744 0
8129 -13557 -7745 0
8129 -13556 -13557 0
8129 7744 -7745 0
-8129 13556 7745 0
-8129 13557 -7744 0
8130 -8080 -8095 0
8130 13327 -8080 0
8130 13327 -8095 0
-8130 -13327 8080 0
-8130 8080 8095 0
-8130 -13327 8095 0
8131 -13571 -13572 7568 0
-8131 13571 0
-8131 13572 0
-8131 -7568 0
-8132 13329 -7651 0
-8132 13573 7651 0
8132 -13573 7651 0
8132 -13329 -7651 0
-8133 13329 -7655 0
-8133 13574 7655 0
8133 -13574 7655 0
8133 -13329 -7655 0
-8134 13329 -7659 0
-8134 13575 7659 0
8134 -13575 7659 0
8134 -13329 -7659 0
-8135 13329 -7663 0
-8135 13576 7663 0
8135 -13576 7663 0
8135 -13329 -7663 0
-8136 13329 -7667 0
-8136 13577 7667 0
8136 -13577 7667 0
8136 -13329 -7667 0
-8137 13329 -7671 0
-8137 13578 7671 0
8137 -13578 7671 0
8137 -13329 -7671 0
-8138 13329 -7675 0
-8138 13579 7675 0
8138 -13579 7675 0
8138 -13329 -7675 0
-8139 13329 -7679 0
-8139 13580 7679 0
8139 -13580 7679 0
8139 -13329 -7679 0
-8140 13329 -7683 0
-8140 13581 7683 0
8140 -13581 7683 0
8140 -13329 -7683 0
-8141 13329 -7687 0
-8141 13582 7687 0
8141 -13582 7687 0
8141 -13329 -7687 0
-8142 13329 -7691 0
-8142 13583 7691 0
8142 -13583 7691 0
8142 -13329 -7691 0
-8143 13329 -7695 0
-8143 13584 7695 0
8143 -13584 7695 0
8143 -13329 -7695 0
-8144 13329 -7699 0
-8144 13585 7699 0
8144 -13585 7699 0
8144 -13329 -7699 0
-8145 13329 -7703 0
-8145 13586 7703 0
8145 -13586 7703 0
8145 -13329 -7703 0
-8146 13329 -7707 0
-8146 13587 7707 0
8146 -13587 7707 0
8146 -13329 -7707 0
-8147 13329 -7711 0
-8147 13588 7711 0
8147 -13588 7711 0
8147 -13329 -7711 0
8148 -13589 7568 0
8148 -7568 8149 -8165 0
8148 -7568 -8149 8165 0
-8148 13589 7568 0
-8148 -7568 8149 8165 0
-8148 -7568 -8149 -8165 0
8149 -13329 8150 0
8149 13329 -8150 0
-8149 13329 8150 0
-8149 -13329 -8150 0
-8150 8151 0
-8150 13573 -7716 0
8150 -13573 -8151 0
8150 7716 -8151 0
8151 7720 8152 -8153 0
8151 -13587 8152 -8153 0
-8151 8153 0
-8151 -8152 0
-8151 13587 -7720 0
8152 13588 -7719 0
-8152 -13588 0
-8152 7719 0
8153 7724 8154 -8155 0
8153 -13585 8154 -8155 0
-8153 8155 0
-8153 -8154 0
-8153 13585 -7724 0
8154 13586 -7723 0
-8154 -13586 0
-8154 7723 0
8155 7728 8156 -8157 0
8155 -13583 8156 -8157 0
-8155 8157 0
-8155 -8156 0
-8155 13583 -7728 0
8156 13584 -7727 0
-8156 -13584 0
-8156 7727 0
8157 7732 8158 -8159 0
8157 -13581 8158 -8159 0
-8157 8159 0
-8157 -8158 0
-8157 13581 -7732 0
8158 13582 -7731 0
-8158 -13582 0
-8158 7731 0
8159 7736 8160 -8161 0
8159 -13579 8160 -8161 0
-8159 8161 0
-8159 -8160 0
-8159 13579 -7736 0
8160 13580 -7735 0
-8160 -13580 0
-8160 7735 0
8161 7740 8162 -8163 0
8161 -13577 8162 -8163 0
-8161 8163 0
-8161 -8162 0
-8161 13577 -7740 0
8162 13578 -7739 0
-8162 -13578 0
-8162 7739 0
8163 -13576 -8164 0
8163 7742 -8164 0
-8163 8164 0
-8163 13576 -7742 0
8164 -13574 7744 0
8164 -13575 -7745 0
8164 -13574 -13575 0
8164 7744 -7745 0
-8164 13574 7745 0
-8164 13575 -7744 0
8165 -8115 -8130 0
8165 13328 -8115 0
8165 13328 -8130 0
-8165 -13328 8115 0
-8165 8115 8130 0
-8165 -13328 8130 0
8166 -13589 -13590 7568 0
-8166 13589 0
-8166 13590 0
-8166 -7568 0
-8167 13330 -7651 0
-8167 13591 7651 0
8167 -13591 7651 0
8167 -13330 -7651 0
-8168 13330 -7655 0
-8168 13592 7655 0
8168 -13592 7655 0
8168 -13330 -7655 0
-8169 13330 -7659 0
-8169 13593 7659 0
8169 -13593 7659 0
8169 -13330 -7659 0
-8170 13330 -7663 0
-8170 13594 7663 0
8170 -13594 7663 0
8170 -13330 -7663 0
-8171 13330 -7667 0
-8171 13595 7667 0
8171 -13595 7667 0
8171 -13330 -7667 0
-8172 13330 -7671 0
-8172 13596 7671 0
8172 -13596 7671 0
8172 -13330 -7671 0
-8173 13330 -7675 0
-8173 13597 7675 0
8173 -13597 7675 0
8173 -13330 -7675 0
-8174 13330 -7679 0
-8174 13598 7679 0
8174 -13598 7679 0
8174 -13330 -7679 0
-8175 13330 -7683 0
-8175 13599 7683 0
8175 -13599 7683 0
8175 -13330 -7683 0
-8176 13330 -7687 0
-8176 13600 7687 0
8176 -13600 7687 0
8176 -13330 -7687 0
-8177 13330 -7691 0
-8177 13601 7691 0
8177 -13601 7691 0
8177 -13330 -7691 0
-8178 13330 -7695 0
-8178 13602 7695 0
8178 -13602 7695 0
8178 -13330 -7695 0
-8179 13330 -7699 0
-8179 13603 7699 0
8179 -13603 7699 0
8179 -13330 -7699 0
-8180 13330 -7703 0
-8180 13604 7703 0
8180 -13604 7703 0
8180 -13330 -7703 0
-8181 13330 -7707 0
-8181 13605 7707 0
8181 -13605 7707 0
8181 -13330 -7707 0
-8182 13330 -7711 0
-8182 13606 7711 0
8182 -13606 7711 0
8182 -13330 -7711 0
8183 -13607 7568 0
8183 -7568 8184 -8200 0
8183 -7568 -8184 8200 0
-8183 13607 7568 0
-8183 -7568 8184 8200 0
-8183 -7568 -8184 -8200 0
8184 -13330 8185 0
8184 13330 -8185 0
-8184 13330 8185 0
-8184 -13330 -8185 0
-8185 8186 0
-8185 13591 -7716 0
8185 -13591 -8186 0
8185 7716 -8186 0
8186 7720 8187 -8188 0
8186 -13605 8187 -8188 0
-8186 8188 0
-8186 -8187 0
-8186 13605 -7720 0
8187 13606 -7719 0
-8187 -13606 0
-8187 7719 0
8188 7724 8189 -8190 0
8188 -13603 8189 -8190 0
-8188 8190 0
-8188 -8189 0
-8188 13603 -7724 0
8189 13604 -7723 0
-8189 -13604 0
-8189 7723 0
8190 7728 8191 -8192 0
8190 -13601 8191 -8192 0
-8190 8192 0
-8190 -8191 0
-8190 13601 -7728 0
8191 13602 -7727 0
-8191 -13602 0
-8191 7727 0
8192 7732 8193 -8194 0
8192 -13599 8193 -8194 0
-8192 8194 0
-8192 -8193 0
-8192 13599 -7732 0
8193 13600 -7731 0
-8193 -13600 0
-8193 7731 0
8194 7736 8195 -8196 0
8194 -13597 8195 -8196 0
-8194 8196 0
-8194 -8195 0
-8194 13597 -7736 0
8195 13598 -7735 0
-8195 -13598 0
-8195 7735 0
8196 7740 8197 -8198 0
8196 -13595 8197 -8198 0
-8196 8198 0
-8196 -8197 0
-8196 13595 -7740 0
8197 13596 -7739 0
-8197 -13596 0
-8197 7739 0
8198 -13594 -8199 0
8198 7742 -8199 0
-8198 8199 0
-8198 13594 -7742 0
8199 -13592 7744 0
8199 -13593 -7745 0
8199 -13592 -13593 0
8199 7744 -7745 0
-8199 13592 7745 0
-8199 13593 -7744 0
8200 -8150 -8165 0
8200 13329 -8150 0
8200 13329 -8165 0
-8200 -13329 8150 0
-8200 8150 8165 0
-8200 -13329 8165 0
8201 -13607 -13608 7568 0
-8201 13607 0
-8201 13608 0
-8201 -7568 0
-8202 13331 -7651 0
-8202 13609 7651 0
8202 -13609 7651 0
8202 -13331 -7651 0
-8203 13331 -7655 0
-8203 13610 7655 0
8203 -13610 7655 0
8203 -13331 -7655 0
-8204 13331 -7659 0
-8204 13611 7659 0
8204 -13611 7659 0
8204 -13331 -7659 0
-8205 13331 -7663 0
-8205 13612 7663 0
8205 -13612 7663 0
8205 -13331 -7663 0
-8206 13331 -7667 0
-8206 13613 7667 0
8206 -13613 7667 0
8206 -13331 -7667 0
-8207 13331 -7671 0
-8207 13614 7671 0
8207 -13614 7671 0
8207 -13331 -7671 0
-8208 13331 -7675 0
-8208 13615 7675 0
8208 -13615 7675 0
8208 -13331 -7675 0
-8209 13331 -7679 0
-8209 13616 7679 0
8209 -13616 7679 0
8209 -13331 -7679 0
-8210 13331 -7683 0
-8210 13617 7683 0
8210 -13617 7683 0
8210 -13331 -7683 0
-8211 13331 -7687 0
-8211 13618 7687 0
8211 -13618 7687 0
8211 -13331 -7687 0
-8212 13331 -7691 0
-8212 13619 7691 0
8212 -13619 7691 0
8212 -13331 -7691 0
-8213 13331 -7695 0
-8213 13620 7695 0
8213 -13620 7695 0
8213 -13331 -7695 0
-8214 13331 -7699 0
-8214 13621 7699 0
8214 -13621 7699 0
8214 -13331 -7699 0
-8215 13331 -7703 0
-8215 13622 7703 0
8215 -13622 7703 0
8215 -13331 -7703 0
-8216 13331 -7707 0
-8216 13623 7707 0
8216 -13623 7707 0
8216 -13331 -7707 0
-8217 13331 -7711 0
-8217 13624 7711 0
8217 -13624 7711 0
8217 -13331 -7711 0
8218 -13625 7568 0
8218 -7568 8219 -8235 0
8218 -7568 -8219 8235 0
-8218 13625 7568 0
-8218 -7568 8219 8235 0
-8218 -7568 -8219 -8235 0
8219 -13331 8220 0
8219 13331 -8220 0
-8219 13331 8220 0
-8219 -13331 -8220 0
-8220 8221 0
-8220 13609 -7716 0
8220 -13609 -8221 0
8220 7716 -8221 0
8221 7720 8222 -8223 0
8221 -13623 8222 -8223 0
-8221 8223 0
-8221 -8222 0
-8221 13623 -7720 0
8222 13624 -7719 0
-8222 -13624 0
-8222 7719 0
8223 7724 8224 -8225 0
8223 -13621 8224 -8225 0
-8223 8225 0
-8223 -8224 0
-8223 13621 -7724 0
8224 13622 -7723 0
-8224 -13622 0
-8224 7723 0
8225 7728 8226 -8227 0
8225 -13619 8226 -8227 0
-8225 8227 0
-8225 -8226 0
-8225 13619 -7728 0
8226 13620 -7727 0
-8226 -13620 0
-8226 7727 0
8227 7732 8228 -8229 0
8227 -13617 8228 -8229 0
-8227 8229 0
-8227 -8228 0
-8227 13617 -7732 0
8228 13618 -7731 0
-8228 -13618 0
-8228 7731 0
8229 7736 8230 -8231 0
8229 -13615 8230 -8231 0
-8229 8231 0
-8229 -8230 0
-8229 13615 -7736 0
8230 13616 -7735 0
-8230 -13616 0
-8230 7735 0
8231 7740 8232 -8233 0
8231 -13613 8232 -8233 0
-8231 8233 0
-8231 -8232 0
-8231 13613 -7740 0
8232 13614 -7739 0
-8232 -13614 0
-8232 7739 0
8233 -13612 -8234 0
8233 7742 -8234 0
-8233 8234 0
-8233 13612 -7742 0
8234 -13610 7744 0
8234 -13611 -7745 0
8234 -13610 -13611 0
8234 7744 -7745 0
-8234 13610 7745 0
-8234 13611 -7744 0
8235 -8185 -8200 0
8235 13330 -8185 0
8235 13330 -8200 0
-8235 -13330 8185 0
-8235 8185 8200 0
-8235 -13330 8200 0
8236 -13625 -13626 7568 0
-8236 13625 0
-8236 13626 0
-8236 -7568 0
-8237 13332 -7651 0
-8237 13627 7651 0
8237 -13627 7651 0
8237 -13332 -7651 0
-8238 13332 -7655 0
-8238 13628 7655 0
8238 -13628 7655 0
8238 -13332 -7655 0
-8239 13332 -7659 0
-8239 13629 7659 0
8239 -13629 7659 0
8239 -13332 -7659 0
-8240 13332 -7663 0
-8240 13630 7663 0
8240 -13630 7663 0
8240 -13332 -7663 0
-8241 13332 -7667 0
-8241 13631 7667 0
8241 -13631 7667 0
8241 -13332 -7667 0
-8242 13332 -7671 0
-8242 13632 7671 0
8242 -13632 7671 0
8242 -13332 -7671 0
-8243 13332 -7675 0
-8243 13633 7675 0
8243 -13633 7675 0
8243 -13332 -7675 0
-8244 13332 -7679 0
-8244 13634 7679 0
8244 -13634 7679 0
8244 -13332 -7679 0
-8245 13332 -7683 0
-8245 13635 7683 0
8245 -13635 7683 0
8245 -13332 -7683 0
-8246 13332 -7687 0
-8246 13636 7687 0
8246 -13636 7687 0
8246 -13332 -7687 0
-8247 13332 -7691 0
-8247 13637 7691 0
8247 -13637 7691 0
8247 -13332 -7691 0
-8248 13332 -7695 0
-8248 13638 7695 0
8248 -13638 7695 0
8248 -13332 -7695 0
-8249 13332 -7699 0
-8249 13639 7699 0
8249 -13639 7699 0
8249 -13332 -7699 0
-8250 13332 -7703 0
-8250 13640 7703 0
8250 -13640 7703 0
8250 -13332 -7703 0
-8251 13332 -7707 0
-8251 13641 7707 0
8251 -13641 7707 0
8251 -13332 -7707 0
-8252 13332 -7711 0
-8252 13642 7711 0
8252 -13642 7711 0
8252 -13332 -7711 0
8253 -13643 7568 0
8253 -7568 8254 -8270 0
8253 -7568 -8254 8270 0
-8253 13643 7568 0
-8253 -7568 8254 8270 0
-8253 -7568 -8254 -8270 0
8254 -13332 8255 0
8254 13332 -8255 0
-8254 13332 8255 0
-8254 -13332 -8255 0
-8255 8256 0
-8255 13627 -7716 0
8255 -13627 -8256 0
8255 7716 -8256 0
8256 7720 8257 -8258 0
8256 -13641 8257 -8258 0
-8256 8258 0
-8256 -8257 0
-8256 13641 -7720 0
8257 13642 -7719 0
-8257 -13642 0
-8257 7719 0
8258 7724 8259 -8260 0
8258 -13639 8259 -8260 0
-8258 8260 0
-8258 -8259 0
-8258 13639 -7724 0
8259 13640 -7723 0
-8259 -13640 0
-8259 7723 0
8260 7728 8261 -8262 0
8260 -13637 8261 -8262 0
-8260 8262 0
-8260 -8261 0
-8260 13637 -7728 0
8261 13638 -7727 0
-8261 -13638 0
-8261 7727 0
8262 7732 8263 -8264 0
8262 -13635 8263 -8264 0
-8262 8264 0
-8262 -8263 0
-8262 13635 -7732 0
8263 13636 -7731 0
-8263 -13636 0
-8263 7731 0
8264 7736 8265 -8266 0
8264 -13633 8265 -8266 0
-8264 8266 0
-8264 -8265 0
-8264 13633 -7736 0
8265 13634 -7735 0
-8265 -13634 0
-8265 7735 0
8266 7740 8267 -8268 0
8266 -13631 8267 -8268 0
-8266 8268 0
-8266 -8267 0
-8266 13631 -7740 0
8267 13632 -7739 0
-8267 -13632 0
-8267 7739 0
8268 -13630 -8269 0
8268 7742 -8269 0
-8268 8269 0
-8268 13630 -7742 0
8269 -13628 7744 0
8269 -13629 -7745 0
8269 -13628 -13629 0
8269 7744 -7745 0
-8269 13628 7745 0
-8269 13629 -7744 0
8270 -8220 -8235 0
8270 13331 -8220 0
8270 13331 -8235 0
-8270 -13331 8220 0
-8270 8220 8235 0
-8270 -13331 8235 0
8271 -13643 -13644 7568 0
-8271 13643 0
-8271 13644 0
-8271 -7568 0
-8272 13333 -7651 0
-8272 13645 7651 0
8272 -13645 7651 0
8272 -13333 -7651 0
-8273 13333 -7655 0
-8273 13646 7655 0
8273 -13646 7655 0
8273 -13333 -7655 0
-8274 13333 -7659 0
-8274 13647 7659 0
8274 -13647 7659 0
8274 -13333 -7659 0
-8275 13333 -7663 0
-8275 13648 7663 0
8275 -13648 7663 0
8275 -13333 -7663 0
-8276 13333 -7667 0
-8276 13649 7667 0
8276 -13649 7667 0
8276 -13333 -7667 0
-8277 13333 -7671 0
-8277 13650 7671 0
8277 -13650 7671 0
8277 -13333 -7671 0
-8278 13333 -7675 0
-8278 13651 7675 0
8278 -13651 7675 0
8278 -13333 -7675 0
-8279 13333 -7679 0
-8279 13652 7679 0
8279 -13652 7679 0
8279 -13333 -7679 0
-8280 13333 -7683 0
-8280 13653 7683 0
8280 -13653 7683 0
8280 -13333 -7683 0
-8281 13333 -7687 0
-8281 13654 7687 0
8281 -13654 7687 0
8281 -13333 -7687 0
-8282 13333 -7691 0
-8282 13655 7691 0
8282 -13655 7691 0
8282 -13333 -7691 0
-8283 13333 -7695 0
-8283 13656 7695 0
8283 -13656 7695 0
8283 -13333 -7695 0
-8284 13333 -7699 0
-8284 13657 7699 0
8284 -13657 7699 0
8284 -13333 -7699 0
-8285 13333 -7703 0
-8285 13658 7703 0
8285 -13658 7703 0
8285 -13333 -7703 0
-8286 13333 -7707 0
-8286 13659 7707 0
8286 -13659 7707 0
8286 -13333 -7707 0
-8287 13333 -7711 0
-8287 13660 7711 0
8287 -13660 7711 0
8287 -13333 -7711 0
8288 -13661 7568 0
8288 -7568 8289 -8305 0
8288 -7568 -8289 8305 0
-8288 13661 7568 0
-8288 -7568 8289 8305 0
-8288 -7568 -8289 -8305 0
8289 -13333 8290 0
8289 13333 -8290 0
-8289 13333 8290 0
-8289 -13333 -8290 0
-8290 8291 0
-8290 13645 -7716 0
8290 -13645 -8291 0
8290 7716 -8291 0
8291 7720 8292 -8293 0
8291 -13659 8292 -8293 0
-8291 8293 0
-8291 -8292 0
-8291 13659 -7720 0
8292 13660 -7719 0
-8292 -13660 0
-8292 7719 0
8293 7724 8294 -8295 0
8293 -13657 8294 -8295 0
-8293 8295 0
-8293 -8294 0
-8293 13657 -7724 0
8294 13658 -7723 0
-8294 -13658 0
-8294 7723 0
8295 7728 8296 -8297 0
8295 -13655 8296 -8297 0
-8295 8297 0
-8295 -8296 0
-8295 13655 -7728 0
8296 13656 -7727 0
-8296 -13656 0
-8296 7727 0
8297 7732 8298 -8299 0
8297 -13653 8298 -8299 0
-8297 8299 0
-8297 -8298 0
-8297 13653 -7732 0
8298 13654 -7731 0
-8298 -13654 0
-8298 7731 0
8299 7736 8300 -8301 0
8299 -13651 8300 -8301 0
-8299 8301 0
-8299 -8300 0
-8299 13651 -7736 0
8300 13652 -7735 0
-8300 -13652 0
-8300 7735 0
8301 7740 8302 -8303 0
8301 -13649 8302 -8303 0
-8301 8303 0
-8301 -8302 0
-8301 13649 -7740 0
8302 13650 -7739 0
-8302 -13650 0
-8302 7739 0
8303 -13648 -8304 0
8303 7742 -8304 0
-8303 8304 0
-8303 13648 -7742 0
8304 -13646 7744 0
8304 -13647 -7745 0
8304 -13646 -13647 0
8304 7744 -7745 0
-8304 13646 7745 0
-8304 13647 -7744 0
8305 -8255 -8270 0
8305 13332 -8255 0
8305 13332 -8270 0
-8305 -13332 8255 0
-8305 8255 8270 0
-8305 -13332 8270 0
8306 -13661 -13662 7568 0
-8306 13661 0
-8306 13662 0
-8306 -7568 0
-8307 13334 -7651 0
-8307 13663 7651 0
8307 -13663 7651 0
8307 -13334 -7651 0
-8308 13334 -7655 0
-8308 13664 7655 0
8308 -13664 7655 0
8308 -13334 -7655 0
-8309 13334 -7659 0
-8309 13665 7659 0
8309 -13665 7659 0
8309 -13334 -7659 0
-8310 13334 -7663 0
-8310 13666 7663 0
8310 -13666 7663 0
8310 -13334 -7663 0
-8311 13334 -7667 0
-8311 13667 7667 0
8311 -13667 7667 0
8311 -13334 -7667 0
-8312 13334 -7671 0
-8312 13668 7671 0
8312 -13668 7671 0
8312 -13334 -7671 0
-8313 13334 -7675 0
-8313 13669 7675 0
8313 -13669 7675 0
8313 -13334 -7675 0
-8314 13334 -7679 0
-8314 13670 7679 0
8314 -13670 7679 0
8314 -13334 -7679 0
-8315 13334 -7683 0
-8315 13671 7683 0
8315 -13671 7683 0
8315 -13334 -7683 0
-8316 13334 -7687 0
-8316 13672 7687 0
8316 -13672 7687 0
8316 -13334 -7687 0
-8317 13334 -7691 0
-8317 13673 7691 0
8317 -13673 7691 0
8317 -13334 -7691 0
-8318 13334 -7695 0
-8318 13674 7695 0
8318 -13674 7695 0
8318 -13334 -7695 0
-8319 13334 -7699 0
-8319 13675 7699 0
8319 -13675 7699 0
8319 -13334 -7699 0
-8320 13334 -7703 0
-8320 13676 7703 0
8320 -13676 7703 0
8320 -13334 -7703 0
-8321 13334 -7707 0
-8321 13677 7707 0
8321 -13677 7707 0
8321 -13334 -7707 0
-8322 13334 -7711 0
-8322 13678 7711 0
8322 -13678 7711 0
8322 -13334 -7711 0
8323 -13679 7568 0
8323 -7568 8324 -8340 0
8323 -7568 -8324 8340 0
-8323 13679 7568 0
-8323 -7568 8324 8340 0
-8323 -7568 -8324 -8340 0
8324 -13334 8325 0
8324 13334 -8325 0
-8324 13334 8325 0
-8324 -13334 -8325 0
-8325 8326 0
-8325 13663 -7716 0
8325 -13663 -8326 0
8325 7716 -8326 0
8326 7720 8327 -8328 0
8326 -13677 8327 -8328 0
-8326 8328 0
-8326 -8327 0
-8326 13677 -7720 0
8327 13678 -7719 0
-8327 -13678 0
-8327 7719 0
8328 7724 8329 -8330 0
8328 -13675 8329 -8330 0
-8328 8330 0
-8328 -8329 0
-8328 13675 -7724 0
8329 13676 -7723 0
-8329 -13676 0
-8329 7723 0
8330 7728 8331 -8332 0
8330 -13673 8331 -8332 0
-8330 8332 0
-8330 -8331 0
-8330 13673 -7728 0
8331 13674 -7727 0
-8331 -13674 0
-8331 7727 0
8332 7732 8333 -8334 0
8332 -13671 8333 -8334 0
-8332 8334 0
-8332 -8333 0
-8332 13671 -7732 0
8333 13672 -7731 0
-8333 -13672 0
-8333 7731 0
8334 7736 8335 -8336 0
8334 -13669 8335 -8336 0
-8334 8336 0
-8334 -8335 0
-8334 13669 -7736 0
8335 13670 -7735 0
-8335 -13670 0
-8335 7735 0
8336 7740 8337 -8338 0
8336 -13667 8337 -8338 0
-8336 8338 0
-8336 -8337 0
-8336 13667 -7740 0
8337 13668 -7739 0
-8337 -13668 0
-8337 7739 0
8338 -13666 -8339 0
8338 7742 -8339 0
-8338 8339 0
-8338 13666 -7742 0
8339 -13664 7744 0
8339 -13665 -7745 0
8339 -13664 -13665 0
8339 7744 -7745 0
-8339 13664 7745 0
-8339 13665 -7744 0
8340 -8290 -8305 0
8340 13333 -8290 0
8340 13333 -8305 0
-8340 -13333 8290 0
-8340 8290 8305 0
-8340 -13333 8305 0
8341 -13679 -13680 7568 0
-8341 13679 0
-8341 13680 0
-8341 -7568 0
-8342 13335 -7651 0
-8342 13681 7651 0
8342 -13681 7651 0
8342 -13335 -7651 0
-8343 13335 -7655 0
-8343 13682 7655 0
8343 -13682 7655 0
8343 -13335 -7655 0
-8344 13335 -7659 0
-8344 13683 7659 0
8344 -13683 7659 0
8344 -13335 -7659 0
-8345 13335 -7663 0
-8345 13684 7663 0
8345 -13684 7663 0
8345 -13335 -7663 0
-8346 13335 -7667 0
-8346 13685 7667 0
8346 -13685 7667 0
8346 -13335 -7667 0
-8347 13335 -7671 0
-8347 13686 7671 0
8347 -13686 7671 0
8347 -13335 -7671 0
-8348 13335 -7675 0
-8348 13687 7675 0
8348 -13687 7675 0
8348 -13335 -7675 0
-8349 13335 -7679 0
-8349 13688 7679 0
8349 -13688 7679 0
8349 -13335 -7679 0
-8350 13335 -7683 0
-8350 13689 7683 0
8350 -13689 7683 0
8350 -13335 -7683 0
-8351 13335 -7687 0
-8351 13690 7687 0
8351 -13690 7687 0
8351 -13335 -7687 0
-8352 13335 -7691 0
-8352 13691 7691 0
8352 -13691 7691 0
8352 -13335 -7691 0
-8353 13335 -7695 0
-8353 13692 7695 0
8353 -13692 7695 0
8353 -13335 -7695 0
-8354 13335 -7699 0
-8354 13693 7699 0
8354 -13693 7699 0
8354 -13335 -7699 0
-8355 13335 -7703 0
-8355 13694 7703 0
8355 -13694 7703 0
8355 -13335 -7703 0
-8356 13335 -7707 0
-8356 13695 7707 0
8356 -13695 7707 0
8356 -13335 -7707 0
-8357 13335 -7711 0
-8357 13696 7711 0
8357 -13696 7711 0
8357 -13335 -7711 0
8358 -13697 7568 0
8358 -7568 8359 -8375 0
8358 -7568 -8359 8375 0
-8358 13697 7568 0
-8358 -7568 8359 8375 0
-8358 -7568 -8359 -8375 0
8359 -13335 8360 0
8359 13335 -8360 0
-8359 13335 8360 0
-8359 -13335 -8360 0
-8360 8361 0
-8360 13681 -7716 0
8360 -13681 -8361 0
8360 7716 -8361 0
8361 7720 8362 -8363 0
8361 -13695 8362 -8363 0
-8361 8363 0
-8361 -8362 0
-8361 13695 -7720 0
8362 13696 -7719 0
-8362 -13696 0
-8362 7719 0
8363 7724 8364 -8365 0
8363 -13693 8364 -8365 0
-8363 8365 0
-8363 -8364 0
-8363 13693 -7724 0
8364 13694 -7723 0
-8364 -13694 0
-8364 7723 0
8365 7728 8366 -8367 0
8365 -13691 8366 -8367 0
-8365 8367 0
-8365 -8366 0
-8365 13691 -7728 0
8366 13692 -7727 0
-8366 -13692 0
-8366 7727 0
8367 7732 8368 -8369 0
8367 -13689 8368 -8369 0
-8367 8369 0
-8367 -8368 0
-8367 13689 -7732 0
8368 13690 -7731 0
-8368 -13690 0
-8368 7731 0
8369 7736 8370 -8371 0
8369 -13687 8370 -8371 0
-8369 8371 0
-8369 -8370 0
-8369 13687 -7736 0
8370 13688 -7735 0
-8370 -13688 0
-8370 7735 0
8371 7740 8372 -8373 0
8371 -13685 8372 -8373 0
-8371 8373 0
-8371 -8372 0
-8371 13685 -7740 0
8372 13686 -7739 0
-8372 -13686 0
-8372 7739 0
8373 -13684 -8374 0
8373 7742 -8374 0
-8373 8374 0
-8373 13684 -7742 0
8374 -13682 7744 0
8374 -13683 -7745 0
8374 -13682 -13683 0
8374 7744 -7745 0
-8374 13682 7745 0
-8374 13683 -7744 0
8375 -8325 -8340 0
8375 13334 -8325 0
8375 13334 -8340 0
-8375 -13334 8325 0
-8375 8325 8340 0
-8375 -13334 8340 0
8376 -13697 -13698 7568 0
-8376 13697 0
-8376 13698 0
-8376 -7568 0
-8377 13336 -7651 0
-8377 13699 7651 0
8377 -13699 7651 0
8377 -13336 -7651 0
-8378 13336 -7655 0
-8378 13700 7655 0
8378 -13700 7655 0
8378 -13336 -7655 0
-8379 13336 -7659 0
-8379 13701 7659 0
8379 -13701 7659 0
8379 -13336 -7659 0
-8380 13336 -7663 0
-8380 13702 7663 0
8380 -13702 7663 0
8380 -13336 -7663 0
-8381 13336 -7667 0
-8381 13703 7667 0
8381 -13703 7667 0
8381 -13336 -7667 0
-8382 13336 -7671 0
-8382 13704 7671 0
8382 -13704 7671 0
8382 -13336 -7671 0
-8383 13336 -7675 0
-8383 13705 7675 0
8383 -13705 7675 0
8383 -13336 -7675 0
-8384 13336 -7679 0
-8384 13706 7679 0
8384 -13706 7679 0
8384 -13336 -7679 0
-8385 13336 -7683 0
-8385 13707 7683 0
8385 -13707 7683 0
8385 -13336 -7683 0
-8386 13336 -7687 0
-8386 13708 7687 0
8386 -13708 7687 0
8386 -13336 -7687 0
-8387 13336 -7691 0
-8387 13709 7691 0
8387 -13709 7691 0
8387 -13336 -7691 0
-8388 13336 -7695 0
-8388 13710 7695 0
8388 -13710 7695 0
8388 -13336 -7695 0
-8389 13336 -7699 0
-8389 13711 7699 0
8389 -13711 7699 0
8389 -13336 -7699 0
-8390 13336 -7703 0
-8390 13712 7703 0
8390 -13712 7703 0
8390 -13336 -7703 0
-8391 13336 -7707 0
-8391 13713 7707 0
8391 -13713 7707 0
8391 -13336 -7707 0
-8392 13336 -7711 0
-8392 13714 7711 0
8392 -13714 7711 0
8392 -13336 -7711 0
8393 -13715 7568 0
8393 -7568 8394 -8410 0
8393 -7568 -8394 8410 0
-8393 13715 7568 0
-8393 -7568 8394 8410 0
-8393 -7568 -8394 -8410 0
8394 -13336 8395 0
8394 13336 -8395 0
-8394 13336 8395 0
-8394 -13336 -8395 0
-8395 8396 0
-8395 13699 -7716 0
8395 -13699 -8396 0
8395 7716 -8396 0
8396 7720 8397 -8398 0
8396 -13713 8397 -8398 0
-8396 8398 0
-8396 -8397 0
-8396 13713 -7720 0
8397 13714 -7719 0
-8397 -13714 0
-8397 7719 0
8398 7724 8399 -8400 0
8398 -13711 8399 -8400 0
-8398 8400 0
-8398 -8399 0
-8398 13711 -7724 0
8399 13712 -7723 0
-8399 -13712 0
-8399 7723 0
8400 7728 8401 -8402 0
8400 -13709 8401 -8402 0
-8400 8402 0
-8400 -8401 0
-8400 13709 -7728 0
8401 13710 -7727 0
-8401 -13710 0
-8401 7727 0
8402 7732 8403 -8404 0
8402 -13707 8403 -8404 0
-8402 8404 0
-8402 -8403 0
-8402 13707 -7732 0
8403 13708 -7731 0
-8403 -13708 0
-8403 7731 0
8404 7736 8405 -8406 0
8404 -13705 8405 -8406 0
-8404 8406 0
-8404 -8405 0
-8404 13705 -7736 0
8405 13706 -7735 0
-8405 -13706 0
-8405 7735 0
8406 7740 8407 -8408 0
8406 -13703 8407 -8408 0
-8406 8408 0
-8406 -8407 0
-8406 13703 -7740 0
8407 13704 -7739 0
-8407 -13704 0
-8407 7739 0
8408 -13702 -8409 0
8408 7742 -8409 0
-8408 8409 0
-8408 13702 -7742 0
8409 -13700 7744 0
8409 -13701 -7745 0
8409 -13700 -13701 0
8409 7744 -7745 0
-8409 13700 7745 0
-8409 13701 -7744 0
8410 -8360 -8375 0
8410 13335 -8360 0
8410 13335 -8375 0
-8410 -13335 8360 0
-8410 8360 8375 0
-8410 -13335 8375 0
8411 -13715 -13716 7568 0
-8411 13715 0
-8411 13716 0
-8411 -7568 0
-8412 13337 -7651 0
-8412 13717 7651 0
8412 -13717 7651 0
8412 -13337 -7651 0
-8413 13337 -7655 0
-8413 13718 7655 0
8413 -13718 7655 0
8413 -13337 -7655 0
-8414 13337 -7659 0
-8414 13719 7659 0
8414 -13719 7659 0
8414 -13337 -7659 0
-8415 13337 -7663 0
-8415 13720 7663 0
8415 -13720 7663 0
8415 -13337 -7663 0
-8416 13337 -7667 0
-8416 13721 7667 0
8416 -13721 7667 0
8416 -13337 -7667 0
-8417 13337 -7671 0
-8417 13722 7671 0
8417 -13722 7671 0
8417 -13337 -7671 0
-8418 13337 -7675 0
-8418 13723 7675 0
8418 -13723 7675 0
8418 -13337 -7675 0
-8419 13337 -7679 0
-8419 13724 7679 0
8419 -13724 7679 0
8419 -13337 -7679 0
-8420 13337 -7683 0
-8420 13725 7683 0
8420 -13725 7683 0
8420 -13337 -7683 0
-8421 13337 -7687 0
-8421 13726 7687 0
8421 -13726 7687 0
8421 -13337 -7687 0
-8422 13337 -7691 0
-8422 13727 7691 0
8422 -13727 7691 0
8422 -13337 -7691 0
-8423 13337 -7695 0
-8423 13728 7695 0
8423 -13728 7695 0
8423 -13337 -7695 0
-8424 13337 -7699 0
-8424 13729 7699 0
8424 -13729 7699 0
8424 -13337 -7699 0
-8425 13337 -7703 0
-8425 13730 7703 0
8425 -13730 7703 0
8425 -13337 -7703 0
-8426 13337 -7707 0
-8426 13731 7707 0
8426 -13731 7707 0
8426 -13337 -7707 0
-8427 13337 -7711 0
-8427 13732 7711 0
8427 -13732 7711 0
8427 -13337 -7711 0
8428 -13733 7568 0
8428 -7568 8429 -8445 0
8428 -7568 -8429 8445 0
-8428 13733 7568 0
-8428 -7568 8429 8445 0
-8428 -7568 -8429 -8445 0
8429 -13337 8430 0
8429 13337 -8430 0
-8429 13337 8430 0
-8429 -13337 -8430 0
-8430 8431 0
-8430 13717 -7716 0
8430 -13717 -8431 0
8430 7716 -8431 0
8431 7720 8432 -8433 0
8431 -13731 8432 -8433 0
-8431 8433 0
-8431 -8432 0
-8431 13731 -7720 0
8432 13732 -7719 0
-8432 -13732 0
-8432 7719 0
8433 7724 8434 -8435 0
8433 -13729 8434 -8435 0
-8433 8435 0
-8433 -8434 0
-8433 13729 -7724 0
8434 13730 -7723 0
-8434 -13730 0
-8434 7723 0
8435 7728 8436 -8437 0
8435 -13727 8436 -8437 0
-8435 8437 0
-8435 -8436 0
-8435 13727 -7728 0
8436 13728 -7727 0
-8436 -13728 0
-8436 7727 0
8437 7732 8438 -8439 0
8437 -13725 8438 -8439 0
-8437 8439 0
-8437 -8438 0
-8437 13725 -7732 0
8438 13726 -7731 0
-8438 -13726 0
-8438 7731 0
8439 7736 8440 -8441 0
8439 -13723 8440 -8441 0
-8439 8441 0
-8439 -8440 0
-8439 13723 -7736 0
8440 13724 -7735 0
-8440 -13724 0
-8440 7735 0
8441 7740 8442 -8443 0
8441 -13721 8442 -8443 0
-8441 8443 0
-8441 -8442 0
-8441 13721 -7740 0
8442 13722 -7739 0
-8442 -13722 0
-8442 7739 0
8443 -13720 -8444 0
8443 7742 -8444 0
-8443 8444 0
-8443 13720 -7742 0
8444 -13718 7744 0
8444 -13719 -7745 0
8444 -13718 -13719 0
8444 7744 -7745 0
-8444 13718 7745 0
-8444 13719 -7744 0
8445 -8395 -8410 0
8445 13336 -8395 0
8445 13336 -8410 0
-8445 -13336 8395 0
-8445 8395 8410 0
-8445 -13336 8410 0
8446 -13733 -13734 7568 0
-8446 13733 0
-8446 13734 0
-8446 -7568 0
-8447 13338 -7651 0
-8447 13735 7651 0
8447 -13735 7651 0
8447 -13338 -7651 0
-8448 13338 -7655 0
-8448 13736 7655 0
8448 -13736 7655 0
8448 -13338 -7655 0
-8449 13338 -7659 0
-8449 13737 7659 0
8449 -13737 7659 0
8449 -13338 -7659 0
-8450 13338 -7663 0
-8450 13738 7663 0
8450 -13738 7663 0
8450 -13338 -7663 0
-8451 13338 -7667 0
-8451 13739 7667 0
8451 -13739 7667 0
8451 -13338 -7667 0
-8452 13338 -7671 0
-8452 13740 7671 0
8452 -13740 7671 0
8452 -13338 -7671 0
-8453 13338 -7675 0
-8453 13741 7675 0
8453 -13741 7675 0
8453 -13338 -7675 0
-8454 13338 -7679 0
-8454 13742 7679 0
8454 -13742 7679 0
8454 -13338 -7679 0
-8455 13338 -7683 0
-8455 13743 7683 0
8455 -13743 7683 0
8455 -13338 -7683 0
-8456 13338 -7687 0
-8456 13744 7687 0
8456 -13744 7687 0
8456 -13338 -7687 0
-8457 13338 -7691 0
-8457 13745 7691 0
8457 -13745 7691 0
8457 -13338 -7691 0
-8458 13338 -7695 0
-8458 13746 7695 0
8458 -13746 7695 0
8458 -13338 -7695 0
-8459 13338 -7699 0
-8459 13747 7699 0
8459 -13747 7699 0
8459 -13338 -7699 0
-8460 13338 -7703 0
-8460 13748 7703 0
8460 -13748 7703 0
8460 -13338 -7703 0
-8461 13338 -7707 0
-8461 13749 7707 0
8461 -13749 7707 0
8461 -13338 -7707 0
-8462 13338 -7711 0
-8462 13750 7711 0
8462 -13750 7711 0
8462 -13338 -7711 0
8463 -13751 7568 0
8463 -7568 8464 -8480 0
8463 -7568 -8464 8480 0
-8463 13751 7568 0
-8463 -7568 8464 8480 0
-8463 -7568 -8464 -8480 0
8464 -13338 8465 0
8464 13338 -8465 0
-8464 13338 8465 0
-8464 -13338 -8465 0
-8465 8466 0
-8465 13735 -7716 0
8465 -13735 -8466 0
8465 7716 -8466 0
8466 7720 8467 -8468 0
8466 -13749 8467 -8468 0
-8466 8468 0
-8466 -8467 0
-8466 13749 -7720 0
8467 13750 -7719 0
-8467 -13750 0
-8467 7719 0
8468 7724 8469 -8470 0
8468 -13747 8469 -8470 0
-8468 8470 0
-8468 -8469 0
-8468 13747 -7724 0
8469 13748 -7723 0
-8469 -13748 0
-8469 7723 0
8470 7728 8471 -8472 0
8470 -13745 8471 -8472 0
-8470 8472 0
-8470 -8471 0
-8470 13745 -7728 0
8471 13746 -7727 0
-8471 -13746 0
-8471 7727 0
8472 7732 8473 -8474 0
8472 -13743 8473 -8474 0
-8472 8474 0
-8472 -8473 0
-8472 13743 -7732 0
8473 13744 -7731 0
-8473 -13744 0
-8473 7731 0
8474 7736 8475 -8476 0
8474 -13741 8475 -8476 0
-8474 8476 0
-8474 -8475 0
-8474 13741 -7736 0
8475 13742 -7735 0
-8475 -13742 0
-8475 7735 0
8476 7740 8477 -8478 0
8476 -13739 8477 -8478 0
-8476 8478 0
-8476 -8477 0
-8476 13739 -7740 0
8477 13740 -7739 0
-8477 -13740 0
-8477 7739 0
8478 -13738 -8479 0
8478 7742 -8479 0
-8478 8479 0
-8478 13738 -7742 0
8479 -13736 7744 0
8479 -13737 -7745 0
8479 -13736 -13737 0
8479 7744 -7745 0
-8479 13736 7745 0
-8479 13737 -7744 0
8480 -8430 -8445 0
8480 13337 -8430 0
8480 13337 -8445 0
-8480 -13337 8430 0
-8480 8430 8445 0
-8480 -13337 8445 0
8481 -13751 -13752 7568 0
-8481 13751 0
-8481 13752 0
-8481 -7568 0
-8482 13339 -7651 0
-8482 13753 7651 0
8482 -13753 7651 0
8482 -13339 -7651 0
-8483 13339 -7655 0
-8483 13754 7655 0
8483 -13754 7655 0
8483 -13339 -7655 0
-8484 13339 -7659 0
-8484 13755 7659 0
8484 -13755 7659 0
8484 -13339 -7659 0
-8485 13339 -7663 0
-8485 13756 7663 0
8485 -13756 7663 0
8485 -13339 -7663 0
-8486 13339 -7667 0
-8486 13757 7667 0
8486 -13757 7667 0
8486 -13339 -7667 0
-8487 13339 -7671 0
-8487 13758 7671 0
8487 -13758 7671 0
8487 -13339 -7671 0
-8488 13339 -7675 0
-8488 13759 7675 0
8488 -13759 7675 0
8488 -13339 -7675 0
-8489 13339 -7679 0
-8489 13760 7679 0
8489 -13760 7679 0
8489 -13339 -7679 0
-8490 13339 -7683 0
-8490 13761 7683 0
8490 -13761 7683 0
8490 -13339 -7683 0
-8491 13339 -7687 0
-8491 13762 7687 0
8491 -13762 7687 0
8491 -13339 -7687 0
-8492 13339 -7691 0
-8492 13763 7691 0
8492 -13763 7691 0
8492 -13339 -7691 0
-8493 13339 -7695 0
-8493 13764 7695 0
8493 -13764 7695 0
8493 -13339 -7695 0
-8494 13339 -7699 0
-8494 13765 7699 0
8494 -13765 7699 0
8494 -13339 -7699 0
-8495 13339 -7703 0
-8495 13766 7703 0
8495 -13766 7703 0
8495 -13339 -7703 0
-8496 13339 -7707 0
-8496 13767 7707 0
8496 -13767 7707 0
8496 -13339 -7707 0
-8497 13339 -7711 0
-8497 13768 7711 0
8497 -13768 7711 0
8497 -13339 -7711 0
8498 -13769 7568 0
8498 -7568 8499 -8515 0
8498 -7568 -8499 8515 0
-8498 13769 7568 0
-8498 -7568 8499 8515 0
-8498 -7568 -8499 -8515 0
8499 -13339 8500 0
8499 13339 -8500 0
-8499 13339 8500 0
-8499 -13339 -8500 0
-8500 8501 0
-8500 13753 -7716 0
8500 -13753 -8501 0
8500 7716 -8501 0
8501 7720 8502 -8503 0
8501 -13767 8502 -8503 0
-8501 8503 0
-8501 -8502 0
-8501 13767 -7720 0
8502 13768 -7719 0
-8502 -13768 0
-8502 7719 0
8503 7724 8504 -8505 0
8503 -13765 8504 -8505 0
-8503 8505 0
-8503 -8504 0
-8503 13765 -7724 0
8504 13766 -7723 0
-8504 -13766 0
-8504 7723 0
8505 7728 8506 -8507 0
8505 -13763 8506 -8507 0
-8505 8507 0
-8505 -8506 0
-8505 13763 -7728 0
8506 13764 -7727 0
-8506 -13764 0
-8506 7727 0
8507 7732 8508 -8509 0
8507 -13761 8508 -8509 0
-8507 8509 0
-8507 -8508 0
-8507 13761 -7732 0
8508 13762 -7731 0
-8508 -13762 0
-8508 7731 0
8509 7736 8510 -8511 0
8509 -13759 8510 -8511 0
-8509 8511 0
-8509 -8510 0
-8509 13759 -7736 0
8510 13760 -7735 0
-8510 -13760 0
-8510 7735 0
8511 7740 8512 -8513 0
8511 -13757 8512 -8513 0
-8511 8513 0
-8511 -8512 0
-8511 13757 -7740 0
8512 13758 -7739 0
-8512 -13758 0
-8512 7739 0
8513 -13756 -8514 0
8513 7742 -8514 0
-8513 8514 0
-8513 13756 -7742 0
8514 -13754 7744 0
8514 -13755 -7745 0
8514 -13754 -13755 0
8514 7744 -7745 0
-8514 13754 7745 0
-8514 13755 -7744 0
8515 -8465 -8480 0
8515 13338 -8465 0
8515 13338 -8480 0
-8515 -13338 8465 0
-8515 8465 8480 0
-8515 -13338 8480 0
8516 -13769 -13770 7568 0
-8516 13769 0
-8516 13770 0
-8516 -7568 0
-8517 13340 -7651 0
-8517 13771 7651 0
8517 -13771 7651 0
8517 -13340 -7651 0
-8518 13340 -7655 0
-8518 13772 7655 0
8518 -13772 7655 0
8518 -13340 -7655 0
-8519 13340 -7659 0
-8519 13773 7659 0
8519 -13773 7659 0
8519 -13340 -7659 0
-8520 13340 -7663 0
-8520 13774 7663 0
8520 -13774 7663 0
8520 -13340 -7663 0
-8521 13340 -7667 0
-8521 13775 7667 0
8521 -13775 7667 0
8521 -13340 -7667 0
-8522 13340 -7671 0
-8522 13776 7671 0
8522 -13776 7671 0
8522 -13340 -7671 0
-8523 13340 -7675 0
-8523 13777 7675 0
8523 -13777 7675 0
8523 -13340 -7675 0
-8524 13340 -7679 0
-8524 13778 7679 0
8524 -13778 7679 0
8524 -13340 -7679 0
-8525 13340 -7683 0
-8525 13779 7683 0
8525 -13779 7683 0
8525 -13340 -7683 0
-8526 13340 -7687 0
-8526 13780 7687 0
8526 -13780 7687 0
8526 -13340 -7687 0
-8527 13340 -7691 0
-8527 13781 7691 0
8527 -13781 7691 0
8527 -13340 -7691 0
-8528 13340 -7695 0
-8528 13782 7695 0
8528 -13782 7695 0
8528 -13340 -7695 0
-8529 13340 -7699 0
-8529 13783 7699 0
8529 -13783 7699 0
8529 -13340 -7699 0
-8530 13340 -7703 0
-8530 13784 7703 0
8530 -13784 7703 0
8530 -13340 -7703 0
-8531 13340 -7707 0
-8531 13785 7707 0
8531 -13785 7707 0
8531 -13340 -7707 0
-8532 13340 -7711 0
-8532 13786 7711 0
8532 -13786 7711 0
8532 -13340 -7711 0
8533 -13787 7568 0
8533 -7568 8534 -8550 0
8533 -7568 -8534 8550 0
-8533 13787 7568 0
-8533 -7568 8534 8550 0
-8533 -7568 -8534 -8550 0
8534 -13340 8535 0
8534 13340 -8535 0
-8534 13340 8535 0
-8534 -13340 -8535 0
-8535 8536 0
-8535 13771 -7716 0
8535 -13771 -8536 0
8535 7716 -8536 0
8536 7720 8537 -8538 0
8536 -13785 8537 -8538 0
-8536 8538 0
-8536 -8537 0
-8536 13785 -7720 0
8537 13786 -7719 0
-8537 -13786 0
-8537 7719 0
8538 7724 8539 -8540 0
8538 -13783 8539 -8540 0
-8538 8540 0
-8538 -8539 0
-8538 13783 -7724 0
8539 13784 -7723 0
-8539 -13784 0
-8539 7723 0
8540 7728 8541 -8542 0
8540 -13781 8541 -8542 0
-8540 8542 0
-8540 -8541 0
-8540 13781 -7728 0
8541 13782 -7727 0
-8541 -13782 0
-8541 7727 0
8542 7732 8543 -8544 0
8542 -13779 8543 -8544 0
-8542 8544 0
-8542 -8543 0
-8542 13779 -7732 0
8543 13780 -7731 0
-8543 -13780 0
-8543 7731 0
8544 7736 8545 -8546 0
8544 -13777 8545 -8546 0
-8544 8546 0
-8544 -8545 0
-8544 13777 -7736 0
8545 13778 -7735 0
-8545 -13778 0
-8545 7735 0
8546 7740 8547 -8548 0
8546 -13775 8547 -8548 0
-8546 8548 0
-8546 -8547 0
-8546 13775 -7740 0
8547 13776 -7739 0
-8547 -13776 0
-8547 7739 0
8548 -13774 -8549 0
8548 7742 -8549 0
-8548 8549 0
-8548 13774 -7742 0
8549 -13772 7744 0
8549 -13773 -7745 0
8549 -13772 -13773 0
8549 7744 -7745 0
-8549 13772 7745 0
-8549 13773 -7744 0
8550 -8500 -8515 0
8550 13339 -8500 0
8550 13339 -8515 0
-8550 -13339 8500 0
-8550 8500 8515 0
-8550 -13339 8515 0
8551 -13787 -13788 7568 0
-8551 13787 0
-8551 13788 0
-8551 -7568 0
-8552 13341 -7651 0
-8552 13789 7651 0
8552 -13789 7651 0
8552 -13341 -7651 0
-8553 13341 -7655 0
-8553 13790 7655 0
8553 -13790 7655 0
8553 -13341 -7655 0
-8554 13341 -7659 0
-8554 13791 7659 0
8554 -13791 7659 0
8554 -13341 -7659 0
-8555 13341 -7663 0
-8555 13792 7663 0
8555 -13792 7663 0
8555 -13341 -7663 0
-8556 13341 -7667 0
-8556 13793 7667 0
8556 -13793 7667 0
8556 -13341 -7667 0
-8557 13341 -7671 0
-8557 13794 7671 0
8557 -13794 7671 0
8557 -13341 -7671 0
-8558 13341 -7675 0
-8558 13795 7675 0
8558 -13795 7675 0
8558 -13341 -7675 0
-8559 13341 -7679 0
-8559 13796 7679 0
8559 -13796 7679 0
8559 -13341 -7679 0
-8560 13341 -7683 0
-8560 13797 7683 0
8560 -13797 7683 0
8560 -13341 -7683 0
-8561 13341 -7687 0
-8561 13798 7687 0
8561 -13798 7687 0
8561 -13341 -7687 0
-8562 13341 -7691 0
-8562 13799 7691 0
8562 -13799 7691 0
8562 -13341 -7691 0
-8563 13341 -7695 0
-8563 13800 7695 0
8563 -13800 7695 0
8563 -13341 -7695 0
-8564 13341 -7699 0
-8564 13801 7699 0
8564 -13801 7699 0
8564 -13341 -7699 0
-8565 13341 -7703 0
-8565 13802 7703 0
8565 -13802 7703 0
8565 -13341 -7703 0
-8566 13341 -7707 0
-8566 13803 7707 0
8566 -13803 7707 0
8566 -13341 -7707 0
-8567 13341 -7711 0
-8567 13804 7711 0
8567 -13804 7711 0
8567 -13341 -7711 0
8568 -13805 7568 0
8568 -7568 8569 -8585 0
8568 -7568 -8569 8585 0
-8568 13805 7568 0
-8568 -7568 8569 8585 0
-8568 -7568 -8569 -8585 0
8569 -13341 8570 0
8569 13341 -8570 0
-8569 13341 8570 0
-8569 -13341 -8570 0
-8570 8571 0
-8570 13789 -7716 0
8570 -13789 -8571 0
8570 7716 -8571 0
8571 7720 8572 -8573 0
8571 -13803 8572 -8573 0
-8571 8573 0
-8571 -8572 0
-8571 13803 -7720 0
8572 13804 -7719 0
-8572 -13804 0
-8572 7719 0
8573 7724 8574 -8575 0
8573 -13801 8574 -8575 0
-8573 8575 0
-8573 -8574 0
-8573 13801 -7724 0
8574 13802 -7723 0
-8574 -13802 0
-8574 7723 0
8575 7728 8576 -8577 0
8575 -13799 8576 -8577 0
-8575 8577 0
-8575 -8576 0
-8575 13799 -7728 0
8576 13800 -7727 0
-8576 -13800 0
-8576 7727 0
8577 7732 8578 -8579 0
8577 -13797 8578 -8579 0
-8577 8579 0
-8577 -8578 0
-8577 13797 -7732 0
8578 13798 -7731 0
-8578 -13798 0
-8578 7731 0
8579 7736 8580 -8581 0
8579 -13795 8580 -8581 0
-8579 8581 0
-8579 -8580 0
-8579 13795 -7736 0
8580 13796 -7735 0
-8580 -13796 0
-8580 7735 0
8581 7740 8582 -8583 0
8581 -13793 8582 -8583 0
-8581 8583 0
-8581 -8582 0
-8581 13793 -7740 0
8582 13794 -7739 0
-8582 -13794 0
-8582 7739 0
8583 -13792 -8584 0
8583 7742 -8584 0
-8583 8584 0
-8583 13792 -7742 0
8584 -13790 7744 0
8584 -13791 -7745 0
8584 -13790 -13791 0
8584 7744 -7745 0
-8584 13790 7745 0
-8584 13791 -7744 0
8585 -8535 -8550 0
8585 13340 -8535 0
8585 13340 -8550 0
-8585 -13340 8535 0
-8585 8535 8550 0
-8585 -13340 8550 0
8586 -13805 -13806 7568 0
-8586 13805 0
-8586 13806 0
-8586 -7568 0
-8587 13342 -7651 0
-8587 13807 7651 0
8587 -13807 7651 0
8587 -13342 -7651 0
-8588 13342 -7655 0
-8588 13808 7655 0
8588 -13808 7655 0
8588 -13342 -7655 0
-8589 13342 -7659 0
-8589 13809 7659 0
8589 -13809 7659 0
8589 -13342 -7659 0
-8590 13342 -7663 0
-8590 13810 7663 0
8590 -13810 7663 0
8590 -13342 -7663 0
-8591 13342 -7667 0
-8591 13811 7667 0
8591 -13811 7667 0
8591 -13342 -7667 0
-8592 13342 -7671 0
-8592 13812 7671 0
8592 -13812 7671 0
8592 -13342 -7671 0
-8593 13342 -7675 0
-8593 13813 7675 0
8593 -13813 7675 0
8593 -13342 -7675 0
-8594 13342 -7679 0
-8594 13814 7679 0
8594 -13814 7679 0
8594 -13342 -7679 0
-8595 13342 -7683 0
-8595 13815 7683 0
8595 -13815 7683 0
8595 -13342 -7683 0
-8596 13342 -7687 0
-8596 13816 7687 0
8596 -13816 7687 0
8596 -13342 -7687 0
-8597 13342 -7691 0
-8597 13817 7691 0
8597 -13817 7691 0
8597 -13342 -7691 0
-8598 13342 -7695 0
-8598 13818 7695 0
8598 -13818 7695 0
8598 -13342 -7695 0
-8599 13342 -7699 0
-8599 13819 7699 0
8599 -13819 7699 0
8599 -13342 -7699 0
-8600 13342 -7703 0
-8600 13820 7703 0
8600 -13820 7703 0
8600 -13342 -7703 0
-8601 13342 -7707 0
-8601 13821 7707 0
8601 -13821 7707 0
8601 -13342 -7707 0
-8602 13342 -7711 0
-8602 13822 7711 0
8602 -13822 7711 0
8602 -13342 -7711 0
8603 -13823 7568 0
8603 -7568 8604 -8620 0
8603 -7568 -8604 8620 0
-8603 13823 7568 0
-8603 -7568 8604 8620 0
-8603 -7568 -8604 -8620 0
8604 -13342 8605 0
8604 13342 -8605 0
-8604 13342 8605 0
-8604 -13342 -8605 0
-8605 8606 0
-8605 13807 -7716 0
8605 -13807 -8606 0
8605 7716 -8606 0
8606 7720 8607 -8608 0
8606 -13821 8607 -8608 0
-8606 8608 0
-8606 -8607 0
-8606 13821 -7720 0
8607 13822 -7719 0
-8607 -13822 0
-8607 7719 0
8608 7724 8609 -8610 0
8608 -13819 8609 -8610 0
-8608 8610 0
-8608 -8609 0
-8608 13819 -7724 0
8609 13820 -7723 0
-8609 -13820 0
-8609 7723 0
8610 7728 8611 -8612 0
8610 -13817 8611 -8612 0
-8610 8612 0
-8610 -8611 0
-8610 13817 -7728 0
8611 13818 -7727 0
-8611 -13818 0
-8611 7727 0
8612 7732 8613 -8614 0
8612 -13815 8613 -8614 0
-8612 8614 0
-8612 -8613 0
-8612 13815 -7732 0
8613 13816 -7731 0
-8613 -13816 0
-8613 7731 0
8614 7736 8615 -8616 0
8614 -13813 8615 -8616 0
-8614 8616 0
-8614 -8615 0
-8614 13813 -7736 0
8615 13814 -7735 0
-8615 -13814 0
-8615 7735 0
8616 7740 8617 -8618 0
8616 -13811 8617 -8618 0
-8616 8618 0
-8616 -8617 0
-8616 13811 -7740 0
8617 13812 -7739 0
-8617 -13812 0
-8617 7739 0
8618 -13810 -8619 0
8618 7742 -8619 0
-8618 8619 0
-8618 13810 -7742 0
8619 -13808 7744 0
8619 -13809 -7745 0
8619 -13808 -13809 0
8619 7744 -7745 0
-8619 13808 7745 0
-8619 13809 -7744 0
8620 -8570 -8585 0
8620 13341 -8570 0
8620 13341 -8585 0
-8620 -13341 8570 0
-8620 8570 8585 0
-8620 -13341 8585 0
8621 -13823 -13824 7568 0
-8621 13823 0
-8621 13824 0
-8621 -7568 0
-8622 13343 -7651 0
-8622 13825 7651 0
8622 -13825 7651 0
8622 -13343 -7651 0
-8623 13343 -7655 0
-8623 13826 7655 0
8623 -13826 7655 0
8623 -13343 -7655 0
-8624 13343 -7659 0
-8624 13827 7659 0
8624 -13827 7659 0
8624 -13343 -7659 0
-8625 13343 -7663 0
-8625 13828 7663 0
8625 -13828 7663 0
8625 -13343 -7663 0
-8626 13343 -7667 0
-8626 13829 7667 0
8626 -13829 7667 0
8626 -13343 -7667 0
-8627 13343 -7671 0
-8627 13830 7671 0
8627 -13830 7671 0
8627 -13343 -7671 0
-8628 13343 -7675 0
-8628 13831 7675 0
8628 -13831 7675 0
8628 -13343 -7675 0
-8629 13343 -7679 0
-8629 13832 7679 0
8629 -13832 7679 0
8629 -13343 -7679 0
-8630 13343 -7683 0
-8630 13833 7683 0
8630 -13833 7683 0
8630 -13343 -7683 0
-8631 13343 -7687 0
-8631 13834 7687 0
8631 -13834 7687 0
8631 -13343 -7687 0
-8632 13343 -7691 0
-8632 13835 7691 0
8632 -13835 7691 0
8632 -13343 -7691 0
-8633 13343 -7695 0
-8633 13836 7695 0
8633 -13836 7695 0
8633 -13343 -7695 0
-8634 13343 -7699 0
-8634 13837 7699 0
8634 -13837 7699 0
8634 -13343 -7699 0
-8635 13343 -7703 0
-8635 13838 7703 0
8635 -13838 7703 0
8635 -13343 -7703 0
-8636 13343 -7707 0
-8636 13839 7707 0
8636 -13839 7707 0
8636 -13343 -7707 0
-8637 13343 -7711 0
-8637 13840 7711 0
8637 -13840 7711 0
8637 -13343 -7711 0
8638 -13841 7568 0
8638 -7568 8639 -8655 0
8638 -7568 -8639 8655 0
-8638 13841 7568 0
-8638 -7568 8639 8655 0
-8638 -7568 -8639 -8655 0
8639 -13343 8640 0
8639 13343 -8640 0
-8639 13343 8640 0
-8639 -13343 -8640 0
-8640 8641 0
-8640 13825 -7716 0
8640 -13825 -8641 0
8640 7716 -8641 0
8641 7720 8642 -8643 0
8641 -13839 8642 -8643 0
-8641 8643 0
-8641 -8642 0
-8641 13839 -7720 0
8642 13840 -7719 0
-8642 -13840 0
-8642 7719 0
8643 7724 8644 -8645 0
8643 -13837 8644 -8645 0
-8643 8645 0
-8643 -8644 0
-8643 13837 -7724 0
8644 13838 -7723 0
-8644 -13838 0
-8644 7723 0
8645 7728 8646 -8647 0
8645 -13835 8646 -8647 0
-8645 8647 0
-8645 -8646 0
-8645 13835 -7728 0
8646 13836 -7727 0
-8646 -13836 0
-8646 7727 0
8647 7732 8648 -8649 0
8647 -13833 8648 -8649 0
-8647 8649 0
-8647 -8648 0
-8647 13833 -7732 0
8648 13834 -7731 0
-8648 -13834 0
-8648 7731 0
8649 7736 8650 -8651 0
8649 -13831 8650 -8651 0
-8649 8651 0
-8649 -8650 0
-8649 13831 -7736 0
8650 13832 -7735 0
-8650 -13832 0
-8650 7735 0
8651 7740 8652 -8653 0
8651 -13829 8652 -8653 0
-8651 8653 0
-8651 -8652 0
-8651 13829 -7740 0
8652 13830 -7739 0
-8652 -13830 0
-8652 7739 0
8653 -13828 -8654 0
8653 7742 -8654 0
-8653 8654 0
-8653 13828 -7742 0
8654 -13826 7744 0
8654 -13827 -7745 0
8654 -13826 -13827 0
8654 7744 -7745 0
-8654 13826 7745 0
-8654 13827 -7744 0
8655 -8605 -8620 0
8655 13342 -8605 0
8655 13342 -8620 0
-8655 -13342 8605 0
-8655 8605 8620 0
-8655 -13342 8620 0
8656 -13841 -13842 7568 0
-8656 13841 0
-8656 13842 0
-8656 -7568 0
-8657 13344 -7651 0
-8657 13843 7651 0
8657 -13843 7651 0
8657 -13344 -7651 0
-8658 13344 -7655 0
-8658 13844 7655 0
8658 -13844 7655 0
8658 -13344 -7655 0
-8659 13344 -7659 0
-8659 13845 7659 0
8659 -13845 7659 0
8659 -13344 -7659 0
-8660 13344 -7663 0
-8660 13846 7663 0
8660 -13846 7663 0
8660 -13344 -7663 0
-8661 13344 -7667 0
-8661 13847 7667 0
8661 -13847 7667 0
8661 -13344 -7667 0
-8662 13344 -7671 0
-8662 13848 7671 0
8662 -13848 7671 0
8662 -13344 -7671 0
-8663 13344 -7675 0
-8663 13849 7675 0
8663 -13849 7675 0
8663 -13344 -7675 0
-8664 13344 -7679 0
-8664 13850 7679 0
8664 -13850 7679 0
8664 -13344 -7679 0
-8665 13344 -7683 0
-8665 13851 7683 0
8665 -13851 7683 0
8665 -13344 -7683 0
-8666 13344 -7687 0
-8666 13852 7687 0
8666 -13852 7687 0
8666 -13344 -7687 0
-8667 13344 -7691 0
-8667 13853 7691 0
8667 -13853 7691 0
8667 -13344 -7691 0
-8668 13344 -7695 0
-8668 13854 7695 0
8668 -13854 7695 0
8668 -13344 -7695 0
-8669 13344 -7699 0
-8669 13855 7699 0
8669 -13855 7699 0
8669 -13344 -7699 0
-8670 13344 -7703 0
-8670 13856 7703 0
8670 -13856 7703 0
8670 -13344 -7703 0
-8671 13344 -7707 0
-8671 13857 7707 0
8671 -13857 7707 0
8671 -13344 -7707 0
-8672 13344 -7711 0
-8672 13858 7711 0
8672 -13858 7711 0
8672 -13344 -7711 0
8673 -13859 7568 0
8673 -7568 8674 -8690 0
8673 -7568 -8674 8690 0
-8673 13859 7568 0
-8673 -7568 8674 8690 0
-8673 -7568 -8674 -8690 0
8674 -13344 8675 0
8674 13344 -8675 0
-8674 13344 8675 0
-8674 -13344 -8675 0
-8675 8676 0
-8675 13843 -7716 0
8675 -13843 -8676 0
8675 7716 -8676 0
8676 7720 8677 -8678 0
8676 -13857 8677 -8678 0
-8676 8678 0
-8676 -8677 0
-8676 13857 -7720 0
8677 13858 -7719 0
-8677 -13858 0
-8677 7719 0
8678 7724 8679 -8680 0
8678 -13855 8679 -8680 0
-8678 8680 0
-8678 -8679 0
-8678 13855 -7724 0
8679 13856 -7723 0
-8679 -13856 0
-8679 7723 0
8680 7728 8681 -8682 0
8680 -13853 8681 -8682 0
-8680 8682 0
-8680 -8681 0
-8680 13853 -7728 0
8681 13854 -7727 0
-8681 -13854 0
-8681 7727 0
8682 7732 8683 -8684 0
8682 -13851 8683 -8684 0
-8682 8684 0
-8682 -8683 0
-8682 13851 -7732 0
8683 13852 -7731 0
-8683 -13852 0
-8683 7731 0
8684 7736 8685 -8686 0
8684 -13849 8685 -8686 0
-8684 8686 0
-8684 -8685 0
-8684 13849 -7736 0
8685 13850 -7735 0
-8685 -13850 0
-8685 7735 0
8686 7740 8687 -8688 0
8686 -13847 8687 -8688 0
-8686 8688 0
-8686 -8687 0
-8686 13847 -7740 0
8687 13848 -7739 0
-8687 -13848 0
-8687 7739 0
8688 -13846 -8689 0
8688 7742 -8689 0
-8688 8689 0
-8688 13846 -7742 0
8689 -13844 7744 0
8689 -13845 -7745 0
8689 -13844 -13845 0
8689 7744 -7745 0
-8689 13844 7745 0
-8689 13845 -7744 0
8690 -8640 -8655 0
8690 13343 -8640 0
8690 13343 -8655 0
-8690 -13343 8640 0
-8690 8640 8655 0
-8690 -13343 8655 0
8691 -13859 -13860 7568 0
-8691 13859 0
-8691 13860 0
-8691 -7568 0
-8692 13345 -7651 0
-8692 13861 7651 0
8692 -13861 7651 0
8692 -13345 -7651 0
-8693 13345 -7655 0
-8693 13862 7655 0
8693 -13862 7655 0
8693 -13345 -7655 0
-8694 13345 -7659 0
-8694 13863 7659 0
8694 -13863 7659 0
8694 -13345 -7659 0
-8695 13345 -7663 0
-8695 13864 7663 0
8695 -13864 7663 0
8695 -13345 -7663 0
-8696 13345 -7667 0
-8696 13865 7667 0
8696 -13865 7667 0
8696 -13345 -7667 0
-8697 13345 -7671 0
-8697 13866 7671 0
8697 -13866 7671 0
8697 -13345 -7671 0
-8698 13345 -7675 0
-8698 13867 7675 0
8698 -13867 7675 0
8698 -13345 -7675 0
-8699 13345 -7679 0
-8699 13868 7679 0
8699 -13868 7679 0
8699 -13345 -7679 0
-8700 13345 -7683 0
-8700 13869 7683 0
8700 -13869 7683 0
8700 -13345 -7683 0
-8701 13345 -7687 0
-8701 13870 7687 0
8701 -13870 7687 0
8701 -13345 -7687 0
-8702 13345 -7691 0
-8702 13871 7691 0
8702 -13871 7691 0
8702 -13345 -7691 0
-8703 13345 -7695 0
-8703 13872 7695 0
8703 -13872 7695 0
8703 -13345 -7695 0
-8704 13345 -7699 0
-8704 13873 7699 0
8704 -13873 7699 0
8704 -13345 -7699 0
-8705 13345 -7703 0
-8705 13874 7703 0
8705 -13874 7703 0
8705 -13345 -7703 0
-8706 13345 -7707 0
-8706 13875 7707 0
8706 -13875 7707 0
8706 -13345 -7707 0
-8707 13345 -7711 0
-8707 13876 7711 0
8707 -13876 7711 0
8707 -13345 -7711 0
8708 -13877 7568 0
8708 -7568 8709 -8725 0
8708 -7568 -8709 8725 0
-8708 13877 7568 0
-8708 -7568 8709 8725 0
-8708 -7568 -8709 -8725 0
8709 -13345 8710 0
8709 13345 -8710 0
-8709 13345 8710 0
-8709 -13345 -8710 0
-8710 8711 0
-8710 13861 -7716 0
8710 -13861 -8711 0
8710 7716 -8711 0
8711 7720 8712 -8713 0
8711 -13875 8712 -8713 0
-8711 8713 0
-8711 -8712 0
-8711 13875 -7720 0
8712 13876 -7719 0
-8712 -13876 0
-8712 7719 0
8713 7724 8714 -8715 0
8713 -13873 8714 -8715 0
-8713 8715 0
-8713 -8714 0
-8713 13873 -7724 0
8714 13874 -7723 0
-8714 -13874 0
-8714 7723 0
8715 7728 8716 -8717 0
8715 -13871 8716 -8717 0
-8715 8717 0
-8715 -8716 0
-8715 13871 -7728 0
8716 13872 -7727 0
-8716 -13872 0
-8716 7727 0
8717 7732 8718 -8719 0
8717 -13869 8718 -8719 0
-8717 8719 0
-8717 -8718 0
-8717 13869 -7732 0
8718 13870 -7731 0
-8718 -13870 0
-8718 7731 0
8719 7736 8720 -8721 0
8719 -13867 8720 -8721 0
-8719 8721 0
-8719 -8720 0
-8719 13867 -7736 0
8720 13868 -7735 0
-8720 -13868 0
-8720 7735 0
8721 7740 8722 -8723 0
8721 -13865 8722 -8723 0
-8721 8723 0
-8721 -8722 0
-8721 13865 -7740 0
8722 13866 -7739 0
-8722 -13866 0
-8722 7739 0
8723 -13864 -8724 0
8723 7742 -8724 0
-8723 8724 0
-8723 13864 -7742 0
8724 -13862 7744 0
8724 -13863 -7745 0
8724 -13862 -13863 0
8724 7744 -7745 0
-8724 13862 7745 0
-8724 13863 -7744 0
8725 -8675 -8690 0
8725 13344 -8675 0
8725 13344 -8690 0
-8725 -13344 8675 0
-8725 8675 8690 0
-8725 -13344 8690 0
8726 -13877 -13878 7568 0
-8726 13877 0
-8726 13878 0
-8726 -7568 0
-8727 13346 -7651 0
-8727 13879 7651 0
8727 -13879 7651 0
8727 -13346 -7651 0
-8728 13346 -7655 0
-8728 13880 7655 0
8728 -13880 7655 0
8728 -13346 -7655 0
-8729 13346 -7659 0
-8729 13881 7659 0
8729 -13881 7659 0
8729 -13346 -7659 0
-8730 13346 -7663 0
-8730 13882 7663 0
8730 -13882 7663 0
8730 -13346 -7663 0
-8731 13346 -7667 0
-8731 13883 7667 0
8731 -13883 7667 0
8731 -13346 -7667 0
-8732 13346 -7671 0
-8732 13884 7671 0
8732 -13884 7671 0
8732 -13346 -7671 0
-8733 13346 -7675 0
-8733 13885 7675 0
8733 -13885 7675 0
8733 -13346 -7675 0
-8734 13346 -7679 0
-8734 13886 7679 0
8734 -13886 7679 0
8734 -13346 -7679 0
-8735 13346 -7683 0
-8735 13887 7683 0
8735 -13887 7683 0
8735 -13346 -7683 0
-8736 13346 -7687 0
-8736 13888 7687 0
8736 -13888 7687 0
8736 -13346 -7687 0
-8737 13346 -7691 0
-8737 13889 7691 0
8737 -13889 7691 0
8737 -13346 -7691 0
-8738 13346 -7695 0
-8738 13890 7695 0
8738 -13890 7695 0
8738 -13346 -7695 0
-8739 13346 -7699 0
-8739 13891 7699 0
8739 -13891 7699 0
8739 -13346 -7699 0
-8740 13346 -7703 0
-8740 13892 7703 0
8740 -13892 7703 0
8740 -13346 -7703 0
-8741 13346 -7707 0
-8741 13893 7707 0
8741 -13893 7707 0
8741 -13346 -7707 0
-8742 13346 -7711 0
-8742 13894 7711 0
8742 -13894 7711 0
8742 -13346 -7711 0
8743 -13895 7568 0
8743 -7568 8744 -8760 0
8743 -7568 -8744 8760 0
-8743 13895 7568 0
-8743 -7568 8744 8760 0
-8743 -7568 -8744 -8760 0
8744 -13346 8745 0
8744 13346 -8745 0
-8744 13346 8745 0
-8744 -13346 -8745 0
-8745 8746 0
-8745 13879 -7716 0
8745 -13879 -8746 0
8745 7716 -8746 0
8746 7720 8747 -8748 0
8746 -13893 8747 -8748 0
-8746 8748 0
-8746 -8747 0
-8746 13893 -7720 0
8747 13894 -7719 0
-8747 -13894 0
-8747 7719 0
8748 7724 8749 -8750 0
8748 -13891 8749 -8750 0
-8748 8750 0
-8748 -8749 0
-8748 13891 -7724 0
8749 13892 -7723 0
-8749 -13892 0
-8749 7723 0
8750 7728 8751 -8752 0
8750 -13889 8751 -8752 0
-8750 8752 0
-8750 -8751 0
-8750 13889 -7728 0
8751 13890 -7727 0
-8751 -13890 0
-8751 7727 0
8752 7732 8753 -8754 0
8752 -13887 8753 -8754 0
-8752 8754 0
-8752 -8753 0
-8752 13887 -7732 0
8753 13888 -7731 0
-8753 -13888 0
-8753 7731 0
8754 7736 8755 -8756 0
8754 -13885 8755 -8756 0
-8754 8756 0
-8754 -8755 0
-8754 13885 -7736 0
8755 13886 -7735 0
-8755 -13886 0
-8755 7735 0
8756 7740 8757 -8758 0
8756 -13883 8757 -8758 0
-8756 8758 0
-8756 -8757 0
-8756 13883 -7740 0
8757 13884 -7739 0
-8757 -13884 0
-8757 7739 0
8758 -13882 -8759 0
8758 7742 -8759 0
-8758 8759 0
-8758 13882 -7742 0
8759 -13880 7744 0
8759 -13881 -7745 0
8759 -13880 -13881 0
8759 7744 -7745 0
-8759 13880 7745 0
-8759 13881 -7744 0
8760 -8710 -8725 0
8760 13345 -8710 0
8760 13345 -8725 0
-8760 -13345 8710 0
-8760 8710 8725 0
-8760 -13345 8725 0
8761 -13895 -13896 7568 0
-8761 13895 0
-8761 13896 0
-8761 -7568 0
-8762 13347 -7651 0
-8762 13897 7651 0
8762 -13897 7651 0
8762 -13347 -7651 0
-8763 13347 -7655 0
-8763 13898 7655 0
8763 -13898 7655 0
8763 -13347 -7655 0
-8764 13347 -7659 0
-8764 13899 7659 0
8764 -13899 7659 0
8764 -13347 -7659 0
-8765 13347 -7663 0
-8765 13900 7663 0
8765 -13900 7663 0
8765 -13347 -7663 0
-8766 13347 -7667 0
-8766 13901 7667 0
8766 -13901 7667 0
8766 -13347 -7667 0
-8767 13347 -7671 0
-8767 13902 7671 0
8767 -13902 7671 0
8767 -13347 -7671 0
-8768 13347 -7675 0
-8768 13903 7675 0
8768 -13903 7675 0
8768 -13347 -7675 0
-8769 13347 -7679 0
-8769 13904 7679 0
8769 -13904 7679 0
8769 -13347 -7679 0
-8770 13347 -7683 0
-8770 13905 7683 0
8770 -13905 7683 0
8770 -13347 -7683 0
-8771 13347 -7687 0
-8771 13906 7687 0
8771 -13906 7687 0
8771 -13347 -7687 0
-8772 13347 -7691 0
-8772 13907 7691 0
8772 -13907 7691 0
8772 -13347 -7691 0
-8773 13347 -7695 0
-8773 13908 7695 0
8773 -13908 7695 0
8773 -13347 -7695 0
-8774 13347 -7699 0
-8774 13909 7699 0
8774 -13909 7699 0
8774 -13347 -7699 0
-8775 13347 -7703 0
-8775 13910 7703 0
8775 -13910 7703 0
8775 -13347 -7703 0
-8776 13347 -7707 0
-8776 13911 7707 0
8776 -13911 7707 0
8776 -13347 -7707 0
-8777 13347 -7711 0
-8777 13912 7711 0
8777 -13912 7711 0
8777 -13347 -7711 0
8778 -13913 7568 0
8778 -7568 8779 -8795 0
8778 -7568 -8779 8795 0
-8778 13913 7568 0
-8778 -7568 8779 8795 0
-8778 -7568 -8779 -8795 0
8779 -13347 8780 0
8779 13347 -8780 0
-8779 13347 8780 0
-8779 -13347 -8780 0
-8780 8781 0
-8780 13897 -7716 0
8780 -13897 -8781 0
8780 7716 -8781 0
8781 7720 8782 -8783 0
8781 -13911 8782 -8783 0
-8781 8783 0
-8781 -8782 0
-8781 13911 -7720 0
8782 13912 -7719 0
-8782 -13912 0
-8782 7719 0
8783 7724 8784 -8785 0
8783 -13909 8784 -8785 0
-8783 8785 0
-8783 -8784 0
-8783 13909 -7724 0
8784 13910 -7723 0
-8784 -13910 0
-8784 7723 0
8785 7728 8786 -8787 0
8785 -13907 8786 -8787 0
-8785 8787 0
-8785 -8786 0
-8785 13907 -7728 0
8786 13908 -7727 0
-8786 -13908 0
-8786 7727 0
8787 7732 8788 -8789 0
8787 -13905 8788 -8789 0
-8787 8789 0
-8787 -8788 0
-8787 13905 -7732 0
8788 13906 -7731 0
-8788 -13906 0
-8788 7731 0
8789 7736 8790 -8791 0
8789 -13903 8790 -8791 0
-8789 8791 0
-8789 -8790 0
-8789 13903 -7736 0
8790 13904 -7735 0
-8790 -13904 0
-8790 7735 0
8791 7740 8792 -8793 0
8791 -13901 8792 -8793 0
-8791 8793 0
-8791 -8792 0
-8791 13901 -7740 0
8792 13902 -7739 0
-8792 -13902 0
-8792 7739 0
8793 -13900 -8794 0
8793 7742 -8794 0
-8793 8794 0
-8793 13900 -7742 0
8794 -13898 7744 0
8794 -13899 -7745 0
8794 -13898 -13899 0
8794 7744 -7745 0
-8794 13898 7745 0
-8794 13899 -7744 0
8795 -8745 -8760 0
8795 13346 -8745 0
8795 13346 -8760 0
-8795 -13346 8745 0
-8795 8745 8760 0
-8795 -13346 8760 0
8796 -13913 -13914 7568 0
-8796 13913 0
-8796 13914 0
-8796 -7568 0
-8797 13348 -7651 0
-8797 13915 7651 0
8797 -13915 7651 0
8797 -13348 -7651 0
-8798 13348 -7655 0
-8798 13916 7655 0
8798 -13916 7655 0
8798 -13348 -7655 0
-8799 13348 -7659 0
-8799 13917 7659 0
8799 -13917 7659 0
8799 -13348 -7659 0
-8800 13348 -7663 0
-8800 13918 7663 0
8800 -13918 7663 0
8800 -13348 -7663 0
-8801 13348 -7667 0
-8801 13919 7667 0
8801 -13919 7667 0
8801 -13348 -7667 0
-8802 13348 -7671 0
-8802 13920 7671 0
8802 -13920 7671 0
8802 -13348 -7671 0
-8803 13348 -7675 0
-8803 13921 7675 0
8803 -13921 7675 0
8803 -13348 -7675 0
-8804 13348 -7679 0
-8804 13922 7679 0
8804 -13922 7679 0
8804 -13348 -7679 0
-8805 13348 -7683 0
-8805 13923 7683 0
8805 -13923 7683 0
8805 -13348 -7683 0
-8806 13348 -7687 0
-8806 13924 7687 0
8806 -13924 7687 0
8806 -13348 -7687 0
-8807 13348 -7691 0
-8807 13925 7691 0
8807 -13925 7691 0
8807 -13348 -7691 0
-8808 13348 -7695 0
-8808 13926 7695 0
8808 -13926 7695 0
8808 -13348 -7695 0
-8809 13348 -7699 0
-8809 13927 7699 0
8809 -13927 7699 0
8809 -13348 -7699 0
-8810 13348 -7703 0
-8810 13928 7703 0
8810 -13928 7703 0
8810 -13348 -7703 0
-8811 13348 -7707 0
-8811 13929 7707 0
8811 -13929 7707 0
8811 -13348 -7707 0
-8812 13348 -7711 0
-8812 13930 7711 0
8812 -13930 7711 0
8812 -13348 -7711 0
8813 -13931 7568 0
8813 -7568 8814 -8830 0
8813 -7568 -8814 8830 0
-8813 13931 7568 0
-8813 -7568 8814 8830 0
-8813 -7568 -8814 -8830 0
8814 -13348 8815 0
8814 13348 -8815 0
-8814 13348 8815 0
-8814 -13348 -8815 0
-8815 8816 0
-8815 13915 -7716 0
8815 -13915 -8816 0
8815 7716 -8816 0
8816 7720 8817 -8818 0
8816 -13929 8817 -8818 0
-8816 8818 0
-8816 -8817 0
-8816 13929 -7720 0
8817 13930 -7719 0
-8817 -13930 0
-8817 7719 0
8818 7724 8819 -8820 0
8818 -13927 8819 -8820 0
-8818 8820 0
-8818 -8819 0
-8818 13927 -7724 0
8819 13928 -7723 0
-8819 -13928 0
-8819 7723 0
8820 7728 8821 -8822 0
8820 -13925 8821 -8822 0
-8820 8822 0
-8820 -8821 0
-8820 13925 -7728 0
8821 13926 -7727 0
-8821 -13926 0
-8821 7727 0
8822 7732 8823 -8824 0
8822 -13923 8823 -8824 0
-8822 8824 0
-8822 -8823 0
-8822 13923 -7732 0
8823 13924 -7731 0
-8823 -13924 0
-8823 7731 0
8824 7736 8825 -8826 0
8824 -13921 8825 -8826 0
-8824 8826 0
-8824 -8825 0
-8824 13921 -7736 0
8825 13922 -7735 0
-8825 -13922 0
-8825 7735 0
8826 7740 8827 -8828 0
8826 -13919 8827 -8828 0
-8826 8828 0
-8826 -8827 0
-8826 13919 -7740 0
8827 13920 -7739 0
-8827 -13920 0
-8827 7739 0
8828 -13918 -8829 0
8828 7742 -8829 0
-8828 8829 0
-8828 13918 -7742 0
8829 -13916 7744 0
8829 -13917 -7745 0
8829 -13916 -13917 0
8829 7744 -7745 0
-8829 13916 7745 0
-8829 13917 -7744 0
8830 -8780 -8795 0
8830 13347 -8780 0
8830 13347 -8795 0
-8830 -13347 8780 0
-8830 8780 8795 0
-8830 -13347 8795 0
8831 -13931 -13932 7568 0
-8831 13931 0
-8831 13932 0
-8831 -7568 0
8832 -13315 7540 -7544 0
-8832 13315 0
-8832 -7540 0
-8832 7544 0
8833 7540 -7547 -8813 0
8833 7540 -7547 -8834 0
-8833 -7540 0
-8833 7547 0
-8833 8813 8834 0
-8834 8708 8743 8778 8835 0
8834 -8835 0
8834 -8778 0
8834 -8708 0
8834 -8743 0
-8835 8603 8638 8673 8836 0
8835 -8836 0
8835 -8673 0
8835 -8603 0
8835 -8638 0
-8836 8498 8533 8568 8837 0
8836 -8837 0
8836 -8568 0
8836 -8498 0
8836 -8533 0
-8837 8393 8428 8463 8838 0
8837 -8838 0
8837 -8463 0
8837 -8393 0
8837 -8428 0
-8838 8288 8323 8358 8839 0
8838 -8839 0
8838 -8358 0
8838 -8288 0
8838 -8323 0
-8839 8183 8218 8253 8840 0
8839 -8840 0
8839 -8253 0
8839 -8183 0
8839 -8218 0
-8840 8078 8113 8148 8841 0
8840 -8841 0
8840 -8148 0
8840 -8078 0
8840 -8113 0
-8841 7973 8008 8043 8842 0
8841 -8842 0
8841 -8043 0
8841 -7973 0
8841 -8008 0
-8842 7868 7903 7938 8843 0
8842 -8843 0
8842 -7938 0
8842 -7868 0
8842 -7903 0
-8843 7746 7798 7833 8844 0
8843 -8844 0
8843 -7833 0
8843 -7746 0
8843 -7798 0
-8844 13392 8845 0
-8844 13391 8845 0
-8844 -7568 8845 0
8844 -8845 0
8844 -13391 -13392 7568 0
-8845 7816 7851 7886 8846 0
8845 -8846 0
8845 -7886 0
8845 -7816 0
8845 -7851 0
-8846 7921 7956 7991 8847 0
8846 -8847 0
8846 -7991 0
8846 -7921 0
8846 -7956 0
-8847 8026 8061 8096 8848 0
8847 -8848 0
8847 -8096 0
8847 -8026 0
8847 -8061 0
-8848 8131 8166 8201 8849 0
8848 -8849 0
8848 -8201 0
8848 -8131 0
8848 -8166 0
-8849 8236 8271 8306 8850 0
8849 -8850 0
8849 -8306 0
8849 -8236 0
8849 -8271 0
-8850 13680 8851 0
-8850 13679 8851 0
-8850 -7568 8851 0
8850 -8851 0
8850 -13679 -13680 7568 0
-8851 8376 8411 8446 8852 0
8851 -8852 0
8851 -8446 0
8851 -8376 0
8851 -8411 0
-8852 8481 8516 8551 8853 0
8852 -8853 0
8852 -8551 0
8852 -8481 0
8852 -8516 0
-8853 8586 8621 8656 8854 0
8853 -8854 0
8853 -8656 0
8853 -8586 0
8853 -8621 0
-8854 8691 8726 8761 8855 0
8854 -8855 0
8854 -8761 0
8854 -8691 0
8854 -8726 0
-8855 13932 8796 0
-8855 -7568 8796 0
-8855 13931 8796 0
8855 -8796 0
8855 -13931 -13932 7568 0
-8856 -8857 8858 0
-8856 13938 8858 0
-8856 13938 -8857 0
8856 -13938 -8858 0
8856 -13938 8857 0
8856 8857 -8858 0
8857 -9829 13937 0
-8857 9829 0
-8857 -13937 0
8858 -10116 13936 0
-8858 10116 0
-8858 -13936 0
8859 -13938 8857 -8858 0
-8859 13938 0
-8859 -8857 0
-8859 8858 0
8860 13938 -8857 8858 0
-8860 -13938 0
-8860 8857 0
-8860 -8858 0
-8861 -8857 0
-8861 -10116 13941 0
-8861 13938 13941 0
8861 -13941 8857 0
8861 10116 -13938 8857 0
8862 10116 -13938 13941 8857 0
-8862 13938 0
-8862 -8857 0
-8862 -10116 0
-8862 -13941 0
-8863 6 21 0
-8863 13943 6 0
8863 -6 0
8863 -13943 -21 0
-8864 10121 5 0
-8864 13944 -5 0
8864 -13944 -5 0
8864 -10121 5 0
-8865 13945 8867 0
-8865 8866 -8867 0
8865 -8866 -8867 0
8865 -13945 8867 0
8866 13943 -6 0
-8866 -13943 0
-8866 6 0
8867 5 -8866 8868 0
8867 5 8866 -8868 0
-8867 -5 0
-8867 -8866 -8868 0
-8867 8866 8868 0
8868 -10121 13944 0
-8868 10121 0
-8868 -13944 0
8869 -13945 5 -8866 8868 0
-8869 8866 0
-8869 -8868 0
-8869 13945 0
-8869 -5 0
8870 13945 5 8866 -8868 0
-8870 8868 0
-8870 -8866 0
-8870 -13945 0
-8870 -5 0
-8871 13948 8872 0
-8871 5 -8868 8872 0
8871 -8872 0
8871 -13948 8868 0
8871 -13948 -5 0
8872 8868 -8873 0
-8872 -8868 0
-8872 8873 0
8873 -13945 13948 21 0
-8873 13945 0
-8873 -13948 0
-8873 -21 0
-8874 7 29 0
-8874 13950 7 0
8874 -7 0
8874 -13950 -29 0
-8875 10120 25 0
-8875 13951 -25 0
8875 -13951 -25 0
8875 -10120 25 0
-8876 13952 8878 0
-8876 8877 -8878 0
8876 -8877 -8878 0
8876 -13952 8878 0
8877 13950 -7 0
-8877 -13950 0
-8877 7 0
8878 25 -8877 8879 0
8878 25 8877 -8879 0
-8878 -25 0
-8878 -8877 -8879 0
-8878 8877 8879 0
8879 -10120 13951 0
-8879 10120 0
-8879 -13951 0
8880 -13952 25 -8877 8879 0
-8880 8877 0
-8880 -8879 0
-8880 13952 0
-8880 -25 0
8881 13952 25 8877 -8879 0
-8881 8879 0
-8881 -8877 0
-8881 -13952 0
-8881 -25 0
-8882 13955 8883 0
-8882 25 -8879 8883 0
8882 -8883 0
8882 -13955 8879 0
8882 -13955 -25 0
8883 8879 -8884 0
-8883 -8879 0
-8883 8884 0
8884 -13952 13955 29 0
-8884 13952 0
-8884 -13955 0
-8884 -29 0
8885 -7 -29 0
8885 13957 -29 0
-8885 29 0
-8885 -13957 7 0
8886 -13957 -13958 -25 0
-8886 13957 0
-8886 13958 0
-8886 25 0
8887 -7 -8888 0
8887 13959 -8888 0
-8887 8888 0
-8887 -13959 7 0
-8888 13957 29 0
8888 -13957 0
8888 -29 0
8889 13960 -8888 0
-8889 -13960 0
-8889 8888 0
8890 13961 -8888 0
-8890 -13961 0
-8890 8888 0
8891 13962 -8888 0
-8891 -13962 0
-8891 8888 0
8892 13963 -8888 0
-8892 -13963 0
-8892 8888 0
8893 13964 -8888 0
-8893 -13964 0
-8893 8888 0
8894 13965 -8888 0
-8894 -13965 0
-8894 8888 0
8895 13966 -8888 0
-8895 -13966 0
-8895 8888 0
8896 13967 -8888 0
-8896 -13967 0
-8896 8888 0
8897 13968 -8888 0
-8897 -13968 0
-8897 8888 0
8898 13969 -8888 0
-8898 -13969 0
-8898 8888 0
8899 13970 -8888 0
-8899 -13970 0
-8899 8888 0
8900 13971 -8888 0
-8900 -13971 0
-8900 8888 0
8901 13972 -8888 0
-8901 -13972 0
-8901 8888 0
8902 13973 -8888 0
-8902 -13973 0
-8902 8888 0
8903 13974 -8888 0
-8903 -13974 0
-8903 8888 0
8904 13975 -8888 0
-8904 -13975 0
-8904 8888 0
8905 13976 -8888 0
-8905 -13976 0
-8905 8888 0
8906 13977 -8888 0
-8906 -13977 0
-8906 8888 0
8907 13978 -8888 0
-8907 -13978 0
-8907 8888 0
8908 13979 -8888 0
-8908 -13979 0
-8908 8888 0
8909 13980 -8888 0
-8909 -13980 0
-8909 8888 0
8910 13981 -8888 0
-8910 -13981 0
-8910 8888 0
8911 13982 -8888 0
-8911 -13982 0
-8911 8888 0
8912 13983 -8888 0
-8912 -13983 0
-8912 8888 0
8913 13984 -8888 0
-8913 -13984 0
-8913 8888 0
8914 13985 -8888 0
-8914 -13985 0
-8914 8888 0
8915 13986 -8888 0
-8915 -13986 0
-8915 8888 0
8916 13987 -8888 0
-8916 -13987 0
-8916 8888 0
8917 13988 -8888 0
-8917 -13988 0
-8917 8888 0
8918 13989 -8888 0
-8918 -13989 0
-8918 8888 0
8919 13990 -8888 0
-8919 -13990 0
-8919 8888 0
8920 13991 -8888 0
-8920 -13991 0
-8920 8888 0
8921 13992 -8922 0
8921 25 -8922 0
-8921 8922 0
-8921 -13992 -25 0
-8922 13992 29 0
-8922 29 8923 0
-8922 13959 29 0
8922 -29 0
8922 -13959 -13992 -8923 0
-8923 13989 13990 13991 8924 0
8923 -8924 0
8923 -13991 0
8923 -13989 0
8923 -13990 0
-8924 13986 13987 13988 8925 0
8924 -8925 0
8924 -13988 0
8924 -13986 0
8924 -13987 0
-8925 13983 13984 13985 8926 0
8925 -8926 0
8925 -13985 0
8925 -13983 0
8925 -13984 0
-8926 13980 13981 13982 8927 0
8926 -8927 0
8926 -13982 0
8926 -13980 0
8926 -13981 0
-8927 13977 13978 13979 8928 0
8927 -8928 0
8927 -13979 0
8927 -13977 0
8927 -13978 0
-8928 13974 13975 13976 8929 0
8928 -8929 0
8928 -13976 0
8928 -13974 0
8928 -13975 0
-8929 13971 13972 13973 8930 0
8929 -8930 0
8929 -13973 0
8929 -13971 0
8929 -13972 0
-8930 13968 13969 13970 8931 0
8930 -8931 0
8930 -13970 0
8930 -13968 0
8930 -13969 0
-8931 13966 13967 0
8931 -13966 0
8931 -13967 0
-8932 13993 8933 0
-8932 25 8933 0
8932 -8933 0
8932 -13993 -25 0
8933 -13992 13993 -8934 0
8933 -13992 8923 -8934 0
8933 13992 -13993 -8923 -8934 0
-8933 13992 8923 0
-8933 -13992 -13993 -8923 0
-8933 8934 0
-8933 13992 13993 0
8934 -13959 29 0
-8934 13959 0
-8934 -29 0
-8935 13994 8936 0
-8935 25 8936 0
8935 -8936 0
8935 -13994 -25 0
8936 -8923 -8934 -8937 0
8936 -13993 8923 -8934 0
-8936 8934 0
-8936 -8923 8937 0
-8936 13993 8923 0
8937 13994 -8938 0
8937 -13994 8938 0
-8937 -13994 -8938 0
-8937 13994 8938 0
8938 -13992 -13993 0
-8938 13992 0
-8938 13993 0
-8939 13995 8940 0
-8939 25 8940 0
8939 -8940 0
8939 -13995 -25 0
8940 -8923 -8934 -8941 0
8940 -13994 8923 -8934 0
-8940 8934 0
-8940 -8923 8941 0
-8940 13994 8923 0
8941 13995 -8942 0
8941 -13995 8942 0
-8941 -13995 -8942 0
-8941 13995 8942 0
8942 -13992 -13993 -13994 0
-8942 13992 0
-8942 13993 0
-8942 13994 0
-8943 13996 8944 0
-8943 25 8944 0
8943 -8944 0
8943 -13996 -25 0
8944 -8923 -8934 -8945 0
8944 -13995 8923 -8934 0
-8944 8934 0
-8944 -8923 8945 0
-8944 13995 8923 0
8945 13996 -8946 0
8945 -13996 8946 0
-8945 -13996 -8946 0
-8945 13996 8946 0
8946 -13995 -8942 0
-8946 13995 0
-8946 8942 0
-8947 13997 8948 0
-8947 25 8948 0
8947 -8948 0
8947 -13997 -25 0
8948 -8923 -8934 -8949 0
8948 -13996 8923 -8934 0
-8948 8934 0
-8948 -8923 8949 0
-8948 13996 8923 0
8949 13997 -8950 0
8949 -13997 8950 0
-8949 -13997 -8950 0
-8949 13997 8950 0
8950 -13996 -8946 0
-8950 13996 0
-8950 8946 0
-8951 13998 8952 0
-8951 25 8952 0
8951 -8952 0
8951 -13998 -25 0
8952 -8923 -8934 -8953 0
8952 -13997 8923 -8934 0
-8952 8934 0
-8952 -8923 8953 0
-8952 13997 8923 0
8953 13998 -8954 0
8953 -13998 8954 0
-8953 -13998 -8954 0
-8953 13998 8954 0
8954 -13997 -8950 0
-8954 13997 0
-8954 8950 0
-8955 13999 8956 0
-8955 25 8956 0
8955 -8956 0
8955 -13999 -25 0
8956 -8923 -8934 -8957 0
8956 -13998 8923 -8934 0
-8956 8934 0
-8956 -8923 8957 0
-8956 13998 8923 0
8957 13999 -8958 0
8957 -13999 8958 0
-8957 -13999 -8958 0
-8957 13999 8958 0
8958 -13998 -8954 0
-8958 13998 0
-8958 8954 0
-8959 14000 8960 0
-8959 25 8960 0
8959 -8960 0
8959 -14000 -25 0
8960 -8923 -8934 -8961 0
8960 -13999 8923 -8934 0
-8960 8934 0
-8960 -8923 8961 0
-8960 13999 8923 0
8961 14000 -8962 0
8961 -14000 8962 0
-8961 -14000 -8962 0
-8961 14000 8962 0
8962 -13999 -8958 0
-8962 13999 0
-8962 8958 0
-8963 14001 8964 0
-8963 25 8964 0
8963 -8964 0
8963 -14001 -25 0
8964 -8923 -8934 -8965 0
8964 -14000 8923 -8934 0
-8964 8934 0
-8964 -8923 8965 0
-8964 14000 8923 0
8965 14001 -8966 0
8965 -14001 8966 0
-8965 -14001 -8966 0
-8965 14001 8966 0
8966 -14000 -8962 0
-8966 14000 0
-8966 8962 0
-8967 14002 8968 0
-8967 25 8968 0
8967 -8968 0
8967 -14002 -25 0
8968 -8923 -8934 -8969 0
8968 -14001 8923 -8934 0
-8968 8934 0
-8968 -8923 8969 0
-8968 14001 8923 0
8969 14002 -8970 0
8969 -14002 8970 0
-8969 -14002 -8970 0
-8969 14002 8970 0
8970 -14001 -8966 0
-8970 14001 0
-8970 8966 0
-8971 14003 8972 0
-8971 25 8972 0
8971 -8972 0
8971 -14003 -25 0
8972 -8923 -8934 -8973 0
8972 -14002 8923 -8934 0
-8972 8934 0
-8972 -8923 8973 0
-8972 14002 8923 0
8973 14003 -8974 0
8973 -14003 8974 0
-8973 -14003 -8974 0
-8973 14003 8974 0
8974 -14002 -8970 0
-8974 14002 0
-8974 8970 0
-8975 14004 8976 0
-8975 25 8976 0
8975 -8976 0
8975 -14004 -25 0
8976 -8923 -8934 -8977 0
8976 -14003 8923 -8934 0
-8976 8934 0
-8976 -8923 8977 0
-8976 14003 8923 0
8977 14004 -8978 0
8977 -14004 8978 0
-8977 -14004 -8978 0
-8977 14004 8978 0
8978 -14003 -8974 0
-8978 14003 0
-8978 8974 0
-8979 14005 8980 0
-8979 25 8980 0
8979 -8980 0
8979 -14005 -25 0
8980 -8923 -8934 -8981 0
8980 -14004 8923 -8934 0
-8980 8934 0
-8980 -8923 8981 0
-8980 14004 8923 0
8981 14005 -8982 0
8981 -14005 8982 0
-8981 -14005 -8982 0
-8981 14005 8982 0
8982 -14004 -8978 0
-8982 14004 0
-8982 8978 0
-8983 14006 8984 0
-8983 25 8984 0
8983 -8984 0
8983 -14006 -25 0
8984 -8923 -8934 -8985 0
8984 -14005 8923 -8934 0
-8984 8934 0
-8984 -8923 8985 0
-8984 14005 8923 0
8985 14006 -8986 0
8985 -14006 8986 0
-8985 -14006 -8986 0
-8985 14006 8986 0
8986 -14005 -8982 0
-8986 14005 0
-8986 8982 0
-8987 14007 8988 0
-8987 25 8988 0
8987 -8988 0
8987 -14007 -25 0
8988 -8923 -8934 -8989 0
8988 -14006 8923 -8934 0
-8988 8934 0
-8988 -8923 8989 0
-8988 14006 8923 0
8989 14007 -8990 0
8989 -14007 8990 0
-8989 -14007 -8990 0
-8989 14007 8990 0
8990 -14006 -8986 0
-8990 14006 0
-8990 8986 0
-8991 14008 8992 0
-8991 25 8992 0
8991 -8992 0
8991 -14008 -25 0
8992 -8923 -8934 -8993 0
8992 -14007 8923 -8934 0
-8992 8934 0
-8992 -8923 8993 0
-8992 14007 8923 0
8993 14008 -8994 0
8993 -14008 8994 0
-8993 -14008 -8994 0
-8993 14008 8994 0
8994 -14007 -8990 0
-8994 14007 0
-8994 8990 0
-8995 14009 8996 0
-8995 25 8996 0
8995 -8996 0
8995 -14009 -25 0
8996 -8923 -8934 -8997 0
8996 -14008 8923 -8934 0
-8996 8934 0
-8996 -8923 8997 0
-8996 14008 8923 0
8997 14009 -8998 0
8997 -14009 8998 0
-8997 -14009 -8998 0
-8997 14009 8998 0
8998 -14008 -8994 0
-8998 14008 0
-8998 8994 0
-8999 14010 9000 0
-8999 25 9000 0
8999 -9000 0
8999 -14010 -25 0
9000 -8923 -8934 -9001 0
9000 -14009 8923 -8934 0
-9000 8934 0
-9000 -8923 9001 0
-9000 14009 8923 0
9001 14010 -9002 0
9001 -14010 9002 0
-9001 -14010 -9002 0
-9001 14010 9002 0
9002 -14009 -8998 0
-9002 14009 0
-9002 8998 0
-9003 14011 9004 0
-9003 25 9004 0
9003 -9004 0
9003 -14011 -25 0
9004 -8923 -8934 -9005 0
9004 -14010 8923 -8934 0
-9004 8934 0
-9004 -8923 9005 0
-9004 14010 8923 0
9005 14011 -9006 0
9005 -14011 9006 0
-9005 -14011 -9006 0
-9005 14011 9006 0
9006 -14010 -9002 0
-9006 14010 0
-9006 9002 0
-9007 14012 9008 0
-9007 25 9008 0
9007 -9008 0
9007 -14012 -25 0
9008 -8923 -8934 -9009 0
9008 -14011 8923 -8934 0
-9008 8934 0
-9008 -8923 9009 0
-9008 14011 8923 0
9009 14012 -9010 0
9009 -14012 9010 0
-9009 -14012 -9010 0
-9009 14012 9010 0
9010 -14011 -9006 0
-9010 14011 0
-9010 9006 0
-9011 14013 9012 0
-9011 25 9012 0
9011 -9012 0
9011 -14013 -25 0
9012 -8923 -8934 -9013 0
9012 -14012 8923 -8934 0
-9012 8934 0
-9012 -8923 9013 0
-9012 14012 8923 0
9013 14013 -9014 0
9013 -14013 9014 0
-9013 -14013 -9014 0
-9013 14013 9014 0
9014 -14012 -9010 0
-9014 14012 0
-9014 9010 0
-9015 14014 9016 0
-9015 25 9016 0
9015 -9016 0
9015 -14014 -25 0
9016 -8923 -8934 -9017 0
9016 -14013 8923 -8934 0
-9016 8934 0
-9016 -8923 9017 0
-9016 14013 8923 0
9017 14014 -9018 0
9017 -14014 9018 0
-9017 -14014 -9018 0
-9017 14014 9018 0
9018 -14013 -9014 0
-9018 14013 0
-9018 9014 0
-9019 14015 9020 0
-9019 25 9020 0
9019 -9020 0
9019 -14015 -25 0
9020 -8923 -8934 -9021 0
9020 -14014 8923 -8934 0
-9020 8934 0
-9020 -8923 9021 0
-9020 14014 8923 0
9021 14015 -9022 0
9021 -14015 9022 0
-9021 -14015 -9022 0
-9021 14015 9022 0
9022 -14014 -9018 0
-9022 14014 0
-9022 9018 0
-9023 14016 9024 0
-9023 25 9024 0
9023 -9024 0
9023 -14016 -25 0
9024 -8923 -8934 -9025 0
9024 -14015 8923 -8934 0
-9024 8934 0
-9024 -8923 9025 0
-9024 14015 8923 0
9025 14016 -9026 0
9025 -14016 9026 0
-9025 -14016 -9026 0
-9025 14016 9026 0
9026 -14015 -9022 0
-9026 14015 0
-9026 9022 0
-9027 14017 9028 0
-9027 25 9028 0
9027 -9028 0
9027 -14017 -25 0
9028 -8923 -8934 -9029 0
9028 -14016 8923 -8934 0
-9028 8934 0
-9028 -8923 9029 0
-9028 14016 8923 0
9029 14017 -9030 0
9029 -14017 9030 0
-9029 -14017 -9030 0
-9029 14017 9030 0
9030 -14016 -9026 0
-9030 14016 0
-9030 9026 0
-9031 14018 9032 0
-9031 25 9032 0
9031 -9032 0
9031 -14018 -25 0
9032 -8923 -8934 -9033 0
9032 -14017 8923 -8934 0
-9032 8934 0
-9032 -8923 9033 0
-9032 14017 8923 0
9033 14018 -9034 0
9033 -14018 9034 0
-9033 -14018 -9034 0
-9033 14018 9034 0
9034 -14017 -9030 0
-9034 14017 0
-9034 9030 0
-9035 14019 9036 0
-9035 25 9036 0
9035 -9036 0
9035 -14019 -25 0
9036 -8923 -8934 -9037 0
9036 -14018 8923 -8934 0
-9036 8934 0
-9036 -8923 9037 0
-9036 14018 8923 0
9037 14019 -9038 0
9037 -14019 9038 0
-9037 -14019 -9038 0
-9037 14019 9038 0
9038 -14018 -9034 0
-9038 14018 0
-9038 9034 0
-9039 14020 9040 0
-9039 25 9040 0
9039 -9040 0
9039 -14020 -25 0
9040 -8923 -8934 -9041 0
9040 -14019 8923 -8934 0
-9040 8934 0
-9040 -8923 9041 0
-9040 14019 8923 0
9041 14020 -9042 0
9041 -14020 9042 0
-9041 -14020 -9042 0
-9041 14020 9042 0
9042 -14019 -9038 0
-9042 14019 0
-9042 9038 0
-9043 14021 9044 0
-9043 25 9044 0
9043 -9044 0
9043 -14021 -25 0
9044 -8923 -8934 -9045 0
9044 -14020 8923 -8934 0
-9044 8934 0
-9044 -8923 9045 0
-9044 14020 8923 0
9045 14021 -9046 0
9045 -14021 9046 0
-9045 -14021 -9046 0
-9045 14021 9046 0
9046 -14020 -9042 0
-9046 14020 0
-9046 9042 0
-9047 14022 9048 0
-9047 25 9048 0
9047 -9048 0
9047 -14022 -25 0
9048 -8923 -8934 -9049 0
9048 -14021 8923 -8934 0
-9048 8934 0
-9048 -8923 9049 0
-9048 14021 8923 0
9049 14022 -9050 0
9049 -14022 9050 0
-9049 -14022 -9050 0
-9049 14022 9050 0
9050 -14021 -9046 0
-9050 14021 0
-9050 9046 0
-9051 14023 9052 0
-9051 25 9052 0
9051 -9052 0
9051 -14023 -25 0
9052 -8923 -8934 -9053 0
9052 -14022 8923 -8934 0
-9052 8934 0
-9052 -8923 9053 0
-9052 14022 8923 0
9053 14023 -9054 0
9053 -14023 9054 0
-9053 -14023 -9054 0
-9053 14023 9054 0
9054 -14022 -9050 0
-9054 14022 0
-9054 9050 0
9055 -13959 -7 -9057 0
9055 -13959 -7 -9056 0
-9055 13959 0
-9055 7 0
-9055 9056 9057 0
9056 -13960 13993 8923 0
-9056 13960 0
-9056 -13993 0
-9056 -8923 0
9057 14021 14022 14023 -9058 0
-9057 9058 0
-9057 -14023 0
-9057 -14021 0
-9057 -14022 0
9058 14018 14019 14020 -9059 0
-9058 9059 0
-9058 -14020 0
-9058 -14018 0
-9058 -14019 0
9059 14015 14016 14017 -9060 0
-9059 9060 0
-9059 -14017 0
-9059 -14015 0
-9059 -14016 0
9060 14012 14013 14014 -9061 0
-9060 9061 0
-9060 -14014 0
-9060 -14012 0
-9060 -14013 0
9061 14009 14010 14011 -9062 0
-9061 9062 0
-9061 -14011 0
-9061 -14009 0
-9061 -14010 0
9062 14006 14007 14008 -9063 0
-9062 9063 0
-9062 -14008 0
-9062 -14006 0
-9062 -14007 0
9063 14003 14004 14005 -9064 0
-9063 9064 0
-9063 -14005 0
-9063 -14003 0
-9063 -14004 0
9064 14000 14001 14002 -9065 0
-9064 9065 0
-9064 -14002 0
-9064 -14000 0
-9064 -14001 0
9065 13997 13998 13999 -9066 0
-9065 9066 0
-9065 -13999 0
-9065 -13997 0
-9065 -13998 0
9066 13994 13995 13996 -9067 0
-9066 9067 0
-9066 -13996 0
-9066 -13994 0
-9066 -13995 0
9067 -13960 13993 0
-9067 13960 0
-9067 -13993 0
-9068 7 29 0
-9068 14025 7 0
9068 -7 0
9068 -14025 -29 0
9069 -14026 -25 0
-9069 14026 0
-9069 25 0
-9070 29 9071 0
-9070 14027 9071 0
9070 -9071 0
9070 -14027 -29 0
9071 14025 14026 -7 0
-9071 7 0
-9071 -14026 0
-9071 -14025 0
-9072 14028 9071 0
9072 -14028 0
9072 -9071 0
-9073 14029 9071 0
9073 -14029 0
9073 -9071 0
-9074 14030 9071 0
9074 -14030 0
9074 -9071 0
-9075 14031 9071 0
9075 -14031 0
9075 -9071 0
-9076 14032 9071 0
9076 -14032 0
9076 -9071 0
-9077 14033 9071 0
9077 -14033 0
9077 -9071 0
-9078 14034 9071 0
9078 -14034 0
9078 -9071 0
-9079 14035 9071 0
9079 -14035 0
9079 -9071 0
-9080 14036 9071 0
9080 -14036 0
9080 -9071 0
-9081 14037 9071 0
9081 -14037 0
9081 -9071 0
-9082 14038 9071 0
9082 -14038 0
9082 -9071 0
-9083 14039 9071 0
9083 -14039 0
9083 -9071 0
-9084 14040 9071 0
9084 -14040 0
9084 -9071 0
-9085 14041 9071 0
9085 -14041 0
9085 -9071 0
-9086 14042 9071 0
9086 -14042 0
9086 -9071 0
-9087 14043 9071 0
9087 -14043 0
9087 -9071 0
-9088 14044 9071 0
9088 -14044 0
9088 -9071 0
-9089 14045 9071 0
9089 -14045 0
9089 -9071 0
-9090 14046 9071 0
9090 -14046 0
9090 -9071 0
-9091 14047 9071 0
9091 -14047 0
9091 -9071 0
-9092 14048 9071 0
9092 -14048 0
9092 -9071 0
-9093 14049 9071 0
9093 -14049 0
9093 -9071 0
-9094 14050 9071 0
9094 -14050 0
9094 -9071 0
-9095 14051 9071 0
9095 -14051 0
9095 -9071 0
-9096 14052 9071 0
9096 -14052 0
9096 -9071 0
-9097 14053 9071 0
9097 -14053 0
9097 -9071 0
-9098 14054 9071 0
9098 -14054 0
9098 -9071 0
-9099 14055 9071 0
9099 -14055 0
9099 -9071 0
-9100 14056 9071 0
9100 -14056 0
9100 -9071 0
-9101 14057 9071 0
9101 -14057 0
9101 -9071 0
-9102 14058 9071 0
9102 -14058 0
9102 -9071 0
-9103 14059 9071 0
9103 -14059 0
9103 -9071 0
-9104 14060 9105 0
-9104 25 9105 0
9104 -9105 0
9104 -14060 -25 0
9105 14060 -7 0
9105 -7 9106 0
9105 -7 9115 0
-9105 7 0
-9105 -14060 -9106 -9115 0
-9106 14057 14058 14059 9107 0
9106 -9107 0
9106 -14059 0
9106 -14057 0
9106 -14058 0
-9107 14054 14055 14056 9108 0
9107 -9108 0
9107 -14056 0
9107 -14054 0
9107 -14055 0
-9108 14051 14052 14053 9109 0
9108 -9109 0
9108 -14053 0
9108 -14051 0
9108 -14052 0
-9109 14048 14049 14050 9110 0
9109 -9110 0
9109 -14050 0
9109 -14048 0
9109 -14049 0
-9110 14045 14046 14047 9111 0
9110 -9111 0
9110 -14047 0
9110 -14045 0
9110 -14046 0
-9111 14042 14043 14044 9112 0
9111 -9112 0
9111 -14044 0
9111 -14042 0
9111 -14043 0
-9112 14039 14040 14041 9113 0
9112 -9113 0
9112 -14041 0
9112 -14039 0
9112 -14040 0
-9113 14036 14037 14038 9114 0
9113 -9114 0
9113 -14038 0
9113 -14036 0
9113 -14037 0
-9114 14034 14035 0
9114 -14034 0
9114 -14035 0
9115 -14027 -7 0
-9115 14027 0
-9115 7 0
-9116 14061 9117 0
-9116 25 9117 0
9116 -9117 0
9116 -14061 -25 0
9117 -14060 14061 -9115 0
9117 -14060 9106 -9115 0
9117 14060 -14061 -9106 -9115 0
-9117 14060 9106 0
-9117 -14060 -14061 -9106 0
-9117 9115 0
-9117 14060 14061 0
-9118 14062 9119 0
-9118 25 9119 0
9118 -9119 0
9118 -14062 -25 0
9119 -9106 -9115 -9120 0
9119 -14061 9106 -9115 0
-9119 9115 0
-9119 -9106 9120 0
-9119 14061 9106 0
9120 14062 -9121 0
9120 -14062 9121 0
-9120 -14062 -9121 0
-9120 14062 9121 0
9121 -14060 -14061 0
-9121 14060 0
-9121 14061 0
-9122 14063 9123 0
-9122 25 9123 0
9122 -9123 0
9122 -14063 -25 0
9123 -9106 -9115 -9124 0
9123 -14062 9106 -9115 0
-9123 9115 0
-9123 -9106 9124 0
-9123 14062 9106 0
9124 14063 -9125 0
9124 -14063 9125 0
-9124 -14063 -9125 0
-9124 14063 9125 0
9125 -14060 -14061 -14062 0
-9125 14060 0
-9125 14061 0
-9125 14062 0
-9126 14064 9127 0
-9126 25 9127 0
9126 -9127 0
9126 -14064 -25 0
9127 -9106 -9115 -9128 0
9127 -14063 9106 -9115 0
-9127 9115 0
-9127 -9106 9128 0
-9127 14063 9106 0
9128 14064 -9129 0
9128 -14064 9129 0
-9128 -14064 -9129 0
-9128 14064 9129 0
9129 -14063 -9125 0
-9129 14063 0
-9129 9125 0
-9130 14065 9131 0
-9130 25 9131 0
9130 -9131 0
9130 -14065 -25 0
9131 -9106 -9115 -9132 0
9131 -14064 9106 -9115 0
-9131 9115 0
-9131 -9106 9132 0
-9131 14064 9106 0
9132 14065 -9133 0
9132 -14065 9133 0
-9132 -14065 -9133 0
-9132 14065 9133 0
9133 -14064 -9129 0
-9133 14064 0
-9133 9129 0
-9134 14066 9135 0
-9134 25 9135 0
9134 -9135 0
9134 -14066 -25 0
9135 -9106 -9115 -9136 0
9135 -14065 9106 -9115 0
-9135 9115 0
-9135 -9106 9136 0
-9135 14065 9106 0
9136 14066 -9137 0
9136 -14066 9137 0
-9136 -14066 -9137 0
-9136 14066 9137 0
9137 -14065 -9133 0
-9137 14065 0
-9137 9133 0
-9138 14067 9139 0
-9138 25 9139 0
9138 -9139 0
9138 -14067 -25 0
9139 -9106 -9115 -9140 0
9139 -14066 9106 -9115 0
-9139 9115 0
-9139 -9106 9140 0
-9139 14066 9106 0
9140 14067 -9141 0
9140 -14067 9141 0
-9140 -14067 -9141 0
-9140 14067 9141 0
9141 -14066 -9137 0
-9141 14066 0
-9141 9137 0
-9142 14068 9143 0
-9142 25 9143 0
9142 -9143 0
9142 -14068 -25 0
9143 -9106 -9115 -9144 0
9143 -14067 9106 -9115 0
-9143 9115 0
-9143 -9106 9144 0
-9143 14067 9106 0
9144 14068 -9145 0
9144 -14068 9145 0
-9144 -14068 -9145 0
-9144 14068 9145 0
9145 -14067 -9141 0
-9145 14067 0
-9145 9141 0
-9146 14069 9147 0
-9146 25 9147 0
9146 -9147 0
9146 -14069 -25 0
9147 -9106 -9115 -9148 0
9147 -14068 9106 -9115 0
-9147 9115 0
-9147 -9106 9148 0
-9147 14068 9106 0
9148 14069 -9149 0
9148 -14069 9149 0
-9148 -14069 -9149 0
-9148 14069 9149 0
9149 -14068 -9145 0
-9149 14068 0
-9149 9145 0
-9150 14070 9151 0
-9150 25 9151 0
9150 -9151 0
9150 -14070 -25 0
9151 -9106 -9115 -9152 0
9151 -14069 9106 -9115 0
-9151 9115 0
-9151 -9106 9152 0
-9151 14069 9106 0
9152 14070 -9153 0
9152 -14070 9153 0
-9152 -14070 -9153 0
-9152 14070 9153 0
9153 -14069 -9149 0
-9153 14069 0
-9153 9149 0
-9154 14071 9155 0
-9154 25 9155 0
9154 -9155 0
9154 -14071 -25 0
9155 -9106 -9115 -9156 0
9155 -14070 9106 -9115 0
-9155 9115 0
-9155 -9106 9156 0
-9155 14070 9106 0
9156 14071 -9157 0
9156 -14071 9157 0
-9156 -14071 -9157 0
-9156 14071 9157 0
9157 -14070 -9153 0
-9157 14070 0
-9157 9153 0
-9158 14072 9159 0
-9158 25 9159 0
9158 -9159 0
9158 -14072 -25 0
9159 -9106 -9115 -9160 0
9159 -14071 9106 -9115 0
-9159 9115 0
-9159 -9106 9160 0
-9159 14071 9106 0
9160 14072 -9161 0
9160 -14072 9161 0
-9160 -14072 -9161 0
-9160 14072 9161 0
9161 -14071 -9157 0
-9161 14071 0
-9161 9157 0
-9162 14073 9163 0
-9162 25 9163 0
9162 -9163 0
9162 -14073 -25 0
9163 -9106 -9115 -9164 0
9163 -14072 9106 -9115 0
-9163 9115 0
-9163 -9106 9164 0
-9163 14072 9106 0
9164 14073 -9165 0
9164 -14073 9165 0
-9164 -14073 -9165 0
-9164 14073 9165 0
9165 -14072 -9161 0
-9165 14072 0
-9165 9161 0
-9166 14074 9167 0
-9166 25 9167 0
9166 -9167 0
9166 -14074 -25 0
9167 -9106 -9115 -9168 0
9167 -14073 9106 -9115 0
-9167 9115 0
-9167 -9106 9168 0
-9167 14073 9106 0
9168 14074 -9169 0
9168 -14074 9169 0
-9168 -14074 -9169 0
-9168 14074 9169 0
9169 -14073 -9165 0
-9169 14073 0
-9169 9165 0
-9170 14075 9171 0
-9170 25 9171 0
9170 -9171 0
9170 -14075 -25 0
9171 -9106 -9115 -9172 0
9171 -14074 9106 -9115 0
-9171 9115 0
-9171 -9106 9172 0
-9171 14074 9106 0
9172 14075 -9173 0
9172 -14075 9173 0
-9172 -14075 -9173 0
-9172 14075 9173 0
9173 -14074 -9169 0
-9173 14074 0
-9173 9169 0
-9174 14076 9175 0
-9174 25 9175 0
9174 -9175 0
9174 -14076 -25 0
9175 -9106 -9115 -9176 0
9175 -14075 9106 -9115 0
-9175 9115 0
-9175 -9106 9176 0
-9175 14075 9106 0
9176 14076 -9177 0
9176 -14076 9177 0
-9176 -14076 -9177 0
-9176 14076 9177 0
9177 -14075 -9173 0
-9177 14075 0
-9177 9173 0
-9178 14077 9179 0
-9178 25 9179 0
9178 -9179 0
9178 -14077 -25 0
9179 -9106 -9115 -9180 0
9179 -14076 9106 -9115 0
-9179 9115 0
-9179 -9106 9180 0
-9179 14076 9106 0
9180 14077 -9181 0
9180 -14077 9181 0
-9180 -14077 -9181 0
-9180 14077 9181 0
9181 -14076 -9177 0
-9181 14076 0
-9181 9177 0
-9182 14078 9183 0
-9182 25 9183 0
9182 -9183 0
9182 -14078 -25 0
9183 -9106 -9115 -9184 0
9183 -14077 9106 -9115 0
-9183 9115 0
-9183 -9106 9184 0
-9183 14077 9106 0
9184 14078 -9185 0
9184 -14078 9185 0
-9184 -14078 -9185 0
-9184 14078 9185 0
9185 -14077 -9181 0
-9185 14077 0
-9185 9181 0
-9186 14079 9187 0
-9186 25 9187 0
9186 -9187 0
9186 -14079 -25 0
9187 -9106 -9115 -9188 0
9187 -14078 9106 -9115 0
-9187 9115 0
-9187 -9106 9188 0
-9187 14078 9106 0
9188 14079 -9189 0
9188 -14079 9189 0
-9188 -14079 -9189 0
-9188 14079 9189 0
9189 -14078 -9185 0
-9189 14078 0
-9189 9185 0
-9190 14080 9191 0
-9190 25 9191 0
9190 -9191 0
9190 -14080 -25 0
9191 -9106 -9115 -9192 0
9191 -14079 9106 -9115 0
-9191 9115 0
-9191 -9106 9192 0
-9191 14079 9106 0
9192 14080 -9193 0
9192 -14080 9193 0
-9192 -14080 -9193 0
-9192 14080 9193 0
9193 -14079 -9189 0
-9193 14079 0
-9193 9189 0
-9194 14081 9195 0
-9194 25 9195 0
9194 -9195 0
9194 -14081 -25 0
9195 -9106 -9115 -9196 0
9195 -14080 9106 -9115 0
-9195 9115 0
-9195 -9106 9196 0
-9195 14080 9106 0
9196 14081 -9197 0
9196 -14081 9197 0
-9196 -14081 -9197 0
-9196 14081 9197 0
9197 -14080 -9193 0
-9197 14080 0
-9197 9193 0
-9198 14082 9199 0
-9198 25 9199 0
9198 -9199 0
9198 -14082 -25 0
9199 -9106 -9115 -9200 0
9199 -14081 9106 -9115 0
-9199 9115 0
-9199 -9106 9200 0
-9199 14081 9106 0
9200 14082 -9201 0
9200 -14082 9201 0
-9200 -14082 -9201 0
-9200 14082 9201 0
9201 -14081 -9197 0
-9201 14081 0
-9201 9197 0
-9202 14083 9203 0
-9202 25 9203 0
9202 -9203 0
9202 -14083 -25 0
9203 -9106 -9115 -9204 0
9203 -14082 9106 -9115 0
-9203 9115 0
-9203 -9106 9204 0
-9203 14082 9106 0
9204 14083 -9205 0
9204 -14083 9205 0
-9204 -14083 -9205 0
-9204 14083 9205 0
9205 -14082 -9201 0
-9205 14082 0
-9205 9201 0
-9206 14084 9207 0
-9206 25 9207 0
9206 -9207 0
9206 -14084 -25 0
9207 -9106 -9115 -9208 0
9207 -14083 9106 -9115 0
-9207 9115 0
-9207 -9106 9208 0
-9207 14083 9106 0
9208 14084 -9209 0
9208 -14084 9209 0
-9208 -14084 -9209 0
-9208 14084 9209 0
9209 -14083 -9205 0
-9209 14083 0
-9209 9205 0
-9210 14085 9211 0
-9210 25 9211 0
9210 -9211 0
9210 -14085 -25 0
9211 -9106 -9115 -9212 0
9211 -14084 9106 -9115 0
-9211 9115 0
-9211 -9106 9212 0
-9211 14084 9106 0
9212 14085 -9213 0
9212 -14085 9213 0
-9212 -14085 -9213 0
-9212 14085 9213 0
9213 -14084 -9209 0
-9213 14084 0
-9213 9209 0
-9214 14086 9215 0
-9214 25 9215 0
9214 -9215 0
9214 -14086 -25 0
9215 -9106 -9115 -9216 0
9215 -14085 9106 -9115 0
-9215 9115 0
-9215 -9106 9216 0
-9215 14085 9106 0
9216 14086 -9217 0
9216 -14086 9217 0
-9216 -14086 -9217 0
-9216 14086 9217 0
9217 -14085 -9213 0
-9217 14085 0
-9217 9213 0
-9218 14087 9219 0
-9218 25 9219 0
9218 -9219 0
9218 -14087 -25 0
9219 -9106 -9115 -9220 0
9219 -14086 9106 -9115 0
-9219 9115 0
-9219 -9106 9220 0
-9219 14086 9106 0
9220 14087 -9221 0
9220 -14087 9221 0
-9220 -14087 -9221 0
-9220 14087 9221 0
9221 -14086 -9217 0
-9221 14086 0
-9221 9217 0
-9222 14088 9223 0
-9222 25 9223 0
9222 -9223 0
9222 -14088 -25 0
9223 -9106 -9115 -9224 0
9223 -14087 9106 -9115 0
-9223 9115 0
-9223 -9106 9224 0
-9223 14087 9106 0
9224 14088 -9225 0
9224 -14088 9225 0
-9224 -14088 -9225 0
-9224 14088 9225 0
9225 -14087 -9221 0
-9225 14087 0
-9225 9221 0
-9226 14089 9227 0
-9226 25 9227 0
9226 -9227 0
9226 -14089 -25 0
9227 -9106 -9115 -9228 0
9227 -14088 9106 -9115 0
-9227 9115 0
-9227 -9106 9228 0
-9227 14088 9106 0
9228 14089 -9229 0
9228 -14089 9229 0
-9228 -14089 -9229 0
-9228 14089 9229 0
9229 -14088 -9225 0
-9229 14088 0
-9229 9225 0
-9230 14090 9231 0
-9230 25 9231 0
9230 -9231 0
9230 -14090 -25 0
9231 -9106 -9115 -9232 0
9231 -14089 9106 -9115 0
-9231 9115 0
-9231 -9106 9232 0
-9231 14089 9106 0
9232 14090 -9233 0
9232 -14090 9233 0
-9232 -14090 -9233 0
-9232 14090 9233 0
9233 -14089 -9229 0
-9233 14089 0
-9233 9229 0
-9234 14091 9235 0
-9234 25 9235 0
9234 -9235 0
9234 -14091 -25 0
9235 -9106 -9115 -9236 0
9235 -14090 9106 -9115 0
-9235 9115 0
-9235 -9106 9236 0
-9235 14090 9106 0
9236 14091 -9237 0
9236 -14091 9237 0
-9236 -14091 -9237 0
-9236 14091 9237 0
9237 -14090 -9233 0
-9237 14090 0
-9237 9233 0
9238 -14027 29 -9240 0
9238 -14027 29 -9239 0
-9238 14027 0
-9238 -29 0
-9238 9239 9240 0
9239 -14028 14061 9106 0
-9239 14028 0
-9239 -14061 0
-9239 -9106 0
9240 14089 14090 14091 -9241 0
-9240 9241 0
-9240 -14091 0
-9240 -14089 0
-9240 -14090 0
9241 14086 14087 14088 -9242 0
-9241 9242 0
-9241 -14088 0
-9241 -14086 0
-9241 -14087 0
9242 14083 14084 14085 -9243 0
-9242 9243 0
-9242 -14085 0
-9242 -14083 0
-9242 -14084 0
9243 14080 14081 14082 -9244 0
-9243 9244 0
-9243 -14082 0
-9243 -14080 0
-9243 -14081 0
9244 14077 14078 14079 -9245 0
-9244 9245 0
-9244 -14079 0
-9244 -14077 0
-9244 -14078 0
9245 14074 14075 14076 -9246 0
-9245 9246 0
-9245 -14076 0
-9245 -14074 0
-9245 -14075 0
9246 14071 14072 14073 -9247 0
-9246 9247 0
-9246 -14073 0
-9246 -14071 0
-9246 -14072 0
9247 14068 14069 14070 -9248 0
-9247 9248 0
-9247 -14070 0
-9247 -14068 0
-9247 -14069 0
9248 14065 14066 14067 -9249 0
-9248 9249 0
-9248 -14067 0
-9248 -14065 0
-9248 -14066 0
9249 14062 14063 14064 -9250 0
-9249 9250 0
-9249 -14064 0
-9249 -14062 0
-9249 -14063 0
9250 -14028 14061 0
-9250 14028 0
-9250 -14061 0
9251 869 1884 -9252 9257 0
-9251 -869 0
-9251 -9257 0
-9251 9252 0
-9251 -1884 0
9252 931 -1836 -9253 -9256 0
-9252 9256 0
-9252 9253 0
-9252 -931 0
-9252 1836 0
-9253 9254 0
-9253 10016 -10113 0
9253 -10016 -9254 0
9253 10113 -9254 0
-9254 9255 0
-9254 -10025 10034 0
9254 -10034 -9255 0
9254 10025 -9255 0
9255 -10043 864 0
9255 -10052 864 0
-9255 -864 0
-9255 10043 10052 0
9256 -10103 810 -861 0
-9256 10103 0
-9256 -810 0
-9256 861 0
9257 931 -1836 -9256 -9258 0
-9257 -931 0
-9257 9258 0
-9257 9256 0
-9257 1836 0
-9258 9254 0
-9258 10016 9259 0
-9258 10016 -10113 0
9258 -10016 -9254 0
9258 10113 -9254 -9259 0
-9259 9255 0
-9259 -10025 10034 0
-9259 10034 9260 0
9259 -10034 -9255 0
9259 10025 -9255 -9260 0
9260 -10052 864 0
9260 -10043 -10061 864 0
-9260 -864 0
-9260 10052 10061 0
-9260 10043 10052 0
9261 9830 -9863 -9872 0
-9261 9872 0
-9261 9863 0
-9261 -9830 0
9262 122 -146 0
-9262 -122 0
-9262 146 0
-9263 14099 9267 0
-9263 9264 9267 0
9263 -9267 0
9263 -14099 -9264 0
9264 -107 -6982 -9265 0
9264 111 -6982 -9265 0
-9264 9265 0
-9264 6982 0
-9264 107 -111 0
9265 -9829 -9266 0
-9265 9829 0
-9265 9266 0
-9266 10549 11534 11535 0
9266 -10549 0
9266 -11535 0
9266 -11534 0
9267 9268 -9264 0
-9267 -9268 0
-9267 9264 0
-9268 6986 9269 0
-9268 -9601 9825 9269 0
9268 -9269 0
9268 -9825 -6986 0
9268 9601 -6986 0
9269 -107 -6982 0
-9269 107 0
-9269 6982 0
9270 -14099 -14100 -9271 0
-9270 14099 0
-9270 14100 0
-9270 9271 0
9271 -9268 -9265 0
-9271 9268 0
-9271 9265 0
-9272 14101 9273 0
-9272 9264 9273 0
9272 -9273 0
9272 -14101 -9264 0
9273 14099 -9267 0
-9273 -14099 0
-9273 9267 0
-9274 14102 9273 0
9274 -14102 0
9274 -9273 0
-9275 14103 9273 0
9275 -14103 0
9275 -9273 0
-9276 14104 9267 0
-9276 9264 9267 0
9276 -9267 0
9276 -14104 -9264 0
-9277 14105 9278 0
-9277 9271 9278 0
9277 -9278 0
9277 -14105 -9271 0
9278 -14104 -9279 0
-9278 14104 0
-9278 9279 0
9279 -14101 -9267 0
-9279 14101 0
-9279 9267 0
-9280 14106 9281 0
-9280 9271 9281 0
9280 -9281 0
9280 -14106 -9271 0
9281 -14105 -9279 0
-9281 14105 0
-9281 9279 0
-9282 14107 9283 0
-9282 9271 9283 0
9282 -9283 0
9282 -14107 -9271 0
9283 -14106 -9279 0
-9283 14106 0
-9283 9279 0
-9284 14108 9285 0
-9284 9271 9285 0
9284 -9285 0
9284 -14108 -9271 0
9285 -14107 -9279 0
-9285 14107 0
-9285 9279 0
-9286 14109 9287 0
-9286 9271 9287 0
9286 -9287 0
9286 -14109 -9271 0
9287 -14108 -9279 0
-9287 14108 0
-9287 9279 0
-9288 14110 9289 0
-9288 9271 9289 0
9288 -9289 0
9288 -14110 -9271 0
9289 -14109 -9279 0
-9289 14109 0
-9289 9279 0
-9290 14111 9291 0
-9290 9271 9291 0
9290 -9291 0
9290 -14111 -9271 0
9291 -14110 -9279 0
-9291 14110 0
-9291 9279 0
-9292 14112 9293 0
-9292 9271 9293 0
9292 -9293 0
9292 -14112 -9271 0
9293 -14111 -9279 0
-9293 14111 0
-9293 9279 0
-9294 14113 9295 0
-9294 9271 9295 0
9294 -9295 0
9294 -14113 -9271 0
9295 -14112 -9279 0
-9295 14112 0
-9295 9279 0
-9296 14114 9297 0
-9296 9271 9297 0
9296 -9297 0
9296 -14114 -9271 0
9297 -14113 -9279 0
-9297 14113 0
-9297 9279 0
-9298 14115 9299 0
-9298 9271 9299 0
9298 -9299 0
9298 -14115 -9271 0
9299 -14114 -9279 0
-9299 14114 0
-9299 9279 0
-9300 14116 9301 0
-9300 9271 9301 0
9300 -9301 0
9300 -14116 -9271 0
9301 -14115 -9279 0
-9301 14115 0
-9301 9279 0
-9302 14117 9303 0
-9302 9271 9303 0
9302 -9303 0
9302 -14117 -9271 0
9303 -14116 -9279 0
-9303 14116 0
-9303 9279 0
-9304 14118 9305 0
-9304 9271 9305 0
9304 -9305 0
9304 -14118 -9271 0
9305 -14117 -9279 0
-9305 14117 0
-9305 9279 0
-9306 14119 9307 0
-9306 9271 9307 0
9306 -9307 0
9306 -14119 -9271 0
9307 -14118 -9279 0
-9307 14118 0
-9307 9279 0
-9308 14120 9309 0
-9308 9271 9309 0
9308 -9309 0
9308 -14120 -9271 0
9309 -14119 -9279 0
-9309 14119 0
-9309 9279 0
-9310 14121 9311 0
-9310 9271 9311 0
9310 -9311 0
9310 -14121 -9271 0
9311 -14120 -9279 0
-9311 14120 0
-9311 9279 0
-9312 14122 9313 0
-9312 9271 9313 0
9312 -9313 0
9312 -14122 -9271 0
9313 -14121 -9279 0
-9313 14121 0
-9313 9279 0
-9314 14123 9315 0
-9314 9271 9315 0
9314 -9315 0
9314 -14123 -9271 0
9315 -14122 -9279 0
-9315 14122 0
-9315 9279 0
-9316 14124 9317 0
-9316 9271 9317 0
9316 -9317 0
9316 -14124 -9271 0
9317 -14123 -9279 0
-9317 14123 0
-9317 9279 0
-9318 14125 9319 0
-9318 9271 9319 0
9318 -9319 0
9318 -14125 -9271 0
9319 -14124 -9279 0
-9319 14124 0
-9319 9279 0
-9320 14126 9321 0
-9320 9271 9321 0
9320 -9321 0
9320 -14126 -9271 0
9321 -14125 -9279 0
-9321 14125 0
-9321 9279 0
-9322 14127 9323 0
-9322 9271 9323 0
9322 -9323 0
9322 -14127 -9271 0
9323 -14126 -9279 0
-9323 14126 0
-9323 9279 0
-9324 14128 9325 0
-9324 9271 9325 0
9324 -9325 0
9324 -14128 -9271 0
9325 -14127 -9279 0
-9325 14127 0
-9325 9279 0
-9326 14129 9327 0
-9326 9271 9327 0
9326 -9327 0
9326 -14129 -9271 0
9327 -14128 -9279 0
-9327 14128 0
-9327 9279 0
-9328 14130 9329 0
-9328 9271 9329 0
9328 -9329 0
9328 -14130 -9271 0
9329 -14129 -9279 0
-9329 14129 0
-9329 9279 0
-9330 14131 9331 0
-9330 9271 9331 0
9330 -9331 0
9330 -14131 -9271 0
9331 -14130 -9279 0
-9331 14130 0
-9331 9279 0
-9332 14132 9333 0
-9332 9271 9333 0
9332 -9333 0
9332 -14132 -9271 0
9333 -14131 -9279 0
-9333 14131 0
-9333 9279 0
-9334 14133 9335 0
-9334 9271 9335 0
9334 -9335 0
9334 -14133 -9271 0
9335 -14132 -9279 0
-9335 14132 0
-9335 9279 0
-9336 14134 9337 0
-9336 9271 9337 0
9336 -9337 0
9336 -14134 -9271 0
9337 -14133 -9279 0
-9337 14133 0
-9337 9279 0
-9338 14135 9339 0
-9338 9271 9339 0
9338 -9339 0
9338 -14135 -9271 0
9339 -14134 -9279 0
-9339 14134 0
-9339 9279 0
9340 -14101 -14102 14104 9264 0
-9340 14102 0
-9340 -9264 0
-9340 14101 0
-9340 -14104 0
9341 -14101 -9267 9353 0
9341 -14101 -9267 -9342 0
-9341 14101 0
-9341 9267 0
-9341 9342 -9353 0
-9342 -14103 14106 0
-9342 14104 14106 9343 0
9342 -14106 0
9342 14103 -14104 0
9342 14103 -9343 0
-9343 14105 14106 14107 9344 0
9343 -9344 0
9343 -14107 0
9343 -14105 0
9343 -14106 0
-9344 14108 14109 14110 9345 0
9344 -9345 0
9344 -14110 0
9344 -14108 0
9344 -14109 0
-9345 14111 14112 14113 9346 0
9345 -9346 0
9345 -14113 0
9345 -14111 0
9345 -14112 0
-9346 14114 14115 14116 9347 0
9346 -9347 0
9346 -14116 0
9346 -14114 0
9346 -14115 0
-9347 14117 14118 14119 9348 0
9347 -9348 0
9347 -14119 0
9347 -14117 0
9347 -14118 0
-9348 14120 14121 14122 9349 0
9348 -9349 0
9348 -14122 0
9348 -14120 0
9348 -14121 0
-9349 14123 14124 14125 9350 0
9349 -9350 0
9349 -14125 0
9349 -14123 0
9349 -14124 0
-9350 14126 14127 14128 9351 0
9350 -9351 0
9350 -14128 0
9350 -14126 0
9350 -14127 0
-9351 14129 14130 14131 9352 0
9351 -9352 0
9351 -14131 0
9351 -14129 0
9351 -14130 0
-9352 14132 14133 14134 14135 0
9352 -14135 0
9352 -14134 0
9352 -14132 0
9352 -14133 0
-9353 14103 14104 0
-9353 -14103 -14105 14106 0
9353 14103 -14104 0
9353 -14103 14105 0
9353 -14103 -14106 0
9354 6983 -6993 -9266 -9355 0
-9354 9355 0
-9354 9266 0
-9354 -6983 0
-9354 6993 0
9355 -9829 -10548 0
-9355 9829 0
-9355 10548 0
-9356 14140 9357 0
-9356 996 -9357 0
9356 -996 -9357 0
9356 -14140 9357 0
9357 -9354 -9358 0
-9357 9354 0
-9357 9358 0
9358 -9359 0
9358 -9743 14147 0
9358 9743 -14147 0
-9358 -9743 -14147 9359 0
-9358 9743 14147 9359 0
9359 -9360 0
9359 -14140 996 0
9359 14140 -996 0
-9359 -14140 -996 9360 0
-9359 14140 996 9360 0
9360 -9361 0
9360 -9745 14141 0
9360 9745 -14141 0
-9360 -9745 -14141 9361 0
-9360 9745 14141 9361 0
9361 -9362 0
9361 -14142 999 0
9361 14142 -999 0
-9361 -14142 -999 9362 0
-9361 14142 999 9362 0
9362 -9363 0
9362 -14143 1001 0
9362 14143 -1001 0
-9362 -14143 -1001 9363 0
-9362 14143 1001 9363 0
9363 -9364 0
9363 -14144 1003 0
9363 14144 -1003 0
-9363 -14144 -1003 9364 0
-9363 14144 1003 9364 0
9364 -9365 0
9364 -14145 1005 0
9364 14145 -1005 0
-9364 -14145 -1005 9365 0
-9364 14145 1005 9365 0
9365 14146 -1007 0
9365 -14146 1007 0
-9365 -14146 -1007 0
-9365 14146 1007 0
-9366 14141 9357 0
-9366 9745 -9357 0
9366 -14141 9357 0
9366 -9745 -9357 0
-9367 14142 9357 0
-9367 999 -9357 0
9367 -999 -9357 0
9367 -14142 9357 0
-9368 14143 9357 0
-9368 1001 -9357 0
9368 -1001 -9357 0
9368 -14143 9357 0
-9369 14144 9357 0
-9369 1003 -9357 0
9369 -1003 -9357 0
9369 -14144 9357 0
-9370 14145 9357 0
-9370 1005 -9357 0
9370 -1005 -9357 0
9370 -14145 9357 0
-9371 14146 9357 0
-9371 1007 -9357 0
9371 -1007 -9357 0
9371 -14146 9357 0
-9372 14147 9357 0
-9372 9743 -9357 0
9372 -14147 9357 0
9372 -9743 -9357 0
9373 14139 -9354 -9358 0
-9373 9358 0
-9373 9354 0
-9373 -14139 0
9374 -9265 -9375 -9417 9418 0
-9374 -9418 0
-9374 9265 0
-9374 9417 0
-9374 9375 0
-9375 11350 11353 11356 9376 0
9375 -9376 0
9375 -11356 0
9375 -11350 0
9375 -11353 0
-9376 11359 11362 11365 9377 0
9376 -9377 0
9376 -11365 0
9376 -11359 0
9376 -11362 0
-9377 11368 11371 11374 9378 0
9377 -9378 0
9377 -11374 0
9377 -11368 0
9377 -11371 0
-9378 11377 11380 11383 9379 0
9378 -9379 0
9378 -11383 0
9378 -11377 0
9378 -11380 0
-9379 11386 11389 11392 9380 0
9379 -9380 0
9379 -11392 0
9379 -11386 0
9379 -11389 0
-9380 11395 11398 11401 9381 0
9380 -9381 0
9380 -11401 0
9380 -11395 0
9380 -11398 0
-9381 11404 11407 11410 9382 0
9381 -9382 0
9381 -11410 0
9381 -11404 0
9381 -11407 0
-9382 11413 11416 11419 9383 0
9382 -9383 0
9382 -11419 0
9382 -11413 0
9382 -11416 0
-9383 11422 11425 11428 9384 0
9383 -9384 0
9383 -11428 0
9383 -11422 0
9383 -11425 0
-9384 11431 11434 11437 9385 0
9384 -9385 0
9384 -11437 0
9384 -11431 0
9384 -11434 0
-9385 11440 11443 11446 9386 0
9385 -9386 0
9385 -11446 0
9385 -11440 0
9385 -11443 0
-9386 11449 11452 11455 9387 0
9386 -9387 0
9386 -11455 0
9386 -11449 0
9386 -11452 0
-9387 11458 11461 11464 9388 0
9387 -9388 0
9387 -11464 0
9387 -11458 0
9387 -11461 0
-9388 11467 11470 11473 9389 0
9388 -9389 0
9388 -11473 0
9388 -11467 0
9388 -11470 0
-9389 11476 11479 11482 9390 0
9389 -9390 0
9389 -11482 0
9389 -11476 0
9389 -11479 0
-9390 11485 11488 11491 9391 0
9390 -9391 0
9390 -11491 0
9390 -11485 0
9390 -11488 0
-9391 11494 11497 11500 9392 0
9391 -9392 0
9391 -11500 0
9391 -11494 0
9391 -11497 0
-9392 11503 11506 11509 9393 0
9392 -9393 0
9392 -11509 0
9392 -11503 0
9392 -11506 0
-9393 11512 11515 11518 9394 0
9393 -9394 0
9393 -11518 0
9393 -11512 0
9393 -11515 0
-9394 11521 11524 11527 9395 0
9394 -9395 0
9394 -11527 0
9394 -11521 0
9394 -11524 0
-9395 10585 11530 11533 9396 0
9395 -9396 0
9395 -11533 0
9395 -10585 0
9395 -11530 0
-9396 10605 10633 10661 9397 0
9396 -9397 0
9396 -10661 0
9396 -10605 0
9396 -10633 0
-9397 10689 10717 10745 9398 0
9397 -9398 0
9397 -10745 0
9397 -10689 0
9397 -10717 0
-9398 10773 10784 10795 9399 0
9398 -9399 0
9398 -10795 0
9398 -10773 0
9398 -10784 0
-9399 10806 10817 10828 9400 0
9399 -9400 0
9399 -10828 0
9399 -10806 0
9399 -10817 0
-9400 10839 10850 10861 9401 0
9400 -9401 0
9400 -10861 0
9400 -10839 0
9400 -10850 0
-9401 10871 10881 10891 9402 0
9401 -9402 0
9401 -10891 0
9401 -10871 0
9401 -10881 0
-9402 10901 10911 10921 9403 0
9402 -9403 0
9402 -10921 0
9402 -10901 0
9402 -10911 0
-9403 10931 10941 10951 9404 0
9403 -9404 0
9403 -10951 0
9403 -10931 0
9403 -10941 0
-9404 10961 10971 10981 9405 0
9404 -9405 0
9404 -10981 0
9404 -10961 0
9404 -10971 0
-9405 10991 11001 11011 9406 0
9405 -9406 0
9405 -11011 0
9405 -10991 0
9405 -11001 0
-9406 11021 11031 11041 9407 0
9406 -9407 0
9406 -11041 0
9406 -11021 0
9406 -11031 0
-9407 11051 11061 11071 9408 0
9407 -9408 0
9407 -11071 0
9407 -11051 0
9407 -11061 0
-9408 11081 11091 11101 9409 0
9408 -9409 0
9408 -11101 0
9408 -11081 0
9408 -11091 0
-9409 11111 11121 11131 9410 0
9409 -9410 0
9409 -11131 0
9409 -11111 0
9409 -11121 0
-9410 11141 11151 11161 9411 0
9410 -9411 0
9410 -11161 0
9410 -11141 0
9410 -11151 0
-9411 11171 11181 11191 9412 0
9411 -9412 0
9411 -11191 0
9411 -11171 0
9411 -11181 0
-9412 11201 11211 11221 9413 0
9412 -9413 0
9412 -11221 0
9412 -11201 0
9412 -11211 0
-9413 11231 11241 11251 9414 0
9413 -9414 0
9413 -11251 0
9413 -11231 0
9413 -11241 0
-9414 11261 11271 11281 9415 0
9414 -9415 0
9414 -11281 0
9414 -11261 0
9414 -11271 0
-9415 11291 11301 11311 9416 0
9415 -9416 0
9415 -11311 0
9415 -11291 0
9415 -11301 0
-9416 11321 11331 11341 0
9416 -11321 0
9416 -11341 0
9416 -11331 0
9417 -10546 10547 0
-9417 10546 0
-9417 -10547 0
-9418 -9541 0
-9418 -11350 11353 0
-9418 11353 9419 0
9418 -11353 9541 0
9418 11350 -9419 9541 0
-9419 -9540 0
-9419 -11356 11359 0
-9419 11359 9420 0
9419 -11359 9540 0
9419 11356 -9420 9540 0
-9420 -9539 0
-9420 -11362 11365 0
-9420 11365 9421 0
9420 -11365 9539 0
9420 11362 -9421 9539 0
-9421 -9538 0
-9421 -11368 11371 0
-9421 11371 9422 0
9421 -11371 9538 0
9421 11368 -9422 9538 0
-9422 -9537 0
-9422 -11374 11377 0
-9422 11377 9423 0
9422 -11377 9537 0
9422 11374 -9423 9537 0
-9423 -9536 0
-9423 -11380 11383 0
-9423 11383 9424 0
9423 -11383 9536 0
9423 11380 -9424 9536 0
-9424 -9535 0
-9424 -11386 11389 0
-9424 11389 9425 0
9424 -11389 9535 0
9424 11386 -9425 9535 0
-9425 -9534 0
-9425 -11392 11395 0
-9425 11395 9426 0
9425 -11395 9534 0
9425 11392 -9426 9534 0
-9426 -9533 0
-9426 -11398 11401 0
-9426 11401 9427 0
9426 -11401 9533 0
9426 11398 -9427 9533 0
-9427 -9532 0
-9427 -11404 11407 0
-9427 11407 9428 0
9427 -11407 9532 0
9427 11404 -9428 9532 0
-9428 -9531 0
-9428 -11410 11413 0
-9428 11413 9429 0
9428 -11413 9531 0
9428 11410 -9429 9531 0
-9429 -9530 0
-9429 -11416 11419 0
-9429 11419 9430 0
9429 -11419 9530 0
9429 11416 -9430 9530 0
-9430 -9529 0
-9430 -11422 11425 0
-9430 11425 9431 0
9430 -11425 9529 0
9430 11422 -9431 9529 0
-9431 -9528 0
-9431 -11428 11431 0
-9431 11431 9432 0
9431 -11431 9528 0
9431 11428 -9432 9528 0
-9432 -9527 0
-9432 -11434 11437 0
-9432 11437 9433 0
9432 -11437 9527 0
9432 11434 -9433 9527 0
-9433 -9526 0
-9433 -11440 11443 0
-9433 11443 9434 0
9433 -11443 9526 0
9433 11440 -9434 9526 0
-9434 -9525 0
-9434 -11446 11449 0
-9434 11449 9435 0
9434 -11449 9525 0
9434 11446 -9435 9525 0
-9435 -9524 0
-9435 -11452 11455 0
-9435 11455 9436 0
9435 -11455 9524 0
9435 11452 -9436 9524 0
-9436 -9523 0
-9436 -11458 11461 0
-9436 11461 9437 0
9436 -11461 9523 0
9436 11458 -9437 9523 0
-9437 -9522 0
-9437 -11464 11467 0
-9437 11467 9438 0
9437 -11467 9522 0
9437 11464 -9438 9522 0
-9438 -9521 0
-9438 -11470 11473 0
-9438 11473 9439 0
9438 -11473 9521 0
9438 11470 -9439 9521 0
-9439 -9520 0
-9439 -11476 11479 0
-9439 11479 9440 0
9439 -11479 9520 0
9439 11476 -9440 9520 0
-9440 -9519 0
-9440 -11482 11485 0
-9440 11485 9441 0
9440 -11485 9519 0
9440 11482 -9441 9519 0
-9441 -9518 0
-9441 -11488 11491 0
-9441 11491 9442 0
9441 -11491 9518 0
9441 11488 -9442 9518 0
-9442 -9517 0
-9442 -11494 11497 0
-9442 11497 9443 0
9442 -11497 9517 0
9442 11494 -9443 9517 0
-9443 -9516 0
-9443 -11500 11503 0
-9443 11503 9444 0
9443 -11503 9516 0
9443 11500 -9444 9516 0
-9444 -9515 0
-9444 -11506 11509 0
-9444 11509 9445 0
9444 -11509 9515 0
9444 11506 -9445 9515 0
-9445 -9514 0
-9445 -11512 11515 0
-9445 11515 9446 0
9445 -11515 9514 0
9445 11512 -9446 9514 0
-9446 -9513 0
-9446 -11518 11521 0
-9446 11521 9447 0
9446 -11521 9513 0
9446 11518 -9447 9513 0
-9447 -9512 0
-9447 -11524 11527 0
-9447 11527 9448 0
9447 -11527 9512 0
9447 11524 -9448 9512 0
-9448 -9511 0
-9448 -11530 11533 0
-9448 11533 9449 0
9448 -11533 9511 0
9448 11530 -9449 9511 0
-9449 -9510 0
-9449 -10585 10605 0
-9449 10605 9450 0
9449 -10605 9510 0
9449 10585 -9450 9510 0
-9450 -9509 0
-9450 -10633 10661 0
-9450 10661 9451 0
9450 -10661 9509 0
9450 10633 -9451 9509 0
-9451 -9508 0
-9451 -10689 10717 0
-9451 10717 9452 0
9451 -10717 9508 0
9451 10689 -9452 9508 0
-9452 -9507 0
-9452 -10745 10773 0
-9452 10773 9453 0
9452 -10773 9507 0
9452 10745 -9453 9507 0
-9453 -9506 0
-9453 -10784 10795 0
-9453 10795 9454 0
9453 -10795 9506 0
9453 10784 -9454 9506 0
-9454 -9505 0
-9454 -10806 10817 0
-9454 10817 9455 0
9454 -10817 9505 0
9454 10806 -9455 9505 0
-9455 -9504 0
-9455 -10828 10839 0
-9455 10839 9456 0
9455 -10839 9504 0
9455 10828 -9456 9504 0
-9456 -9503 0
-9456 -10850 10861 0
-9456 10861 9457 0
9456 -10861 9503 0
9456 10850 -9457 9503 0
-9457 -9502 0
-9457 -10871 10881 0
-9457 10881 9458 0
9457 -10881 9502 0
9457 10871 -9458 9502 0
-9458 -9501 0
-9458 -10891 10901 0
-9458 10901 9459 0
9458 -10901 9501 0
9458 10891 -9459 9501 0
-9459 -9500 0
-9459 -10911 10921 0
-9459 10921 9460 0
9459 -10921 9500 0
9459 10911 -9460 9500 0
-9460 -9499 0
-9460 -10931 10941 0
-9460 10941 9461 0
9460 -10941 9499 0
9460 10931 -9461 9499 0
-9461 -9498 0
-9461 -10951 10961 0
-9461 10961 9462 0
9461 -10961 9498 0
9461 10951 -9462 9498 0
-9462 -9497 0
-9462 -10971 10981 0
-9462 10981 9463 0
9462 -10981 9497 0
9462 10971 -9463 9497 0
-9463 -9496 0
-9463 -10991 11001 0
-9463 11001 9464 0
9463 -11001 9496 0
9463 10991 -9464 9496 0
-9464 -9495 0
-9464 -11011 11021 0
-9464 11021 9465 0
9464 -11021 9495 0
9464 11011 -9465 9495 0
-9465 -9494 0
-9465 -11031 11041 0
-9465 11041 9466 0
9465 -11041 9494 0
9465 11031 -9466 9494 0
-9466 -9493 0
-9466 -11051 11061 0
-9466 11061 9467 0
9466 -11061 9493 0
9466 11051 -9467 9493 0
-9467 -9492 0
-9467 -11071 11081 0
-9467 11081 9468 0
9467 -11081 9492 0
9467 11071 -9468 9492 0
-9468 -9491 0
-9468 -11091 11101 0
-9468 11101 9469 0
9468 -11101 9491 0
9468 11091 -9469 9491 0
-9469 -9490 0
-9469 -11111 11121 0
-9469 11121 9470 0
9469 -11121 9490 0
9469 11111 -9470 9490 0
-9470 -9489 0
-9470 -11131 11141 0
-9470 11141 9471 0
9470 -11141 9489 0
9470 11131 -9471 9489 0
-9471 -9488 0
-9471 -11151 11161 0
-9471 11161 9472 0
9471 -11161 9488 0
9471 11151 -9472 9488 0
-9472 -9487 0
-9472 -11171 11181 0
-9472 11181 9473 0
9472 -11181 9487 0
9472 11171 -9473 9487 0
-9473 -9486 0
-9473 -11191 11201 0
-9473 11201 9474 0
9473 -11201 9486 0
9473 11191 -9474 9486 0
-9474 -9485 0
-9474 -11211 11221 0
-9474 11221 9475 0
9474 -11221 9485 0
9474 11211 -9475 9485 0
-9475 -9484 0
-9475 -11231 11241 0
-9475 11241 9476 0
9475 -11241 9484 0
9475 11231 -9476 9484 0
-9476 -9483 0
-9476 -11251 11261 0
-9476 11261 9477 0
9476 -11261 9483 0
9476 11251 -9477 9483 0
-9477 -9482 0
-9477 -11271 11281 0
-9477 11281 9478 0
9477 -11281 9482 0
9477 11271 -9478 9482 0
-9478 -9480 0
-9478 -11291 11301 0
-9478 11301 9479 0
9478 -11301 9480 0
9478 11291 -9479 9480 0
-9479 -11311 11321 0
-9479 -11331 11341 0
-9479 11321 11341 0
9479 -11321 11331 0
9479 11311 -11341 0
9479 -11321 -11341 0
9480 -9481 0
9480 -11311 11321 0
-9480 -11321 9481 0
-9480 11311 9481 0
9481 -11331 11341 0
-9481 11331 0
-9481 -11341 0
9482 -9480 0
9482 -11291 11301 0
-9482 -11301 9480 0
-9482 11291 9480 0
9483 -9482 0
9483 -11271 11281 0
-9483 -11281 9482 0
-9483 11271 9482 0
9484 -9483 0
9484 -11251 11261 0
-9484 -11261 9483 0
-9484 11251 9483 0
9485 -9484 0
9485 -11231 11241 0
-9485 -11241 9484 0
-9485 11231 9484 0
9486 -9485 0
9486 -11211 11221 0
-9486 -11221 9485 0
-9486 11211 9485 0
9487 -9486 0
9487 -11191 11201 0
-9487 -11201 9486 0
-9487 11191 9486 0
9488 -9487 0
9488 -11171 11181 0
-9488 -11181 9487 0
-9488 11171 9487 0
9489 -9488 0
9489 -11151 11161 0
-9489 -11161 9488 0
-9489 11151 9488 0
9490 -9489 0
9490 -11131 11141 0
-9490 -11141 9489 0
-9490 11131 9489 0
9491 -9490 0
9491 -11111 11121 0
-9491 -11121 9490 0
-9491 11111 9490 0
9492 -9491 0
9492 -11091 11101 0
-9492 -11101 9491 0
-9492 11091 9491 0
9493 -9492 0
9493 -11071 11081 0
-9493 -11081 9492 0
-9493 11071 9492 0
9494 -9493 0
9494 -11051 11061 0
-9494 -11061 9493 0
-9494 11051 9493 0
9495 -9494 0
9495 -11031 11041 0
-9495 -11041 9494 0
-9495 11031 9494 0
9496 -9495 0
9496 -11011 11021 0
-9496 -11021 9495 0
-9496 11011 9495 0
9497 -9496 0
9497 -10991 11001 0
-9497 -11001 9496 0
-9497 10991 9496 0
9498 -9497 0
9498 -10971 10981 0
-9498 -10981 9497 0
-9498 10971 9497 0
9499 -9498 0
9499 -10951 10961 0
-9499 -10961 9498 0
-9499 10951 9498 0
9500 -9499 0
9500 -10931 10941 0
-9500 -10941 9499 0
-9500 10931 9499 0
9501 -9500 0
9501 -10911 10921 0
-9501 -10921 9500 0
-9501 10911 9500 0
9502 -9501 0
9502 -10891 10901 0
-9502 -10901 9501 0
-9502 10891 9501 0
9503 -9502 0
9503 -10871 10881 0
-9503 -10881 9502 0
-9503 10871 9502 0
9504 -9503 0
9504 -10850 10861 0
-9504 -10861 9503 0
-9504 10850 9503 0
9505 -9504 0
9505 -10828 10839 0
-9505 -10839 9504 0
-9505 10828 9504 0
9506 -9505 0
9506 -10806 10817 0
-9506 -10817 9505 0
-9506 10806 9505 0
9507 -9506 0
9507 -10784 10795 0
-9507 -10795 9506 0
-9507 10784 9506 0
9508 -9507 0
9508 -10745 10773 0
-9508 -10773 9507 0
-9508 10745 9507 0
9509 -9508 0
9509 -10689 10717 0
-9509 -10717 9508 0
-9509 10689 9508 0
9510 -9509 0
9510 -10633 10661 0
-9510 -10661 9509 0
-9510 10633 9509 0
9511 -9510 0
9511 -10585 10605 0
-9511 -10605 9510 0
-9511 10585 9510 0
9512 -9511 0
9512 -11530 11533 0
-9512 -11533 9511 0
-9512 11530 9511 0
9513 -9512 0
9513 -11524 11527 0
-9513 -11527 9512 0
-9513 11524 9512 0
9514 -9513 0
9514 -11518 11521 0
-9514 -11521 9513 0
-9514 11518 9513 0
9515 -9514 0
9515 -11512 11515 0
-9515 -11515 9514 0
-9515 11512 9514 0
9516 -9515 0
9516 -11506 11509 0
-9516 -11509 9515 0
-9516 11506 9515 0
9517 -9516 0
9517 -11500 11503 0
-9517 -11503 9516 0
-9517 11500 9516 0
9518 -9517 0
9518 -11494 11497 0
-9518 -11497 9517 0
-9518 11494 9517 0
9519 -9518 0
9519 -11488 11491 0
-9519 -11491 9518 0
-9519 11488 9518 0
9520 -9519 0
9520 -11482 11485 0
-9520 -11485 9519 0
-9520 11482 9519 0
9521 -9520 0
9521 -11476 11479 0
-9521 -11479 9520 0
-9521 11476 9520 0
9522 -9521 0
9522 -11470 11473 0
-9522 -11473 9521 0
-9522 11470 9521 0
9523 -9522 0
9523 -11464 11467 0
-9523 -11467 9522 0
-9523 11464 9522 0
9524 -9523 0
9524 -11458 11461 0
-9524 -11461 9523 0
-9524 11458 9523 0
9525 -9524 0
9525 -11452 11455 0
-9525 -11455 9524 0
-9525 11452 9524 0
9526 -9525 0
9526 -11446 11449 0
-9526 -11449 9525 0
-9526 11446 9525 0
9527 -9526 0
9527 -11440 11443 0
-9527 -11443 9526 0
-9527 11440 9526 0
9528 -9527 0
9528 -11434 11437 0
-9528 -11437 9527 0
-9528 11434 9527 0
9529 -9528 0
9529 -11428 11431 0
-9529 -11431 9528 0
-9529 11428 9528 0
9530 -9529 0
9530 -11422 11425 0
-9530 -11425 9529 0
-9530 11422 9529 0
9531 -9530 0
9531 -11416 11419 0
-9531 -11419 9530 0
-9531 11416 9530 0
9532 -9531 0
9532 -11410 11413 0
-9532 -11413 9531 0
-9532 11410 9531 0
9533 -9532 0
9533 -11404 11407 0
-9533 -11407 9532 0
-9533 11404 9532 0
9534 -9533 0
9534 -11398 11401 0
-9534 -11401 9533 0
-9534 11398 9533 0
9535 -9534 0
9535 -11392 11395 0
-9535 -11395 9534 0
-9535 11392 9534 0
9536 -9535 0
9536 -11386 11389 0
-9536 -11389 9535 0
-9536 11386 9535 0
9537 -9536 0
9537 -11380 11383 0
-9537 -11383 9536 0
-9537 11380 9536 0
9538 -9537 0
9538 -11374 11377 0
-9538 -11377 9537 0
-9538 11374 9537 0
9539 -9538 0
9539 -11368 11371 0
-9539 -11371 9538 0
-9539 11368 9538 0
9540 -9539 0
9540 -11362 11365 0
-9540 -11365 9539 0
-9540 11362 9539 0
9541 -9540 0
9541 -11356 11359 0
-9541 -11359 9540 0
-9541 11356 9540 0
9542 -9829 -10103 -10547 -9266 0
-9542 10547 0
-9542 9266 0
-9542 9829 0
-9542 10103 0
9543 -9962 -9974 -9975 0
-9543 9962 0
-9543 9974 0
-9543 9975 0
9544 -9995 9545 0
-9544 9995 0
-9544 -9545 0
-9545 9962 9974 9975 0
9545 -9962 0
9545 -9975 0
9545 -9974 0
9546 -6674 -6704 -6717 0
-9546 6717 0
-9546 6704 0
-9546 6674 0
9547 -13015 -369 -6745 0
-9547 13015 0
-9547 369 0
-9547 6745 0
9548 -13090 13091 -596 0
9548 -13090 13091 -6679 0
-9548 13090 0
-9548 -13091 0
-9548 596 6679 0
9549 13018 542 -6703 9550 0
-9549 -542 0
-9549 -9550 0
-9549 -13018 0
-9549 6703 0
9550 -13010 -13020 0
-9550 13010 0
-9550 13020 0
9551 -13018 13019 -369 542 0
-9551 -542 0
-9551 369 0
-9551 13018 0
-9551 -13019 0
9552 13016 -6679 -9553 0
9552 -13017 -6679 -9553 0
-9552 9553 0
-9552 6679 0
-9552 -13016 13017 0
9553 -13018 13019 0
-9553 13018 0
-9553 -13019 0
9554 -13094 0
9554 -13093 -9557 0
9554 -9555 -9557 0
-9554 13094 9557 0
-9554 13093 13094 9555 0
9555 -13097 -13098 0
9555 -13098 -9556 0
-9555 13098 0
-9555 13097 9556 0
-9556 13095 13096 13099 0
9556 -13095 0
9556 -13099 0
9556 -13096 0
-9557 13098 9556 0
-9557 13097 13098 0
9557 -13098 0
9557 -13097 -9556 0
9558 -13010 -13020 -6684 0
-9558 13010 0
-9558 13020 0
-9558 6684 0
9559 -596 -6685 -9560 0
9559 -596 -6687 -9560 0
-9559 9560 0
-9559 596 0
-9559 6685 6687 0
9560 13086 -13087 13088 13089 0
-9560 13087 0
-9560 -13089 0
-9560 -13086 0
-9560 -13088 0
9561 -6745 -6939 0
9561 -6709 -9562 0
9561 -6709 -6939 0
9561 -6745 -9562 0
-9561 6939 9562 0
-9561 6709 6745 0
-9562 6921 6927 6933 9563 0
9562 -9563 0
9562 -6933 0
9562 -6921 0
9562 -6927 0
-9563 6903 6909 6915 9564 0
9563 -9564 0
9563 -6915 0
9563 -6903 0
9563 -6909 0
-9564 6891 6897 9565 0
9564 -9565 0
9564 -6897 0
9564 -6891 0
-9565 6873 6879 6885 9566 0
9565 -9566 0
9565 -6885 0
9565 -6873 0
9565 -6879 0
-9566 6861 6867 9567 0
9566 -9567 0
9566 -6867 0
9566 -6861 0
-9567 6843 6849 6855 9568 0
9567 -9568 0
9567 -6855 0
9567 -6843 0
9567 -6849 0
-9568 6825 6831 6837 9569 0
9568 -9569 0
9568 -6837 0
9568 -6825 0
9568 -6831 0
-9569 6813 6819 9570 0
9569 -9570 0
9569 -6819 0
9569 -6813 0
-9570 6801 6807 9571 0
9570 -9571 0
9570 -6807 0
9570 -6801 0
-9571 6789 6795 9572 0
9571 -9572 0
9571 -6795 0
9571 -6789 0
-9572 6777 6783 9573 0
9572 -9573 0
9572 -6783 0
9572 -6777 0
-9573 6765 6771 9574 0
9573 -9574 0
9573 -6771 0
9573 -6765 0
-9574 6753 6759 0
9574 -6753 0
9574 -6759 0
9575 13010 -13020 -13021 -9576 0
-9575 -13010 0
-9575 9576 0
-9575 13021 0
-9575 13020 0
-9576 13022 0
-9576 -13025 0
-9576 -13023 0
9576 -13022 13023 13025 0
9577 -13021 -6679 -9553 -9576 0
-9577 9553 0
-9577 9576 0
-9577 13021 0
-9577 6679 0
9578 -9579 -9581 0
9578 -13018 -6679 -9581 0
9578 13018 6679 -9581 0
-9578 9581 0
-9578 13018 -6679 9579 0
-9578 -13018 6679 9579 0
9579 544 -9580 0
9579 -544 9580 0
-9579 -544 -9580 0
-9579 544 9580 0
9580 -13018 -13019 0
-9580 13018 0
-9580 13019 0
9581 13016 -6695 0
-9581 -13016 0
-9581 6695 0
9582 -9818 -9581 0
9582 370 -9581 0
9582 -9581 -9583 0
-9582 9581 0
-9582 9818 -370 9583 0
9583 -13016 -13017 0
-9583 13016 0
-9583 13017 0
9584 -13100 -13102 -6679 0
9584 -13101 -13102 -6679 0
-9584 6679 0
-9584 13102 0
-9584 13100 13101 0
9585 13092 -6684 0
-9585 -13092 0
-9585 6684 0
-9586 9587 -9593 0
-9586 14193 9594 0
-9586 14193 9587 0
9586 -9587 -9594 0
9586 -14193 9593 0
9586 -14193 -9587 0
-9587 -9588 -9589 9591 0
-9587 9588 9589 9591 0
9587 -9591 0
9587 -9588 9589 0
9587 9588 -9589 0
9588 14193 -14195 0
9588 -14193 14195 0
-9588 -14193 -14195 0
-9588 14193 14195 0
9589 10002 -10112 -9590 0
-9589 -10002 0
-9589 10112 0
-9589 9590 0
-9590 14193 14194 14195 0
9590 -14193 0
9590 -14195 0
9590 -14194 0
9591 -10002 -10112 -9592 0
-9591 10002 0
-9591 10112 0
-9591 9592 0
9592 14193 -14194 14195 0
-9592 -14193 0
-9592 14194 0
-9592 -14195 0
-9593 10112 -9592 0
-9593 10002 10112 0
-9593 10002 9590 0
-9593 -10002 -10112 -9590 0
9593 10002 -10112 -9590 0
9593 -10002 10112 9592 0
9593 -10002 -10112 9590 0
-9594 9591 9593 0
9594 -9591 0
9594 -9593 0
-9595 -9593 9596 0
-9595 14194 9593 0
-9595 -9591 9596 0
9595 -9593 -9596 0
9595 -14194 9591 9593 0
9595 -14194 -9596 0
9596 9591 -9597 0
-9596 -9591 0
-9596 9597 0
9597 -14193 -14194 -9589 0
9597 -14193 14194 -14195 9589 0
9597 14193 -14194 -14195 0
9597 -14194 14195 9589 0
-9597 14194 14195 0
-9597 14193 14194 0
-9597 14193 14195 -9589 0
-9597 14194 -9589 0
-9597 -14193 -14194 -14195 9589 0
-9598 14195 9594 0
-9598 -14195 -9594 0
9598 -14195 9594 0
9598 14195 -9594 0
9599 -10002 -9592 0
-9599 10002 0
-9599 9592 0
9600 -10112 9590 0
-9600 10112 0
-9600 -9590 0
-14201 0
13103 0
14093 0
14095 0
14097 0
14136 0
14137 0
14148 0
14150 0
14152 0
14154 0
14156 0
14196 0
14198 0
13112 0
13113 0
13165 0
13166 0
13234 0
13273 0
13274 0
13275 0
13282 0
13283 0
13284 0
13291 0
13292 0
13293 0
13297 0
13298 0
13300 0
13301 0
13311 0
13933 0
13934 0
13935 0
13939 0
13940 0
13942 0
13946 0
13947 0
13949 0
13953 0
13954 0
13956 0
14024 0
14092 0
14158 0
14159 0
14160 0
14161 0
14162 0
14163 0
14164 0
14165 0
14166 0
14167 0
14168 0
14169 0
14170 0
14171 0
14172 0
14173 0
14174 0
14175 0
14176 0
14177 0
14178 0
14179 0
14180 0
14181 0
14182 0
14183 0
14184 0
14185 0
14186 0
14187 0
14188 0
14189 0
14190 0
14191 0
14192 0
14197 0
14199 0
14201 0
2 0
40 0
46 0
76 0
87 0
-160 0
162 0
163 0
165 0
167 0
169 0
171 0
173 0
175 0
177 0
179 0
181 0
183 0
185 0
187 0
189 0
191 0
193 0
195 0
197 0
199 0
201 0
203 0
205 0
207 0
209 0
211 0
213 0
215 0
217 0
219 0
221 0
223 0
229 0
230 0
231 0
232 0
233 0
234 0
236 0
237 0
238 0
243 0
244 0
245 0
254 0
259 0
264 0
269 0
275 0
276 0
281 0
282 0
284 0
288 0
290 0
291 0
292 0
294 0
298 0
300 0
301 0
303 0
305 0
308 0
310 0
313 0
315 0
318 0
320 0
405 0
406 0
407 0
408 0
409 0
410 0
411 0
412 0
413 0
414 0
422 0
423 0
424 0
425 0
426 0
427 0
428 0
429 0
430 0
431 0
439 0
440 0
441 0
442 0
443 0
444 0
445 0
446 0
447 0
448 0
456 0
457 0
458 0
459 0
460 0
461 0
462 0
463 0
464 0
465 0
473 0
474 0
475 0
476 0
477 0
478 0
479 0
480 0
481 0
482 0
490 0
491 0
492 0
493 0
494 0
495 0
496 0
497 0
498 0
499 0
507 0
512 0
-547 0
-548 0
-549 0
550 0
563 0
568 0
569 0
570 0
571 0
572 0
579 0
557 0
553 0
582 0
592 0
601 0
605 0
607 0
610 0
613 0
614 0
615 0
616 0
617 0
618 0
619 0
620 0
621 0
622 0
623 0
386 0
383 0
631 0
325 0
643 0
644 0
645 0
647 0
651 0
653 0
660 0
661 0
662 0
664 0
668 0
670 0
672 0
674 0
677 0
679 0
682 0
684 0
687 0
689 0
709 0
710 0
711 0
712 0
713 0
714 0
715 0
716 0
717 0
725 0
726 0
727 0
728 0
729 0
730 0
731 0
732 0
733 0
741 0
742 0
743 0
744 0
745 0
746 0
747 0
748 0
749 0
757 0
758 0
759 0
760 0
761 0
762 0
763 0
764 0
765 0
773 0
774 0
775 0
776 0
777 0
778 0
779 0
780 0
781 0
789 0
790 0
791 0
792 0
793 0
794 0
795 0
796 0
797 0
805 0
811 0
812 0
813 0
814 0
815 0
816 0
817 0
818 0
819 0
820 0
821 0
822 0
823 0
824 0
825 0
826 0
827 0
828 0
829 0
830 0
831 0
832 0
833 0
834 0
835 0
836 0
837 0
838 0
839 0
840 0
852 0
856 0
870 0
871 0
872 0
873 0
874 0
875 0
876 0
877 0
878 0
915 0
916 0
922 0
924 0
932 0
943 0
967 0
978 0
986 0
111 0
107 0
104 0
103 0
101 0
100 0
97 0
235 0
994 0
995 0
997 0
998 0
1000 0
1002 0
1004 0
1006 0
1008 0
1009 0
1010 0
1011 0
1012 0
1013 0
1014 0
1015 0
1016 0
1017 0
1018 0
1019 0
1020 0
1021 0
1022 0
1023 0
1024 0
1025 0
1026 0
1027 0
1028 0
1029 0
1030 0
1031 0
1032 0
1033 0
1034 0
1035 0
1036 0
1037 0
1038 0
1039 0
1040 0
1041 0
1042 0
1043 0
1044 0
1045 0
1046 0
1047 0
1048 0
1049 0
1050 0
1051 0
1052 0
1053 0
1054 0
1055 0
1056 0
1057 0
1058 0
1059 0
1060 0
1061 0
1062 0
1063 0
1064 0
1065 0
1066 0
1067 0
1068 0
1069 0
1070 0
1071 0
1072 0
1073 0
1074 0
1075 0
1076 0
1077 0
1078 0
1079 0
1080 0
1081 0
1082 0
1083 0
1084 0
1085 0
1086 0
1087 0
1088 0
1089 0
1090 0
1091 0
1092 0
1093 0
1094 0
1095 0
1096 0
1097 0
1098 0
1099 0
1100 0
1101 0
1102 0
1103 0
1104 0
1105 0
1106 0
1107 0
1108 0
1109 0
1110 0
1111 0
1112 0
1113 0
1114 0
1115 0
1116 0
1117 0
1118 0
1119 0
1120 0
1121 0
1122 0
1123 0
1124 0
1125 0
1126 0
1127 0
1128 0
1129 0
1130 0
1131 0
1132 0
1133 0
1134 0
1135 0
1136 0
1138 0
1139 0
1141 0
1149 0
1150 0
1151 0
1152 0
1159 0
1160 0
1161 0
1162 0
1169 0
1170 0
1171 0
1172 0
1179 0
1180 0
1181 0
1182 0
1189 0
1190 0
1191 0
1192 0
1199 0
1200 0
1201 0
1202 0
1209 0
1210 0
1211 0
1212 0
1219 0
1220 0
1221 0
1222 0
1229 0
1230 0
1231 0
1232 0
1239 0
1240 0
1241 0
1242 0
1249 0
1250 0
1251 0
1252 0
1259 0
1260 0
1261 0
1262 0
1269 0
1270 0
1271 0
1272 0
1279 0
1280 0
1281 0
1282 0
1289 0
1290 0
1291 0
1292 0
1299 0
1300 0
1301 0
1302 0
1309 0
1310 0
1311 0
1312 0
1319 0
1320 0
1321 0
1322 0
1329 0
1330 0
1331 0
1332 0
1339 0
1340 0
1341 0
1342 0
1349 0
1350 0
1351 0
1352 0
1359 0
1360 0
1361 0
1362 0
1369 0
1370 0
1371 0
1372 0
1379 0
1380 0
1381 0
1382 0
1389 0
1390 0
1391 0
1392 0
1399 0
1400 0
1401 0
1402 0
1409 0
1410 0
1411 0
1412 0
1419 0
1420 0
1421 0
1422 0
1429 0
1430 0
1431 0
1432 0
1439 0
1440 0
1441 0
1442 0
1449 0
1450 0
1451 0
1452 0
1459 0
1460 0
1461 0
1462 0
1469 0
1470 0
1471 0
1472 0
1479 0
1480 0
1481 0
1482 0
1489 0
1490 0
1491 0
1492 0
1499 0
1500 0
1501 0
1502 0
1509 0
1510 0
1511 0
1512 0
1519 0
1520 0
1521 0
1522 0
1529 0
1530 0
1531 0
1532 0
1539 0
1540 0
1541 0
1542 0
1549 0
1550 0
1551 0
1552 0
1559 0
1560 0
1561 0
1562 0
1569 0
1570 0
1571 0
1572 0
1579 0
1580 0
1581 0
1582 0
1589 0
1590 0
1591 0
1592 0
1599 0
1600 0
1601 0
1602 0
1609 0
1610 0
1611 0
1612 0
1619 0
1620 0
1621 0
1622 0
1629 0
1630 0
1631 0
1632 0
1639 0
1640 0
1641 0
1642 0
1649 0
1650 0
1651 0
1652 0
1659 0
1660 0
1661 0
1662 0
1669 0
1670 0
1671 0
1672 0
1679 0
1680 0
1681 0
1682 0
1689 0
1690 0
1691 0
1692 0
1699 0
1700 0
1701 0
1702 0
1709 0
1710 0
1711 0
1712 0
1719 0
1720 0
1721 0
1722 0
1729 0
1730 0
1731 0
1732 0
1739 0
1740 0
1741 0
1742 0
1749 0
1750 0
1751 0
1752 0
1759 0
1760 0
1761 0
1762 0
1769 0
1770 0
1771 0
1772 0
1779 0
1780 0
1781 0
1782 0
1783 0
1784 0
1785 0
1786 0
1787 0
1788 0
1789 0
1790 0
1791 0
1792 0
1793 0
1794 0
1795 0
1796 0
1797 0
1798 0
1799 0
1800 0
1801 0
1802 0
-1803 0
-1806 0
1808 0
1811 0
1813 0
1816 0
1817 0
1818 0
1819 0
1820 0
1821 0
1822 0
1823 0
1825 0
1826 0
1827 0
1828 0
1829 0
1830 0
1831 0
1832 0
1844 0
1845 0
1846 0
1847 0
1848 0
1849 0
1850 0
1851 0
1852 0
1860 0
1861 0
1862 0
1863 0
1864 0
1865 0
1866 0
1867 0
1868 0
1877 0
1894 0
1895 0
1896 0
1897 0
1898 0
1899 0
1900 0
1901 0
1902 0
1903 0
1911 0
1912 0
1913 0
1914 0
1915 0
1916 0
1917 0
1918 0
1919 0
1927 0
1930 0
1932 0
1933 0
1934 0
1935 0
1936 0
1937 0
1938 0
1939 0
1947 0
1948 0
1949 0
1950 0
1951 0
1952 0
1953 0
1954 0
1955 0
1963 0
1964 0
1965 0
1966 0
1967 0
1968 0
1969 0
1970 0
1971 0
1979 0
1982 0
1984 0
1985 0
1986 0
1987 0
1988 0
1989 0
1990 0
1991 0
1999 0
2000 0
2001 0
2002 0
2003 0
2004 0
2005 0
2006 0
2007 0
2015 0
2016 0
2017 0
2018 0
2019 0
2020 0
2021 0
2022 0
2023 0
2031 0
2034 0
2036 0
2037 0
2038 0
2039 0
2040 0
2041 0
2042 0
2043 0
2051 0
2052 0
2053 0
2054 0
2055 0
2056 0
2057 0
2058 0
2059 0
2067 0
2068 0
2069 0
2070 0
2071 0
2072 0
2073 0
2074 0
2075 0
2083 0
2086 0
2088 0
2089 0
2090 0
2091 0
2092 0
2093 0
2094 0
2095 0
2103 0
2104 0
2105 0
2106 0
2107 0
2108 0
2109 0
2110 0
2111 0
2119 0
2120 0
2121 0
2122 0
2123 0
2124 0
2125 0
2126 0
2127 0
2135 0
2138 0
2140 0
2141 0
2142 0
2143 0
2144 0
2145 0
2146 0
2147 0
2155 0
2156 0
2157 0
2158 0
2159 0
2160 0
2161 0
2162 0
2163 0
2171 0
2172 0
2173 0
2174 0
2175 0
2176 0
2177 0
2178 0
2179 0
2187 0
2190 0
2192 0
2193 0
2194 0
2195 0
2196 0
2197 0
2198 0
2199 0
2207 0
2208 0
2209 0
2210 0
2211 0
2212 0
2213 0
2214 0
2215 0
2223 0
2224 0
2225 0
2226 0
2227 0
2228 0
2229 0
2230 0
2231 0
2239 0
2242 0
2244 0
2245 0
2246 0
2247 0
2248 0
2249 0
2250 0
2251 0
2259 0
2260 0
2263 0
2265 0
2266 0
2267 0
2268 0
2269 0
2270 0
2271 0
2272 0
2280 0
2281 0
2284 0
2286 0
2287 0
2288 0
2289 0
2290 0
2291 0
2292 0
2293 0
2301 0
2302 0
2305 0
2307 0
2308 0
2309 0
2310 0
2311 0
2312 0
2313 0
2314 0
2322 0
2323 0
2326 0
2328 0
2329 0
2330 0
2331 0
2332 0
2333 0
2334 0
2335 0
2343 0
2344 0
2347 0
2349 0
2350 0
2351 0
2352 0
2353 0
2354 0
2355 0
2356 0
2364 0
2365 0
2368 0
2370 0
2371 0
2372 0
2373 0
2374 0
2375 0
2376 0
2377 0
2385 0
2386 0
2389 0
2391 0
2392 0
2393 0
2394 0
2395 0
2396 0
2397 0
2398 0
2406 0
2407 0
2410 0
2412 0
2413 0
2414 0
2415 0
2416 0
2417 0
2418 0
2419 0
2427 0
2430 0
2432 0
2433 0
2434 0
2435 0
2436 0
2437 0
2438 0
2439 0
2447 0
2449 0
2451 0
2452 0
2453 0
2454 0
2455 0
2456 0
2457 0
2458 0
2466 0
2468 0
2470 0
2471 0
2472 0
2473 0
2474 0
2475 0
2476 0
2477 0
2485 0
2487 0
2489 0
2490 0
2491 0
2492 0
2493 0
2494 0
2495 0
2496 0
2504 0
2506 0
2508 0
2509 0
2510 0
2511 0
2512 0
2513 0
2514 0
2515 0
2523 0
2525 0
2527 0
2528 0
2529 0
2530 0
2531 0
2532 0
2533 0
2534 0
2542 0
2544 0
2546 0
2547 0
2548 0
2549 0
2550 0
2551 0
2552 0
2553 0
2561 0
2563 0
2565 0
2566 0
2567 0
2568 0
2569 0
2570 0
2571 0
2572 0
2580 0
2583 0
2585 0
2586 0
2587 0
2588 0
2589 0
2590 0
2591 0
2592 0
2600 0
2602 0
2604 0
2605 0
2606 0
2607 0
2608 0
2609 0
2610 0
2611 0
2619 0
2621 0
2623 0
2624 0
2625 0
2626 0
2627 0
2628 0
2629 0
2630 0
2638 0
2640 0
2642 0
2643 0
2644 0
2645 0
2646 0
2647 0
2648 0
2649 0
2657 0
2659 0
2661 0
2662 0
2663 0
2664 0
2665 0
2666 0
2667 0
2668 0
2676 0
2678 0
2680 0
2681 0
2682 0
2683 0
2684 0
2685 0
2686 0
2687 0
2695 0
2697 0
2699 0
2700 0
2701 0
2702 0
2703 0
2704 0
2705 0
2706 0
2714 0
2716 0
2718 0
2719 0
2720 0
2721 0
2722 0
2723 0
2724 0
2725 0
2733 0
2736 0
2738 0
2739 0
2740 0
2741 0
2742 0
2743 0
2744 0
2745 0
2753 0
2755 0
2757 0
2758 0
2759 0
2760 0
2761 0
2762 0
2763 0
2764 0
2772 0
2774 0
2776 0
2777 0
2778 0
2779 0
2780 0
2781 0
2782 0
2783 0
2791 0
2793 0
2795 0
2796 0
2797 0
2798 0
2799 0
2800 0
2801 0
2802 0
2810 0
2812 0
2814 0
2815 0
2816 0
2817 0
2818 0
2819 0
2820 0
2821 0
2829 0
2831 0
2833 0
2834 0
2835 0
2836 0
2837 0
2838 0
2839 0
2840 0
2848 0
2850 0
2852 0
2853 0
2854 0
2855 0
2856 0
2857 0
2858 0
2859 0
2867 0
2869 0
2871 0
2872 0
2873 0
2874 0
2875 0
2876 0
2877 0
2878 0
2886 0
2889 0
2891 0
2892 0
2893 0
2894 0
2895 0
2896 0
2897 0
2898 0
2906 0
2908 0
2910 0
2911 0
2912 0
2913 0
2914 0
2915 0
2916 0
2917 0
2925 0
2927 0
2929 0
2930 0
2931 0
2932 0
2933 0
2934 0
2935 0
2936 0
2944 0
2946 0
2948 0
2949 0
2950 0
2951 0
2952 0
2953 0
2954 0
2955 0
2963 0
2965 0
2967 0
2968 0
2969 0
2970 0
2971 0
2972 0
2973 0
2974 0
2982 0
2984 0
2986 0
2987 0
2988 0
2989 0
2990 0
2991 0
2992 0
2993 0
3001 0
3003 0
3005 0
3006 0
3007 0
3008 0
3009 0
3010 0
3011 0
3012 0
3020 0
3022 0
3024 0
3025 0
3026 0
3027 0
3028 0
3029 0
3030 0
3031 0
3039 0
3042 0
3044 0
3045 0
3046 0
3047 0
3048 0
3049 0
3050 0
3051 0
3059 0
3061 0
3063 0
3064 0
3065 0
3066 0
3067 0
3068 0
3069 0
3070 0
3078 0
3080 0
3082 0
3083 0
3084 0
3085 0
3086 0
3087 0
3088 0
3089 0
3097 0
3099 0
3101 0
3102 0
3103 0
3104 0
3105 0
3106 0
3107 0
3108 0
3116 0
3118 0
3120 0
3121 0
3122 0
3123 0
3124 0
3125 0
3126 0
3127 0
3135 0
3137 0
3139 0
3140 0
3141 0
3142 0
3143 0
3144 0
3145 0
3146 0
3154 0
3156 0
3158 0
3159 0
3160 0
3161 0
3162 0
3163 0
3164 0
3165 0
3173 0
3175 0
3177 0
3178 0
3179 0
3180 0
3181 0
3182 0
3183 0
3184 0
3192 0
3195 0
3197 0
3198 0
3199 0
3200 0
3201 0
3202 0
3203 0
3204 0
3212 0
3214 0
3216 0
3217 0
3218 0
3219 0
3220 0
3221 0
3222 0
3223 0
3231 0
3233 0
3235 0
3236 0
3237 0
3238 0
3239 0
3240 0
3241 0
3242 0
3250 0
3252 0
3254 0
3255 0
3256 0
3257 0
3258 0
3259 0
3260 0
3261 0
3269 0
3271 0
3273 0
3274 0
3275 0
3276 0
3277 0
3278 0
3279 0
3280 0
3288 0
3290 0
3292 0
3293 0
3294 0
3295 0
3296 0
3297 0
3298 0
3299 0
3307 0
3309 0
3311 0
3312 0
3313 0
3314 0
3315 0
3316 0
3317 0
3318 0
3326 0
3328 0
3329 0
3331 0
3339 0
3340 0
3341 0
3345 0
3346 0
3347 0
3351 0
3352 0
3353 0
3357 0
3358 0
3359 0
3363 0
3364 0
3365 0
3369 0
3370 0
3371 0
3375 0
3376 0
3377 0
3381 0
3382 0
3383 0
3388 0
3389 0
3390 0
3394 0
3395 0
3396 0
3400 0
3401 0
3402 0
3406 0
3407 0
3408 0
3412 0
3413 0
3414 0
3418 0
3419 0
3420 0
3424 0
3425 0
3426 0
3430 0
3431 0
3432 0
3437 0
3438 0
3439 0
3443 0
3444 0
3445 0
3449 0
3450 0
3451 0
3455 0
3456 0
3457 0
3461 0
3462 0
3463 0
3467 0
3468 0
3469 0
3473 0
3474 0
3475 0
3479 0
3480 0
3481 0
3486 0
3487 0
3488 0
3492 0
3493 0
3494 0
3498 0
3499 0
3500 0
3504 0
3505 0
3506 0
3510 0
3511 0
3512 0
3516 0
3517 0
3518 0
3522 0
3523 0
3524 0
3528 0
3529 0
3530 0
3535 0
3536 0
3537 0
3541 0
3542 0
3543 0
3547 0
3548 0
3549 0
3553 0
3554 0
3555 0
3559 0
3560 0
3561 0
3565 0
3566 0
3567 0
3571 0
3572 0
3573 0
3577 0
3578 0
3579 0
3584 0
3585 0
3586 0
3590 0
3591 0
3592 0
3596 0
3597 0
3598 0
3602 0
3603 0
3604 0
3608 0
3609 0
3610 0
3614 0
3615 0
3616 0
3620 0
3621 0
3622 0
3626 0
3627 0
3628 0
3633 0
3634 0
3635 0
3639 0
3640 0
3641 0
3645 0
3646 0
3647 0
3651 0
3652 0
3653 0
3657 0
3658 0
3659 0
3663 0
3664 0
3665 0
3669 0
3670 0
3671 0
3675 0
3676 0
3677 0
3682 0
3683 0
3684 0
3688 0
3689 0
3690 0
3694 0
3695 0
3696 0
3700 0
3701 0
3702 0
3706 0
3707 0
3708 0
3712 0
3713 0
3714 0
3718 0
3719 0
3720 0
3724 0
3725 0
3726 0
3727 0
3728 0
3729 0
3730 0
3731 0
3732 0
3733 0
3734 0
3742 0
3743 0
3744 0
3745 0
3746 0
3747 0
3748 0
3749 0
3750 0
3758 0
3759 0
3760 0
3761 0
3762 0
3763 0
3764 0
3765 0
3766 0
3774 0
3775 0
3776 0
3777 0
3778 0
3779 0
3780 0
3781 0
3782 0
3790 0
3791 0
3792 0
3793 0
3794 0
3795 0
3796 0
3797 0
3798 0
3806 0
3807 0
3808 0
3809 0
3810 0
3811 0
3812 0
3813 0
3814 0
3822 0
3823 0
3824 0
3825 0
3826 0
3827 0
3828 0
3829 0
3830 0
3838 0
3839 0
3840 0
3841 0
3842 0
3843 0
3844 0
3845 0
3846 0
3854 0
3855 0
3856 0
3857 0
3858 0
3859 0
3860 0
3861 0
3862 0
3870 0
3871 0
3872 0
3873 0
3874 0
3875 0
3876 0
3877 0
3878 0
3886 0
3887 0
3888 0
3889 0
3890 0
3891 0
3892 0
3893 0
3894 0
3902 0
3903 0
3904 0
3905 0
3906 0
3907 0
3908 0
3909 0
3910 0
3918 0
3919 0
3920 0
3921 0
3922 0
3923 0
3924 0
3925 0
3926 0
3934 0
3935 0
3936 0
3937 0
3938 0
3939 0
3940 0
3941 0
3942 0
3950 0
3951 0
3952 0
3953 0
3954 0
3955 0
3956 0
3957 0
3958 0
3966 0
3967 0
3968 0
3969 0
3970 0
3971 0
3972 0
3973 0
3974 0
3982 0
3983 0
3984 0
3985 0
3986 0
3987 0
3988 0
3989 0
3990 0
3998 0
3999 0
4000 0
4001 0
4002 0
4003 0
4004 0
4005 0
4006 0
4014 0
4015 0
4016 0
4017 0
4018 0
4019 0
4020 0
4021 0
4022 0
4030 0
4031 0
4032 0
4033 0
4034 0
4035 0
4036 0
4037 0
4038 0
4046 0
4047 0
4048 0
4049 0
4050 0
4051 0
4052 0
4053 0
4054 0
4062 0
4063 0
4064 0
4065 0
4066 0
4067 0
4068 0
4069 0
4070 0
4078 0
4079 0
4080 0
4081 0
4082 0
4083 0
4084 0
4085 0
4086 0
4094 0
4095 0
4096 0
4097 0
4098 0
4099 0
4100 0
4101 0
4102 0
4110 0
4111 0
4112 0
4113 0
4114 0
4115 0
4116 0
4117 0
4118 0
4126 0
4127 0
4128 0
4129 0
4130 0
4131 0
4132 0
4133 0
4134 0
4142 0
4143 0
4144 0
4145 0
4146 0
4147 0
4148 0
4149 0
4150 0
4158 0
4159 0
4160 0
4161 0
4162 0
4163 0
4164 0
4165 0
4166 0
4174 0
4175 0
4176 0
4177 0
4178 0
4179 0
4180 0
4181 0
4182 0
4190 0
4191 0
4192 0
4193 0
4194 0
4195 0
4196 0
4197 0
4198 0
4206 0
4207 0
4208 0
4209 0
4210 0
4211 0
4212 0
4213 0
4214 0
4222 0
4223 0
4224 0
4225 0
4226 0
4227 0
4228 0
4229 0
4230 0
4238 0
4239 0
4240 0
4241 0
4242 0
4243 0
4244 0
4245 0
4246 0
4254 0
4255 0
4256 0
4257 0
4258 0
4259 0
4260 0
4261 0
4262 0
4270 0
4271 0
4272 0
4273 0
4274 0
4275 0
4276 0
4277 0
4278 0
4286 0
4287 0
4288 0
4289 0
4290 0
4291 0
4292 0
4293 0
4294 0
4302 0
4303 0
4304 0
4305 0
4306 0
4307 0
4308 0
4309 0
4310 0
4318 0
4319 0
4320 0
4321 0
4322 0
4323 0
4324 0
4325 0
4326 0
4334 0
4335 0
4336 0
4337 0
4338 0
4339 0
4340 0
4341 0
4342 0
4350 0
4351 0
4352 0
4353 0
4354 0
4355 0
4356 0
4357 0
4358 0
4366 0
4367 0
4368 0
4369 0
4370 0
4371 0
4372 0
4373 0
4374 0
4382 0
4383 0
4384 0
4385 0
4386 0
4387 0
4388 0
4389 0
4390 0
4398 0
4399 0
4400 0
4401 0
4402 0
4403 0
4404 0
4405 0
4406 0
4414 0
4415 0
4416 0
4417 0
4418 0
4419 0
4420 0
4421 0
4422 0
4430 0
4431 0
4432 0
4433 0
4434 0
4435 0
4436 0
4437 0
4438 0
4446 0
4447 0
4448 0
4449 0
4450 0
4451 0
4452 0
4453 0
4454 0
4462 0
4463 0
4464 0
4465 0
4466 0
4467 0
4468 0
4469 0
4470 0
4478 0
4479 0
4480 0
4481 0
4482 0
4483 0
4484 0
4485 0
4486 0
4494 0
4495 0
4496 0
4497 0
4498 0
4499 0
4500 0
4501 0
4502 0
4510 0
4511 0
4512 0
4513 0
4514 0
4515 0
4516 0
4517 0
4518 0
4526 0
4527 0
4528 0
4529 0
4530 0
4531 0
4532 0
4533 0
4534 0
4542 0
4543 0
4544 0
4545 0
4546 0
4547 0
4548 0
4549 0
4550 0
4558 0
4559 0
4560 0
4561 0
4562 0
4563 0
4564 0
4565 0
4566 0
4574 0
4575 0
4576 0
4577 0
4578 0
4579 0
4580 0
4581 0
4582 0
4590 0
4591 0
4592 0
4593 0
4594 0
4595 0
4596 0
4597 0
4598 0
4606 0
4607 0
4608 0
4609 0
4610 0
4611 0
4612 0
4613 0
4614 0
4622 0
4623 0
4624 0
4625 0
4626 0
4627 0
4628 0
4629 0
4630 0
4638 0
4639 0
4640 0
4641 0
4642 0
4643 0
4644 0
4645 0
4646 0
4654 0
4655 0
4656 0
4657 0
4658 0
4659 0
4660 0
4661 0
4662 0
4670 0
4671 0
4672 0
4673 0
4674 0
4675 0
4676 0
4677 0
4678 0
4686 0
4687 0
4688 0
4689 0
4690 0
4691 0
4692 0
4693 0
4694 0
4702 0
4703 0
4704 0
4705 0
4706 0
4707 0
4708 0
4709 0
4710 0
4718 0
4719 0
4720 0
4721 0
4722 0
4723 0
4724 0
4725 0
4726 0
4734 0
4735 0
4736 0
4737 0
4738 0
4739 0
4740 0
4741 0
4742 0
4750 0
4752 0
4753 0
4755 0
4757 0
4759 0
4761 0
4763 0
4765 0
4767 0
4769 0
4771 0
4773 0
4775 0
4777 0
4779 0
4781 0
4783 0
4785 0
4787 0
4789 0
4791 0
4793 0
4795 0
4797 0
4799 0
4801 0
4803 0
4805 0
4807 0
4809 0
4811 0
4813 0
4828 0
4830 0
4832 0
4834 0
4836 0
4838 0
4840 0
4842 0
4844 0
4846 0
4848 0
4850 0
4852 0
4854 0
4856 0
4858 0
4860 0
4862 0
4864 0
4866 0
4868 0
4870 0
4872 0
4874 0
4876 0
4878 0
4880 0
4882 0
4884 0
4886 0
4888 0
4890 0
4892 0
4894 0
4896 0
4898 0
4900 0
4902 0
4904 0
4906 0
4908 0
4910 0
4912 0
4914 0
4916 0
4918 0
4920 0
4922 0
4924 0
4926 0
4928 0
4930 0
4932 0
4934 0
4936 0
4938 0
4940 0
4942 0
4944 0
4946 0
4948 0
4950 0
4952 0
4954 0
4956 0
4957 0
4958 0
4959 0
4960 0
4961 0
4962 0
4963 0
4964 0
4965 0
4966 0
4967 0
4968 0
4969 0
4970 0
4971 0
4972 0
4973 0
4974 0
4975 0
4976 0
4977 0
4978 0
4979 0
4980 0
4981 0
4982 0
4983 0
4984 0
4985 0
4986 0
4987 0
4988 0
4989 0
4990 0
4991 0
4992 0
4993 0
4994 0
4995 0
4996 0
4997 0
4998 0
4999 0
5000 0
5001 0
5002 0
5003 0
5004 0
5005 0
5006 0
5007 0
5008 0
5009 0
5010 0
5011 0
5012 0
5013 0
5014 0
5015 0
5016 0
5017 0
5018 0
5019 0
5022 0
5023 0
5024 0
5025 0
5026 0
5027 0
5028 0
5029 0
5030 0
5031 0
5032 0
5033 0
5034 0
5035 0
5036 0
5037 0
5038 0
5039 0
5040 0
5041 0
5042 0
5043 0
5044 0
5045 0
5046 0
5047 0
5048 0
5049 0
5050 0
5051 0
5052 0
5053 0
5054 0
5055 0
5056 0
5057 0
5058 0
5059 0
5060 0
5061 0
5062 0
5063 0
5064 0
5065 0
5066 0
5067 0
5068 0
5069 0
5070 0
5071 0
5072 0
5073 0
5074 0
5075 0
5076 0
5077 0
5078 0
5079 0
5080 0
5081 0
5082 0
5083 0
5084 0
5085 0
5087 0
5088 0
5089 0
5090 0
5091 0
5092 0
5093 0
5094 0
5095 0
5096 0
5097 0
5098 0
5099 0
5100 0
5101 0
5102 0
5103 0
5104 0
5105 0
5106 0
5107 0
5108 0
5109 0
5110 0
5111 0
5112 0
5113 0
5114 0
5115 0
5116 0
5117 0
5118 0
5119 0
5120 0
5121 0
5122 0
5123 0
5124 0
5125 0
5126 0
5127 0
5128 0
5129 0
5130 0
5131 0
5132 0
5133 0
5134 0
5135 0
5136 0
5137 0
5138 0
5139 0
5140 0
5141 0
5142 0
5143 0
5144 0
5145 0
5146 0
5147 0
5148 0
5149 0
5150 0
5154 0
5155 0
5156 0
5157 0
5158 0
5159 0
5160 0
5161 0
5162 0
5163 0
5164 0
5165 0
5166 0
5167 0
5168 0
5169 0
5170 0
5171 0
5172 0
5173 0
5174 0
5175 0
5176 0
5177 0
5178 0
5179 0
5180 0
5181 0
5182 0
5183 0
5184 0
5185 0
5186 0
5187 0
5188 0
5189 0
5190 0
5191 0
5192 0
5193 0
5194 0
5195 0
5196 0
5197 0
5198 0
5199 0
5200 0
5201 0
5202 0
5203 0
5204 0
5205 0
5206 0
5207 0
5208 0
5209 0
5210 0
5211 0
5212 0
5213 0
5214 0
5215 0
5216 0
5217 0
5219 0
5220 0
5221 0
5222 0
5223 0
5224 0
5225 0
5226 0
5227 0
5228 0
5229 0
5230 0
5231 0
5232 0
5233 0
5234 0
5235 0
5236 0
5237 0
5238 0
5239 0
5240 0
5241 0
5242 0
5243 0
5244 0
5245 0
5246 0
5247 0
5248 0
5249 0
5250 0
5251 0
5252 0
5253 0
5254 0
5255 0
5256 0
5257 0
5258 0
5259 0
5260 0
5261 0
5262 0
5263 0
5264 0
5265 0
5266 0
5267 0
5268 0
5269 0
5270 0
5271 0
5272 0
5273 0
5274 0
5275 0
5276 0
5277 0
5278 0
5279 0
5280 0
5281 0
5282 0
5285 0
5286 0
5287 0
5288 0
5289 0
5290 0
5291 0
5292 0
5293 0
5294 0
5295 0
5296 0
5297 0
5298 0
5299 0
5300 0
5301 0
5302 0
5303 0
5304 0
5305 0
5306 0
5307 0
5308 0
5309 0
5310 0
5311 0
5312 0
5313 0
5314 0
5315 0
5316 0
5317 0
5318 0
5319 0
5320 0
5321 0
5322 0
5323 0
5324 0
5325 0
5326 0
5327 0
5328 0
5329 0
5330 0
5331 0
5332 0
5333 0
5334 0
5335 0
5336 0
5337 0
5338 0
5339 0
5340 0
5341 0
5342 0
5343 0
5344 0
5345 0
5346 0
5347 0
5348 0
5350 0
5351 0
5352 0
5353 0
5354 0
5355 0
5356 0
5357 0
5358 0
5359 0
5360 0
5361 0
5362 0
5363 0
5364 0
5365 0
5366 0
5367 0
5368 0
5369 0
5370 0
5371 0
5372 0
5373 0
5374 0
5375 0
5376 0
5377 0
5378 0
5379 0
5380 0
5381 0
5382 0
5383 0
5384 0
5385 0
5386 0
5387 0
5388 0
5389 0
5390 0
5391 0
5392 0
5393 0
5394 0
5395 0
5396 0
5397 0
5398 0
5399 0
5400 0
5401 0
5402 0
5403 0
5404 0
5405 0
5406 0
5407 0
5408 0
5409 0
5410 0
5411 0
5412 0
5413 0
5417 0
5418 0
5419 0
5420 0
5421 0
5422 0
5423 0
5424 0
5425 0
5426 0
5427 0
5428 0
5429 0
5430 0
5431 0
5432 0
5433 0
5434 0
5435 0
5436 0
5437 0
5438 0
5439 0
5440 0
5441 0
5442 0
5443 0
5444 0
5445 0
5446 0
5447 0
5448 0
5449 0
5450 0
5451 0
5452 0
5453 0
5454 0
5455 0
5456 0
5457 0
5458 0
5459 0
5460 0
5461 0
5462 0
5463 0
5464 0
5465 0
5466 0
5467 0
5468 0
5469 0
5470 0
5471 0
5472 0
5473 0
5474 0
5475 0
5476 0
5477 0
5478 0
5479 0
5480 0
5482 0
5483 0
5484 0
5485 0
5486 0
5487 0
5488 0
5489 0
5490 0
5491 0
5492 0
5493 0
5494 0
5495 0
5496 0
5497 0
5498 0
5499 0
5500 0
5501 0
5502 0
5503 0
5504 0
5505 0
5506 0
5507 0
5508 0
5509 0
5510 0
5511 0
5512 0
5513 0
5514 0
5515 0
5516 0
5517 0
5518 0
5519 0
5520 0
5521 0
5522 0
5523 0
5524 0
5525 0
5526 0
5527 0
5528 0
5529 0
5530 0
5531 0
5532 0
5533 0
5534 0
5535 0
5536 0
5537 0
5538 0
5539 0
5540 0
5541 0
5542 0
5543 0
5544 0
5545 0
5548 0
5549 0
5550 0
5551 0
5552 0
5553 0
5554 0
5555 0
5556 0
5557 0
5558 0
5559 0
5560 0
5561 0
5562 0
5563 0
5564 0
5565 0
5566 0
5567 0
5568 0
5569 0
5570 0
5571 0
5572 0
5573 0
5574 0
5575 0
5576 0
5577 0
5578 0
5579 0
5580 0
5581 0
5582 0
5583 0
5584 0
5585 0
5586 0
5587 0
5588 0
5589 0
5590 0
5591 0
5592 0
5593 0
5594 0
5595 0
5596 0
5597 0
5598 0
5599 0
5600 0
5601 0
5602 0
5603 0
5604 0
5605 0
5606 0
5607 0
5608 0
5609 0
5610 0
5611 0
5613 0
5614 0
5615 0
5616 0
5617 0
5618 0
5619 0
5620 0
5621 0
5622 0
5623 0
5624 0
5625 0
5626 0
5627 0
5628 0
5629 0
5630 0
5631 0
5632 0
5633 0
5634 0
5635 0
5636 0
5637 0
5638 0
5639 0
5640 0
5641 0
5642 0
5643 0
5644 0
5645 0
5646 0
5647 0
5648 0
5649 0
5650 0
5651 0
5652 0
5653 0
5654 0
5655 0
5656 0
5657 0
5658 0
5659 0
5660 0
5661 0
5662 0
5663 0
5664 0
5665 0
5666 0
5667 0
5668 0
5669 0
5670 0
5671 0
5672 0
5673 0
5674 0
5675 0
5676 0
5678 0
5680 0
5681 0
5683 0
5685 0
5687 0
5689 0
5691 0
5693 0
5695 0
5697 0
5699 0
5701 0
5703 0
5705 0
5707 0
5709 0
5711 0
5713 0
5715 0
5717 0
5719 0
5721 0
5723 0
5725 0
5727 0
5729 0
5731 0
5733 0
5735 0
5737 0
5739 0
5741 0
5788 0
5802 0
5816 0
5830 0
5844 0
5858 0
5872 0
5886 0
5900 0
5914 0
5928 0
5942 0
5956 0
5970 0
5984 0
5998 0
6012 0
6026 0
6040 0
6054 0
6068 0
6082 0
6096 0
6110 0
6124 0
6138 0
6152 0
6166 0
6180 0
6194 0
6208 0
6222 0
6236 0
6250 0
6264 0
6278 0
6292 0
6306 0
6320 0
6334 0
6348 0
6362 0
6376 0
6390 0
6404 0
6418 0
6432 0
6446 0
6460 0
6474 0
6488 0
6502 0
6516 0
6530 0
6544 0
6558 0
6572 0
6586 0
6600 0
6614 0
6628 0
6642 0
6656 0
-9995 0
6670 0
6673 0
6704 0
6717 0
6728 0
-9976 0
-596 0
371 0
-6679 0
544 0
6709 0
6743 0
6748 0
6752 0
6755 0
6758 0
6761 0
6764 0
6767 0
6770 0
6773 0
6776 0
6779 0
6782 0
6785 0
6788 0
6791 0
6794 0
6797 0
6800 0
6803 0
6806 0
6809 0
6812 0
6815 0
6818 0
6821 0
6824 0
6827 0
6830 0
6833 0
6836 0
6839 0
6842 0
6845 0
6848 0
6851 0
6854 0
6857 0
6860 0
6863 0
6866 0
6869 0
6872 0
6875 0
6878 0
6881 0
6884 0
6887 0
6890 0
6893 0
6896 0
6899 0
6902 0
6905 0
6908 0
6911 0
6914 0
6917 0
6920 0
6923 0
6926 0
6929 0
6932 0
6935 0
6938 0
6941 0
6943 0
6944 0
6945 0
6947 0
6948 0
6949 0
6951 0
14201 0
6953 0
6961 0
6964 0
6967 0
6970 0
6972 0
6974 0
6977 0
6980 0
-14201 0
6981 0
6984 0
6988 0
6994 0
121 0
6983 0
7005 0
7006 0
14201 0
7008 0
7067 0
7070 0
7075 0
7082 0
7083 0
7084 0
7085 0
7086 0
7087 0
7088 0
7089 0
7092 0
7097 0
7098 0
7099 0
7100 0
7101 0
7102 0
7103 0
7104 0
7107 0
7113 0
7118 0
7119 0
7120 0
7121 0
7122 0
7123 0
7124 0
7125 0
7127 0
7131 0
7136 0
7137 0
7138 0
7139 0
7140 0
7141 0
7142 0
7143 0
7145 0
7149 0
7154 0
7155 0
7156 0
7157 0
7158 0
7159 0
7160 0
7161 0
7164 0
7165 0
-7166 0
7167 0
-7168 0
-7170 0
-7171 0
-7172 0
-7173 0
-7174 0
-7175 0
-7176 0
-7177 0
-7178 0
-7179 0
-7180 0
-7181 0
-7182 0
-7183 0
-7184 0
-7185 0
-7186 0
-7187 0
-7188 0
-7189 0
-7190 0
-7191 0
-7192 0
-7193 0
-7194 0
-7195 0
-7196 0
-7197 0
-7198 0
-7199 0
-7200 0
-7201 0
-7202 0
7213 0
7216 0
7220 0
7224 0
7228 0
7232 0
7236 0
7240 0
7244 0
7248 0
7252 0
7256 0
7260 0
7264 0
7268 0
7272 0
7276 0
7280 0
7284 0
7288 0
7292 0
7296 0
7300 0
7304 0
7308 0
7312 0
7316 0
7320 0
7324 0
7328 0
7332 0
7336 0
7349 0
7350 0
7351 0
7353 0
7354 0
7355 0
7356 0
7357 0
7360 0
7362 0
7364 0
7366 0
7368 0
7370 0
7372 0
7374 0
7376 0
7378 0
7380 0
7382 0
7384 0
7386 0
7388 0
7390 0
7392 0
7394 0
7396 0
7398 0
7400 0
7402 0
7404 0
7406 0
7408 0
7410 0
7412 0
7414 0
7416 0
7418 0
7420 0
7421 0
7436 0
7445 0
7446 0
7454 0
7459 0
7464 0
7468 0
7469 0
14201 0
7470 0
7471 0
7472 0
7480 0
7485 0
7490 0
7494 0
7495 0
14201 0
7496 0
7500 0
7502 0
7503 0
7507 0
7508 0
7509 0
7510 0
7512 0
-120 0
7518 0
7528 0
7529 0
7530 0
7531 0
7532 0
7533 0
7534 0
7535 0
7536 0
7552 0
7557 0
7562 0
7566 0
7567 0
7569 0
7570 0
7572 0
7574 0
7576 0
7578 0
7580 0
7582 0
7584 0
7586 0
7588 0
7590 0
7592 0
7594 0
7596 0
7598 0
7600 0
7602 0
7604 0
7606 0
7608 0
7610 0
7612 0
7614 0
7616 0
7618 0
7620 0
7622 0
7624 0
7626 0
7628 0
7630 0
7633 0
7634 0
7637 0
7640 0
7643 0
7644 0
7647 0
7650 0
7654 0
7658 0
7662 0
7666 0
7670 0
7674 0
7678 0
7682 0
7686 0
7690 0
7694 0
7698 0
7702 0
7706 0
7710 0
7714 0
7746 0
7747 0
7748 0
7749 0
7750 0
7751 0
7752 0
7753 0
7754 0
7755 0
7756 0
7757 0
7758 0
7759 0
7760 0
7761 0
7762 0
7763 0
7781 0
7782 0
7783 0
7784 0
7785 0
7786 0
7787 0
7788 0
7789 0
7790 0
7791 0
7792 0
7793 0
7794 0
7795 0
7796 0
7797 0
7798 0
7816 0
7817 0
7818 0
7819 0
7820 0
7821 0
7822 0
7823 0
7824 0
7825 0
7826 0
7827 0
7828 0
7829 0
7830 0
7831 0
7832 0
7833 0
7851 0
7852 0
7853 0
7854 0
7855 0
7856 0
7857 0
7858 0
7859 0
7860 0
7861 0
7862 0
7863 0
7864 0
7865 0
7866 0
7867 0
7868 0
7886 0
7887 0
7888 0
7889 0
7890 0
7891 0
7892 0
7893 0
7894 0
7895 0
7896 0
7897 0
7898 0
7899 0
7900 0
7901 0
7902 0
7903 0
7921 0
7922 0
7923 0
7924 0
7925 0
7926 0
7927 0
7928 0
7929 0
7930 0
7931 0
7932 0
7933 0
7934 0
7935 0
7936 0
7937 0
7938 0
7956 0
7957 0
7958 0
7959 0
7960 0
7961 0
7962 0
7963 0
7964 0
7965 0
7966 0
7967 0
7968 0
7969 0
7970 0
7971 0
7972 0
7973 0
7991 0
7992 0
7993 0
7994 0
7995 0
7996 0
7997 0
7998 0
7999 0
8000 0
8001 0
8002 0
8003 0
8004 0
8005 0
8006 0
8007 0
8008 0
8026 0
8027 0
8028 0
8029 0
8030 0
8031 0
8032 0
8033 0
8034 0
8035 0
8036 0
8037 0
8038 0
8039 0
8040 0
8041 0
8042 0
8043 0
8061 0
8062 0
8063 0
8064 0
8065 0
8066 0
8067 0
8068 0
8069 0
8070 0
8071 0
8072 0
8073 0
8074 0
8075 0
8076 0
8077 0
8078 0
8096 0
8097 0
8098 0
8099 0
8100 0
8101 0
8102 0
8103 0
8104 0
8105 0
8106 0
8107 0
8108 0
8109 0
8110 0
8111 0
8112 0
8113 0
8131 0
8132 0
8133 0
8134 0
8135 0
8136 0
8137 0
8138 0
8139 0
8140 0
8141 0
8142 0
8143 0
8144 0
8145 0
8146 0
8147 0
8148 0
8166 0
8167 0
8168 0
8169 0
8170 0
8171 0
8172 0
8173 0
8174 0
8175 0
8176 0
8177 0
8178 0
8179 0
8180 0
8181 0
8182 0
8183 0
8201 0
8202 0
8203 0
8204 0
8205 0
8206 0
8207 0
8208 0
8209 0
8210 0
8211 0
8212 0
8213 0
8214 0
8215 0
8216 0
8217 0
8218 0
8236 0
8237 0
8238 0
8239 0
8240 0
8241 0
8242 0
8243 0
8244 0
8245 0
8246 0
8247 0
8248 0
8249 0
8250 0
8251 0
8252 0
8253 0
8271 0
8272 0
8273 0
8274 0
8275 0
8276 0
8277 0
8278 0
8279 0
8280 0
8281 0
8282 0
8283 0
8284 0
8285 0
8286 0
8287 0
8288 0
8306 0
8307 0
8308 0
8309 0
8310 0
8311 0
8312 0
8313 0
8314 0
8315 0
8316 0
8317 0
8318 0
8319 0
8320 0
8321 0
8322 0
8323 0
8341 0
8342 0
8343 0
8344 0
8345 0
8346 0
8347 0
8348 0
8349 0
8350 0
8351 0
8352 0
8353 0
8354 0
8355 0
8356 0
8357 0
8358 0
8376 0
8377 0
8378 0
8379 0
8380 0
8381 0
8382 0
8383 0
8384 0
8385 0
8386 0
8387 0
8388 0
8389 0
8390 0
8391 0
8392 0
8393 0
8411 0
8412 0
8413 0
8414 0
8415 0
8416 0
8417 0
8418 0
8419 0
8420 0
8421 0
8422 0
8423 0
8424 0
8425 0
8426 0
8427 0
8428 0
8446 0
8447 0
8448 0
8449 0
8450 0
8451 0
8452 0
8453 0
8454 0
8455 0
8456 0
8457 0
8458 0
8459 0
8460 0
8461 0
8462 0
8463 0
8481 0
8482 0
8483 0
8484 0
8485 0
8486 0
8487 0
8488 0
8489 0
8490 0
8491 0
8492 0
8493 0
8494 0
8495 0
8496 0
8497 0
8498 0
8516 0
8517 0
8518 0
8519 0
8520 0
8521 0
8522 0
8523 0
8524 0
8525 0
8526 0
8527 0
8528 0
8529 0
8530 0
8531 0
8532 0
8533 0
8551 0
8552 0
8553 0
8554 0
8555 0
8556 0
8557 0
8558 0
8559 0
8560 0
8561 0
8562 0
8563 0
8564 0
8565 0
8566 0
8567 0
8568 0
8586 0
8587 0
8588 0
8589 0
8590 0
8591 0
8592 0
8593 0
8594 0
8595 0
8596 0
8597 0
8598 0
8599 0
8600 0
8601 0
8602 0
8603 0
8621 0
8622 0
8623 0
8624 0
8625 0
8626 0
8627 0
8628 0
8629 0
8630 0
8631 0
8632 0
8633 0
8634 0
8635 0
8636 0
8637 0
8638 0
8656 0
8657 0
8658 0
8659 0
8660 0
8661 0
8662 0
8663 0
8664 0
8665 0
8666 0
8667 0
8668 0
8669 0
8670 0
8671 0
8672 0
8673 0
8691 0
8692 0
8693 0
8694 0
8695 0
8696 0
8697 0
8698 0
8699 0
8700 0
8701 0
8702 0
8703 0
8704 0
8705 0
8706 0
8707 0
8708 0
8726 0
8727 0
8728 0
8729 0
8730 0
8731 0
8732 0
8733 0
8734 0
8735 0
8736 0
8737 0
8738 0
8739 0
8740 0
8741 0
8742 0
8743 0
8761 0
8762 0
8763 0
8764 0
8765 0
8766 0
8767 0
8768 0
8769 0
8770 0
8771 0
8772 0
8773 0
8774 0
8775 0
8776 0
8777 0
8778 0
8796 0
8797 0
8798 0
8799 0
8800 0
8801 0
8802 0
8803 0
8804 0
8805 0
8806 0
8807 0
8808 0
8809 0
8810 0
8811 0
8812 0
8813 0
8831 0
8832 0
14201 0
8833 0
10116 0
9829 0
8856 0
8859 0
8860 0
8861 0
8862 0
8863 0
8864 0
8865 0
8869 0
8870 0
8871 0
8872 0
8874 0
8875 0
8876 0
8880 0
8881 0
8882 0
8883 0
-8885 0
8886 0
-8887 0
-8889 0
-8890 0
-8891 0
-8892 0
-8893 0
-8894 0
-8895 0
-8896 0
-8897 0
-8898 0
-8899 0
-8900 0
-8901 0
-8902 0
-8903 0
-8904 0
-8905 0
-8906 0
-8907 0
-8908 0
-8909 0
-8910 0
-8911 0
-8912 0
-8913 0
-8914 0
-8915 0
-8916 0
-8917 0
-8918 0
-8919 0
-8920 0
-8921 0
8932 0
8935 0
8939 0
8943 0
8947 0
8951 0
8955 0
8959 0
8963 0
8967 0
8971 0
8975 0
8979 0
8983 0
8987 0
8991 0
8995 0
8999 0
9003 0
9007 0
9011 0
9015 0
9019 0
9023 0
9027 0
9031 0
9035 0
9039 0
9043 0
9047 0
9051 0
9055 0
9068 0
9069 0
9070 0
9072 0
9073 0
9074 0
9075 0
9076 0
9077 0
9078 0
9079 0
9080 0
9081 0
9082 0
9083 0
9084 0
9085 0
9086 0
9087 0
9088 0
9089 0
9090 0
9091 0
9092 0
9093 0
9094 0
9095 0
9096 0
9097 0
9098 0
9099 0
9100 0
9101 0
9102 0
9103 0
9104 0
9116 0
9118 0
9122 0
9126 0
9130 0
9134 0
9138 0
9142 0
9146 0
9150 0
9154 0
9158 0
9162 0
9166 0
9170 0
9174 0
9178 0
9182 0
9186 0
9190 0
9194 0
9198 0
9202 0
9206 0
9210 0
9214 0
9218 0
9222 0
9226 0
9230 0
9234 0
9238 0
9251 0
-14201 0
9261 0
-14201 0
9262 0
-14201 0
9263 0
9270 0
9272 0
9274 0
9275 0
9276 0
9277 0
9280 0
9282 0
9284 0
9286 0
9288 0
9290 0
9292 0
9294 0
9296 0
9298 0
9300 0
9302 0
9304 0
9306 0
9308 0
9310 0
9312 0
9314 0
9316 0
9318 0
9320 0
9322 0
9324 0
9326 0
9328 0
9330 0
9332 0
9334 0
9336 0
9338 0
9340 0
9341 0
9267 0
-9354 0
9356 0
9366 0
9367 0
9368 0
9369 0
9370 0
9371 0
9372 0
9373 0
9354 0
9374 0
-14201 0
9542 0
-14201 0
9543 0
-14201 0
9544 0
-14201 0
9546 0
14201 0
14201 0
14201 0
14201 0
14201 0
9547 0
14201 0
14201 0
9548 0
9549 0
9551 0
14201 0
9552 0
9554 0
14201 0
14201 0
14201 0
14201 0
9558 0
9559 0
14201 0
9561 0
9575 0
9577 0
14201 0
14201 0
14201 0
14201 0
9578 0
9582 0
14201 0
9584 0
14201 0
9585 0
9586 0
9595 0
9598 0
9599 0
14201 0
9600 0
14201 0
10002 0

