c Result of efficient AIG-to-CNF conversion using package CNF
p cnf 176 376
2 -149 -167 175 0
-2 149 0
-2 167 0
-2 -175 0
3 -131 -167 175 0
-3 131 0
-3 167 0
-3 -175 0
4 -131 -149 175 0
-4 131 0
-4 149 0
-4 -175 0
5 61 -115 0
5 -61 -116 -121 0
-5 -61 121 0
-5 61 115 0
-5 -61 116 0
6 -116 -117 0
6 -116 -119 0
6 62 -116 0
6 -62 -117 -119 0
-6 62 116 0
-6 -62 117 119 0
-6 116 119 0
-6 116 117 0
7 63 -117 0
7 -63 -118 131 0
-7 -63 118 0
-7 63 117 0
-7 -63 -131 0
8 -165 -169 0
8 -118 169 0
-8 118 169 0
-8 165 -169 0
9 65 -119 0
9 -65 -120 132 0
-9 -65 120 0
-9 65 119 0
-9 -65 -132 0
10 -120 -125 0
10 -120 -132 0
10 66 -120 0
10 -66 -125 -132 0
-10 66 120 0
-10 -66 125 132 0
-10 120 132 0
-10 120 125 0
11 67 -121 0
11 -67 126 130 0
-11 -67 -126 0
-11 67 121 0
-11 -67 -130 0
12 68 -122 0
12 -68 131 0
-12 -68 -131 0
-12 68 122 0
13 -123 170 0
13 -122 -170 0
-13 123 170 0
-13 122 -170 0
14 70 -124 0
14 -70 115 -123 0
-14 -70 -115 0
-14 70 124 0
-14 -70 123 0
15 -71 -117 0
15 71 -125 0
15 -71 -124 0
-15 71 125 0
-15 -71 117 124 0
16 -124 -126 0
16 -119 -126 0
16 72 -126 0
16 -72 -119 -124 0
-16 72 126 0
-16 -72 119 124 0
-16 119 126 0
-16 124 126 0
17 73 -127 0
17 -73 120 -125 0
-17 -73 -120 0
-17 73 127 0
-17 -73 125 0
18 74 -128 0
18 -74 -127 -130 0
-18 -74 130 0
-18 74 128 0
-18 -74 127 0
19 75 -129 0
19 -75 -121 -127 0
-19 -75 121 0
-19 75 129 0
-19 -75 127 0
20 76 -130 0
20 -76 116 121 0
-20 -76 -116 0
-20 76 130 0
-20 -76 -121 0
21 77 -131 0
21 -77 -126 -130 0
-21 -77 126 0
-21 77 131 0
-21 -77 130 0
22 -78 -128 0
22 78 -132 0
22 -78 -133 0
-22 78 132 0
-22 -78 128 133 0
23 79 -133 0
23 -79 -134 -139 0
-23 -79 139 0
-23 79 133 0
-23 -79 134 0
24 -134 -135 0
24 -134 -137 0
24 80 -134 0
24 -80 -135 -137 0
-24 80 134 0
-24 -80 135 137 0
-24 134 137 0
-24 134 135 0
25 81 -135 0
25 -81 -136 149 0
-25 -81 136 0
-25 81 135 0
-25 -81 -149 0
26 -136 171 0
26 -129 -171 0
-26 136 171 0
-26 129 -171 0
27 83 -137 0
27 -83 -138 150 0
-27 -83 138 0
-27 83 137 0
-27 -83 -150 0
28 -138 -143 0
28 -138 -150 0
28 84 -138 0
28 -84 -143 -150 0
-28 84 138 0
-28 -84 143 150 0
-28 138 150 0
-28 138 143 0
29 85 -139 0
29 -85 144 148 0
-29 -85 -144 0
-29 85 139 0
-29 -85 -148 0
30 86 -140 0
30 -86 149 0
-30 -86 -149 0
-30 86 140 0
31 -141 172 0
31 -140 -172 0
-31 141 172 0
-31 140 -172 0
32 88 -142 0
32 -88 133 -141 0
-32 -88 -133 0
-32 88 142 0
-32 -88 141 0
33 -89 -135 0
33 89 -143 0
33 -89 -142 0
-33 89 143 0
-33 -89 135 142 0
34 -142 -144 0
34 -137 -144 0
34 90 -144 0
34 -90 -137 -142 0
-34 90 144 0
-34 -90 137 142 0
-34 137 144 0
-34 142 144 0
35 91 -145 0
35 -91 138 -143 0
-35 -91 -138 0
-35 91 145 0
-35 -91 143 0
36 92 -146 0
36 -92 -145 -148 0
-36 -92 148 0
-36 92 146 0
-36 -92 145 0
37 93 -147 0
37 -93 -139 -145 0
-37 -93 139 0
-37 93 147 0
-37 -93 145 0
38 94 -148 0
38 -94 134 139 0
-38 -94 -134 0
-38 94 148 0
-38 -94 -139 0
39 95 -149 0
39 -95 -144 -148 0
-39 -95 144 0
-39 95 149 0
-39 -95 148 0
40 -96 -146 0
40 96 -150 0
40 -96 -151 0
-40 96 150 0
-40 -96 146 151 0
41 97 -151 0
41 -97 -152 -157 0
-41 -97 157 0
-41 97 151 0
-41 -97 152 0
42 -152 -153 0
42 -152 -155 0
42 98 -152 0
42 -98 -153 -155 0
-42 98 152 0
-42 -98 153 155 0
-42 152 155 0
-42 152 153 0
43 99 -153 0
43 -99 -154 167 0
-43 -99 154 0
-43 99 153 0
-43 -99 -167 0
44 -154 173 0
44 -147 -173 0
-44 154 173 0
-44 147 -173 0
45 101 -155 0
45 -101 -156 168 0
-45 -101 156 0
-45 101 155 0
-45 -101 -168 0
46 -156 -161 0
46 -156 -168 0
46 102 -156 0
46 -102 -161 -168 0
-46 102 156 0
-46 -102 161 168 0
-46 156 168 0
-46 156 161 0
47 103 -157 0
47 -103 162 166 0
-47 -103 -162 0
-47 103 157 0
-47 -103 -166 0
48 104 -158 0
48 -104 167 0
-48 -104 -167 0
-48 104 158 0
49 -159 174 0
49 -158 -174 0
-49 159 174 0
-49 158 -174 0
50 106 -160 0
50 -106 151 -159 0
-50 -106 -151 0
-50 106 160 0
-50 -106 159 0
51 -107 -153 0
51 107 -161 0
51 -107 -160 0
-51 107 161 0
-51 -107 153 160 0
52 -160 -162 0
52 -155 -162 0
52 108 -162 0
52 -108 -155 -160 0
-52 108 162 0
-52 -108 155 160 0
-52 155 162 0
-52 160 162 0
53 109 -163 0
53 -109 156 -161 0
-53 -109 -156 0
-53 109 163 0
-53 -109 161 0
54 110 -164 0
54 -110 -163 -166 0
-54 -110 166 0
-54 110 164 0
-54 -110 163 0
55 111 -165 0
55 -111 -157 -163 0
-55 -111 157 0
-55 111 165 0
-55 -111 163 0
56 112 -166 0
56 -112 152 157 0
-56 -112 -152 0
-56 112 166 0
-56 -112 -157 0
57 113 -167 0
57 -113 -162 -166 0
-57 -113 162 0
-57 113 167 0
-57 -113 166 0
58 -114 -115 0
58 114 -168 0
58 -114 -164 0
-58 114 168 0
-58 -114 115 164 0
-59 175 44 60 0
-59 175 49 60 0
59 -175 0
59 -60 0
59 -44 -49 0
-60 13 26 0
-60 8 31 0
-60 13 31 0
-60 8 26 0
60 -8 -13 0
60 -26 -31 0
-176 0
2 0
3 0
4 0
5 0
6 0
7 0
8 0
9 0
10 0
11 0
12 0
13 0
14 0
15 0
16 0
17 0
18 0
19 0
20 0
21 0
22 0
23 0
24 0
25 0
26 0
27 0
28 0
29 0
30 0
31 0
32 0
33 0
34 0
35 0
36 0
37 0
38 0
39 0
40 0
41 0
42 0
43 0
44 0
45 0
46 0
47 0
48 0
49 0
50 0
51 0
52 0
53 0
54 0
55 0
56 0
57 0
58 0
64 0
69 0
82 0
87 0
100 0
105 0
59 0

