c Result of efficient AIG-to-CNF conversion using package CNF
p cnf 1345 3756
2 -1292 -1310 1344 0
-2 1292 0
-2 1310 0
-2 -1344 0
3 -1274 -1310 1344 0
-3 1274 0
-3 1310 0
-3 -1344 0
4 -1274 -1292 1344 0
-4 1274 0
-4 1292 0
-4 -1344 0
5 -1256 -1310 1344 0
-5 1256 0
-5 1310 0
-5 -1344 0
6 -1256 -1292 1344 0
-6 1256 0
-6 1292 0
-6 -1344 0
7 -1256 -1274 1344 0
-7 1256 0
-7 1274 0
-7 -1344 0
8 -1238 -1310 1344 0
-8 1238 0
-8 1310 0
-8 -1344 0
9 -1238 -1292 1344 0
-9 1238 0
-9 1292 0
-9 -1344 0
10 -1238 -1274 1344 0
-10 1238 0
-10 1274 0
-10 -1344 0
11 -1238 -1256 1344 0
-11 1238 0
-11 1256 0
-11 -1344 0
12 -1220 -1310 1344 0
-12 1220 0
-12 1310 0
-12 -1344 0
13 -1220 -1292 1344 0
-13 1220 0
-13 1292 0
-13 -1344 0
14 -1220 -1274 1344 0
-14 1220 0
-14 1274 0
-14 -1344 0
15 -1220 -1256 1344 0
-15 1220 0
-15 1256 0
-15 -1344 0
16 -1220 -1238 1344 0
-16 1220 0
-16 1238 0
-16 -1344 0
17 -1202 -1310 1344 0
-17 1202 0
-17 1310 0
-17 -1344 0
18 -1202 -1292 1344 0
-18 1202 0
-18 1292 0
-18 -1344 0
19 -1202 -1274 1344 0
-19 1202 0
-19 1274 0
-19 -1344 0
20 -1202 -1256 1344 0
-20 1202 0
-20 1256 0
-20 -1344 0
21 -1202 -1238 1344 0
-21 1202 0
-21 1238 0
-21 -1344 0
22 -1202 -1220 1344 0
-22 1202 0
-22 1220 0
-22 -1344 0
23 -1184 -1310 1344 0
-23 1184 0
-23 1310 0
-23 -1344 0
24 -1184 -1292 1344 0
-24 1184 0
-24 1292 0
-24 -1344 0
25 -1184 -1274 1344 0
-25 1184 0
-25 1274 0
-25 -1344 0
26 -1184 -1256 1344 0
-26 1184 0
-26 1256 0
-26 -1344 0
27 -1184 -1238 1344 0
-27 1184 0
-27 1238 0
-27 -1344 0
28 -1184 -1220 1344 0
-28 1184 0
-28 1220 0
-28 -1344 0
29 -1184 -1202 1344 0
-29 1184 0
-29 1202 0
-29 -1344 0
30 -1166 -1310 1344 0
-30 1166 0
-30 1310 0
-30 -1344 0
31 -1166 -1292 1344 0
-31 1166 0
-31 1292 0
-31 -1344 0
32 -1166 -1274 1344 0
-32 1166 0
-32 1274 0
-32 -1344 0
33 -1166 -1256 1344 0
-33 1166 0
-33 1256 0
-33 -1344 0
34 -1166 -1238 1344 0
-34 1166 0
-34 1238 0
-34 -1344 0
35 -1166 -1220 1344 0
-35 1166 0
-35 1220 0
-35 -1344 0
36 -1166 -1202 1344 0
-36 1166 0
-36 1202 0
-36 -1344 0
37 -1166 -1184 1344 0
-37 1166 0
-37 1184 0
-37 -1344 0
38 -1148 -1310 1344 0
-38 1148 0
-38 1310 0
-38 -1344 0
39 -1148 -1292 1344 0
-39 1148 0
-39 1292 0
-39 -1344 0
40 -1148 -1274 1344 0
-40 1148 0
-40 1274 0
-40 -1344 0
41 -1148 -1256 1344 0
-41 1148 0
-41 1256 0
-41 -1344 0
42 -1148 -1238 1344 0
-42 1148 0
-42 1238 0
-42 -1344 0
43 -1148 -1220 1344 0
-43 1148 0
-43 1220 0
-43 -1344 0
44 -1148 -1202 1344 0
-44 1148 0
-44 1202 0
-44 -1344 0
45 -1148 -1184 1344 0
-45 1148 0
-45 1184 0
-45 -1344 0
46 -1148 -1166 1344 0
-46 1148 0
-46 1166 0
-46 -1344 0
47 -1130 -1310 1344 0
-47 1130 0
-47 1310 0
-47 -1344 0
48 -1130 -1292 1344 0
-48 1130 0
-48 1292 0
-48 -1344 0
49 -1130 -1274 1344 0
-49 1130 0
-49 1274 0
-49 -1344 0
50 -1130 -1256 1344 0
-50 1130 0
-50 1256 0
-50 -1344 0
51 -1130 -1238 1344 0
-51 1130 0
-51 1238 0
-51 -1344 0
52 -1130 -1220 1344 0
-52 1130 0
-52 1220 0
-52 -1344 0
53 -1130 -1202 1344 0
-53 1130 0
-53 1202 0
-53 -1344 0
54 -1130 -1184 1344 0
-54 1130 0
-54 1184 0
-54 -1344 0
55 -1130 -1166 1344 0
-55 1130 0
-55 1166 0
-55 -1344 0
56 -1130 -1148 1344 0
-56 1130 0
-56 1148 0
-56 -1344 0
57 -1112 -1310 1344 0
-57 1112 0
-57 1310 0
-57 -1344 0
58 -1112 -1292 1344 0
-58 1112 0
-58 1292 0
-58 -1344 0
59 -1112 -1274 1344 0
-59 1112 0
-59 1274 0
-59 -1344 0
60 -1112 -1256 1344 0
-60 1112 0
-60 1256 0
-60 -1344 0
61 -1112 -1238 1344 0
-61 1112 0
-61 1238 0
-61 -1344 0
62 -1112 -1220 1344 0
-62 1112 0
-62 1220 0
-62 -1344 0
63 -1112 -1202 1344 0
-63 1112 0
-63 1202 0
-63 -1344 0
64 -1112 -1184 1344 0
-64 1112 0
-64 1184 0
-64 -1344 0
65 -1112 -1166 1344 0
-65 1112 0
-65 1166 0
-65 -1344 0
66 -1112 -1148 1344 0
-66 1112 0
-66 1148 0
-66 -1344 0
67 -1112 -1130 1344 0
-67 1112 0
-67 1130 0
-67 -1344 0
68 -1094 -1310 1344 0
-68 1094 0
-68 1310 0
-68 -1344 0
69 -1094 -1292 1344 0
-69 1094 0
-69 1292 0
-69 -1344 0
70 -1094 -1274 1344 0
-70 1094 0
-70 1274 0
-70 -1344 0
71 -1094 -1256 1344 0
-71 1094 0
-71 1256 0
-71 -1344 0
72 -1094 -1238 1344 0
-72 1094 0
-72 1238 0
-72 -1344 0
73 -1094 -1220 1344 0
-73 1094 0
-73 1220 0
-73 -1344 0
74 -1094 -1202 1344 0
-74 1094 0
-74 1202 0
-74 -1344 0
75 -1094 -1184 1344 0
-75 1094 0
-75 1184 0
-75 -1344 0
76 -1094 -1166 1344 0
-76 1094 0
-76 1166 0
-76 -1344 0
77 -1094 -1148 1344 0
-77 1094 0
-77 1148 0
-77 -1344 0
78 -1094 -1130 1344 0
-78 1094 0
-78 1130 0
-78 -1344 0
79 -1094 -1112 1344 0
-79 1094 0
-79 1112 0
-79 -1344 0
80 -1076 -1310 1344 0
-80 1076 0
-80 1310 0
-80 -1344 0
81 -1076 -1292 1344 0
-81 1076 0
-81 1292 0
-81 -1344 0
82 -1076 -1274 1344 0
-82 1076 0
-82 1274 0
-82 -1344 0
83 -1076 -1256 1344 0
-83 1076 0
-83 1256 0
-83 -1344 0
84 -1076 -1238 1344 0
-84 1076 0
-84 1238 0
-84 -1344 0
85 -1076 -1220 1344 0
-85 1076 0
-85 1220 0
-85 -1344 0
86 -1076 -1202 1344 0
-86 1076 0
-86 1202 0
-86 -1344 0
87 -1076 -1184 1344 0
-87 1076 0
-87 1184 0
-87 -1344 0
88 -1076 -1166 1344 0
-88 1076 0
-88 1166 0
-88 -1344 0
89 -1076 -1148 1344 0
-89 1076 0
-89 1148 0
-89 -1344 0
90 -1076 -1130 1344 0
-90 1076 0
-90 1130 0
-90 -1344 0
91 -1076 -1112 1344 0
-91 1076 0
-91 1112 0
-91 -1344 0
92 -1076 -1094 1344 0
-92 1076 0
-92 1094 0
-92 -1344 0
93 -1058 -1310 1344 0
-93 1058 0
-93 1310 0
-93 -1344 0
94 -1058 -1292 1344 0
-94 1058 0
-94 1292 0
-94 -1344 0
95 -1058 -1274 1344 0
-95 1058 0
-95 1274 0
-95 -1344 0
96 -1058 -1256 1344 0
-96 1058 0
-96 1256 0
-96 -1344 0
97 -1058 -1238 1344 0
-97 1058 0
-97 1238 0
-97 -1344 0
98 -1058 -1220 1344 0
-98 1058 0
-98 1220 0
-98 -1344 0
99 -1058 -1202 1344 0
-99 1058 0
-99 1202 0
-99 -1344 0
100 -1058 -1184 1344 0
-100 1058 0
-100 1184 0
-100 -1344 0
101 -1058 -1166 1344 0
-101 1058 0
-101 1166 0
-101 -1344 0
102 -1058 -1148 1344 0
-102 1058 0
-102 1148 0
-102 -1344 0
103 -1058 -1130 1344 0
-103 1058 0
-103 1130 0
-103 -1344 0
104 -1058 -1112 1344 0
-104 1058 0
-104 1112 0
-104 -1344 0
105 -1058 -1094 1344 0
-105 1058 0
-105 1094 0
-105 -1344 0
106 -1058 -1076 1344 0
-106 1058 0
-106 1076 0
-106 -1344 0
107 -1040 -1310 1344 0
-107 1040 0
-107 1310 0
-107 -1344 0
108 -1040 -1292 1344 0
-108 1040 0
-108 1292 0
-108 -1344 0
109 -1040 -1274 1344 0
-109 1040 0
-109 1274 0
-109 -1344 0
110 -1040 -1256 1344 0
-110 1040 0
-110 1256 0
-110 -1344 0
111 -1040 -1238 1344 0
-111 1040 0
-111 1238 0
-111 -1344 0
112 -1040 -1220 1344 0
-112 1040 0
-112 1220 0
-112 -1344 0
113 -1040 -1202 1344 0
-113 1040 0
-113 1202 0
-113 -1344 0
114 -1040 -1184 1344 0
-114 1040 0
-114 1184 0
-114 -1344 0
115 -1040 -1166 1344 0
-115 1040 0
-115 1166 0
-115 -1344 0
116 -1040 -1148 1344 0
-116 1040 0
-116 1148 0
-116 -1344 0
117 -1040 -1130 1344 0
-117 1040 0
-117 1130 0
-117 -1344 0
118 -1040 -1112 1344 0
-118 1040 0
-118 1112 0
-118 -1344 0
119 -1040 -1094 1344 0
-119 1040 0
-119 1094 0
-119 -1344 0
120 -1040 -1076 1344 0
-120 1040 0
-120 1076 0
-120 -1344 0
121 -1040 -1058 1344 0
-121 1040 0
-121 1058 0
-121 -1344 0
122 -1019 -123 0
-122 1019 0
-122 123 0
-123 1020 1021 1022 1023 0
123 -1023 0
123 -1022 0
123 -1020 0
123 -1021 0
124 731 -1024 0
124 -1024 125 0
124 -731 1040 -125 0
-124 1024 125 0
-124 731 1024 0
-124 -731 -1040 -125 0
125 1019 1020 -126 0
-125 126 0
-125 -1020 0
-125 -1019 0
126 -1021 -1022 -1023 0
-126 1021 0
-126 1022 0
-126 1023 0
127 -1025 1312 0
127 -1024 -1312 -125 0
127 -1025 125 0
-127 1025 125 0
-127 1025 1312 0
-127 1024 -1312 -125 0
128 -1026 125 0
128 -1307 -1313 -125 0
128 -1026 1313 0
-128 1026 125 0
-128 1307 -1313 -125 0
-128 1026 1313 0
129 -1027 125 0
129 -734 -125 -130 0
129 734 -1027 0
-129 1027 125 0
-129 734 1027 0
-129 -734 -125 130 0
130 -1025 1041 0
-130 1025 0
-130 -1041 0
131 -1028 125 0
131 -735 -125 -132 0
131 735 -1028 0
-131 1028 125 0
-131 735 1028 0
-131 -735 -125 132 0
132 -1026 1040 0
-132 1026 0
-132 -1040 0
133 -1029 125 0
133 -736 -125 -134 0
133 736 -1029 0
-133 1029 125 0
-133 736 1029 0
-133 -736 -125 134 0
-134 1027 1028 0
134 -1027 0
134 -1028 0
135 -125 -136 0
135 -1030 125 0
-135 -125 136 0
-135 1030 125 0
136 -1027 -1030 0
136 -1030 -1034 0
136 737 -1030 0
136 -737 -1027 -1034 0
-136 737 1030 0
-136 -737 1027 1034 0
-136 1030 1034 0
-136 1027 1030 0
137 -1031 125 0
137 -125 -138 139 0
137 -1031 -139 0
-137 1031 -139 0
-137 1031 125 0
-137 -125 138 139 0
138 -738 -1028 0
138 738 -1031 0
-138 738 1031 0
-138 -738 1028 0
139 1028 -1034 0
139 -1028 1034 0
-139 -1028 -1034 0
-139 1028 1034 0
140 -1032 125 0
140 -125 -141 142 0
140 -1032 -142 0
-140 1032 -142 0
-140 1032 125 0
-140 -125 141 142 0
141 -739 -1029 0
141 739 -1032 0
-141 739 1032 0
-141 -739 1029 0
142 1029 -1036 0
142 -1029 1036 0
-142 -1029 -1036 0
-142 1029 1036 0
143 -1033 125 0
143 -740 -125 -144 0
143 740 -1033 0
-143 1033 125 0
-143 740 1033 0
-143 -740 -125 144 0
144 -1029 1032 0
-144 1029 0
-144 -1032 0
145 -1034 125 0
145 -741 -125 -146 0
145 741 -1034 0
-145 1034 125 0
-145 741 1034 0
-145 -741 -125 146 0
146 -1032 1036 0
-146 1032 0
-146 -1036 0
147 -1035 125 0
147 -742 -125 -148 0
147 742 -1035 0
-147 1035 125 0
-147 742 1035 0
-147 -742 -125 148 0
148 -1033 -1039 0
-148 1033 0
-148 1039 0
149 -1036 125 0
149 -743 -125 -150 0
149 743 -1036 0
-149 1036 125 0
-149 743 1036 0
-149 -743 -125 150 0
-150 1035 1059 0
150 -1035 0
150 -1059 0
151 -1037 125 0
151 -744 -125 -152 0
151 744 -1037 0
-151 1037 125 0
-151 744 1037 0
-151 -744 -125 152 0
152 -1033 -1038 0
-152 1033 0
-152 1038 0
153 -1038 125 0
153 -745 -125 154 0
153 745 -1038 0
-153 1038 125 0
-153 745 1038 0
-153 -745 -125 -154 0
-154 1030 1039 0
154 -1030 0
154 -1039 0
155 -1039 125 0
155 -746 -125 156 0
155 746 -1039 0
-155 1039 125 0
-155 746 1039 0
-155 -746 -125 -156 0
-156 1031 1038 0
156 -1031 0
156 -1038 0
157 -1040 125 0
157 -747 -125 -158 0
157 747 -1040 0
-157 1040 125 0
-157 747 1040 0
-157 -747 -125 158 0
158 -1030 -1039 0
-158 1030 0
-158 1039 0
159 -1041 125 0
159 -748 -125 -160 0
159 748 -1041 0
-159 1041 125 0
-159 748 1041 0
-159 -748 -125 160 0
160 -1031 -1038 0
-160 1031 0
-160 1038 0
161 749 -1042 0
161 -1042 162 0
161 -749 1058 -162 0
-161 1042 162 0
-161 749 1042 0
-161 -749 -1058 -162 0
162 1019 1020 -163 0
-162 163 0
-162 -1020 0
-162 -1019 0
163 -1021 -1022 1023 0
-163 1021 0
-163 1022 0
-163 -1023 0
164 -1043 1314 0
164 -1042 -1314 -162 0
164 -1043 162 0
-164 1043 162 0
-164 1043 1314 0
-164 1042 -1314 -162 0
165 -1044 1315 0
165 -1037 -1315 -162 0
165 -1044 162 0
-165 1044 162 0
-165 1044 1315 0
-165 1037 -1315 -162 0
166 -1045 162 0
166 -752 -162 -167 0
166 752 -1045 0
-166 1045 162 0
-166 752 1045 0
-166 -752 -162 167 0
167 -1043 1059 0
-167 1043 0
-167 -1059 0
168 -1046 162 0
168 -753 -162 -169 0
168 753 -1046 0
-168 1046 162 0
-168 753 1046 0
-168 -753 -162 169 0
169 -1044 1058 0
-169 1044 0
-169 -1058 0
170 -1047 162 0
170 -754 -162 -171 0
170 754 -1047 0
-170 1047 162 0
-170 754 1047 0
-170 -754 -162 171 0
-171 1045 1046 0
171 -1045 0
171 -1046 0
172 -162 -173 0
172 -1048 162 0
-172 -162 173 0
-172 1048 162 0
173 -1045 -1048 0
173 -1048 -1052 0
173 755 -1048 0
173 -755 -1045 -1052 0
-173 755 1048 0
-173 -755 1045 1052 0
-173 1048 1052 0
-173 1045 1048 0
174 -1049 162 0
174 -162 -175 176 0
174 -1049 -176 0
-174 1049 -176 0
-174 1049 162 0
-174 -162 175 176 0
175 -756 -1046 0
175 756 -1049 0
-175 756 1049 0
-175 -756 1046 0
176 1046 -1052 0
176 -1046 1052 0
-176 -1046 -1052 0
-176 1046 1052 0
177 -1050 162 0
177 -162 -178 179 0
177 -1050 -179 0
-177 1050 -179 0
-177 1050 162 0
-177 -162 178 179 0
178 -757 -1047 0
178 757 -1050 0
-178 757 1050 0
-178 -757 1047 0
179 1047 -1054 0
179 -1047 1054 0
-179 -1047 -1054 0
-179 1047 1054 0
180 -1051 162 0
180 -758 -162 -181 0
180 758 -1051 0
-180 1051 162 0
-180 758 1051 0
-180 -758 -162 181 0
181 -1047 1050 0
-181 1047 0
-181 -1050 0
182 -1052 162 0
182 -759 -162 -183 0
182 759 -1052 0
-182 1052 162 0
-182 759 1052 0
-182 -759 -162 183 0
183 -1050 1054 0
-183 1050 0
-183 -1054 0
184 -1053 162 0
184 -760 -162 -185 0
184 760 -1053 0
-184 1053 162 0
-184 760 1053 0
-184 -760 -162 185 0
185 -1051 -1057 0
-185 1051 0
-185 1057 0
186 -1054 162 0
186 -761 -162 -187 0
186 761 -1054 0
-186 1054 162 0
-186 761 1054 0
-186 -761 -162 187 0
-187 1053 1077 0
187 -1053 0
187 -1077 0
188 -1055 162 0
188 -762 -162 -189 0
188 762 -1055 0
-188 1055 162 0
-188 762 1055 0
-188 -762 -162 189 0
189 -1051 -1056 0
-189 1051 0
-189 1056 0
190 -1056 162 0
190 -763 -162 191 0
190 763 -1056 0
-190 1056 162 0
-190 763 1056 0
-190 -763 -162 -191 0
-191 1048 1057 0
191 -1048 0
191 -1057 0
192 -1057 162 0
192 -764 -162 193 0
192 764 -1057 0
-192 1057 162 0
-192 764 1057 0
-192 -764 -162 -193 0
-193 1049 1056 0
193 -1049 0
193 -1056 0
194 -1058 162 0
194 -765 -162 -195 0
194 765 -1058 0
-194 1058 162 0
-194 765 1058 0
-194 -765 -162 195 0
195 -1048 -1057 0
-195 1048 0
-195 1057 0
196 -1059 162 0
196 -766 -162 -197 0
196 766 -1059 0
-196 1059 162 0
-196 766 1059 0
-196 -766 -162 197 0
197 -1049 -1056 0
-197 1049 0
-197 1056 0
198 767 -1060 0
198 -1060 199 0
198 -767 1076 -199 0
-198 1060 199 0
-198 767 1060 0
-198 -767 -1076 -199 0
199 1019 1020 -200 0
-199 200 0
-199 -1020 0
-199 -1019 0
200 -1021 1022 -1023 0
-200 1021 0
-200 -1022 0
-200 1023 0
201 -1061 1316 0
201 -1060 -1316 -199 0
201 -1061 199 0
-201 1061 199 0
-201 1061 1316 0
-201 1060 -1316 -199 0
202 -1062 1317 0
202 -1055 -1317 -199 0
202 -1062 199 0
-202 1062 199 0
-202 1062 1317 0
-202 1055 -1317 -199 0
203 -1063 199 0
203 -770 -199 -204 0
203 770 -1063 0
-203 1063 199 0
-203 770 1063 0
-203 -770 -199 204 0
204 -1061 1077 0
-204 1061 0
-204 -1077 0
205 -1064 199 0
205 -771 -199 -206 0
205 771 -1064 0
-205 1064 199 0
-205 771 1064 0
-205 -771 -199 206 0
206 -1062 1076 0
-206 1062 0
-206 -1076 0
207 -1065 199 0
207 -772 -199 -208 0
207 772 -1065 0
-207 1065 199 0
-207 772 1065 0
-207 -772 -199 208 0
-208 1063 1064 0
208 -1063 0
208 -1064 0
209 -1066 199 0
209 -199 -210 211 0
209 -1066 -211 0
-209 1066 -211 0
-209 1066 199 0
-209 -199 210 211 0
210 -773 -1063 0
210 773 -1066 0
-210 773 1066 0
-210 -773 1063 0
211 1063 -1070 0
211 -1063 1070 0
-211 -1063 -1070 0
-211 1063 1070 0
212 -1067 199 0
212 -199 -213 214 0
212 -1067 -214 0
-212 1067 -214 0
-212 1067 199 0
-212 -199 213 214 0
213 -774 -1064 0
213 774 -1067 0
-213 774 1067 0
-213 -774 1064 0
214 1064 -1070 0
214 -1064 1070 0
-214 -1064 -1070 0
-214 1064 1070 0
215 -1068 199 0
215 -199 -216 217 0
215 -1068 -217 0
-215 1068 -217 0
-215 1068 199 0
-215 -199 216 217 0
216 -775 -1065 0
216 775 -1068 0
-216 775 1068 0
-216 -775 1065 0
217 1065 -1072 0
217 -1065 1072 0
-217 -1065 -1072 0
-217 1065 1072 0
218 -1069 199 0
218 -776 -199 -219 0
218 776 -1069 0
-218 1069 199 0
-218 776 1069 0
-218 -776 -199 219 0
219 -1065 1068 0
-219 1065 0
-219 -1068 0
220 -1070 199 0
220 -777 -199 -221 0
220 777 -1070 0
-220 1070 199 0
-220 777 1070 0
-220 -777 -199 221 0
221 -1068 1072 0
-221 1068 0
-221 -1072 0
222 -1071 199 0
222 -778 -199 -223 0
222 778 -1071 0
-222 1071 199 0
-222 778 1071 0
-222 -778 -199 223 0
223 -1069 -1075 0
-223 1069 0
-223 1075 0
224 -1072 199 0
224 -779 -199 -225 0
224 779 -1072 0
-224 1072 199 0
-224 779 1072 0
-224 -779 -199 225 0
-225 1071 1095 0
225 -1071 0
225 -1095 0
226 -1073 199 0
226 -780 -199 -227 0
226 780 -1073 0
-226 1073 199 0
-226 780 1073 0
-226 -780 -199 227 0
227 -1069 -1074 0
-227 1069 0
-227 1074 0
228 -1074 199 0
228 -781 -199 229 0
228 781 -1074 0
-228 1074 199 0
-228 781 1074 0
-228 -781 -199 -229 0
-229 1066 1075 0
229 -1066 0
229 -1075 0
230 -1075 199 0
230 -782 -199 231 0
230 782 -1075 0
-230 1075 199 0
-230 782 1075 0
-230 -782 -199 -231 0
-231 1067 1074 0
231 -1067 0
231 -1074 0
232 -1076 199 0
232 -783 -199 -233 0
232 783 -1076 0
-232 1076 199 0
-232 783 1076 0
-232 -783 -199 233 0
233 -1066 -1075 0
-233 1066 0
-233 1075 0
234 -1077 199 0
234 -784 -199 -235 0
234 784 -1077 0
-234 1077 199 0
-234 784 1077 0
-234 -784 -199 235 0
235 -1067 -1074 0
-235 1067 0
-235 1074 0
236 785 -1078 0
236 -1078 237 0
236 -785 1094 -237 0
-236 1078 237 0
-236 785 1078 0
-236 -785 -1094 -237 0
237 1019 1020 -238 0
-237 238 0
-237 -1020 0
-237 -1019 0
238 -1021 1022 1023 0
-238 1021 0
-238 -1023 0
-238 -1022 0
239 -1079 1318 0
239 -1078 -1318 -237 0
239 -1079 237 0
-239 1079 237 0
-239 1079 1318 0
-239 1078 -1318 -237 0
240 -1080 1319 0
240 -1073 -1319 -237 0
240 -1080 237 0
-240 1080 237 0
-240 1080 1319 0
-240 1073 -1319 -237 0
241 -1081 237 0
241 -788 -237 -242 0
241 788 -1081 0
-241 1081 237 0
-241 788 1081 0
-241 -788 -237 242 0
242 -1079 1095 0
-242 1079 0
-242 -1095 0
243 -1082 237 0
243 -789 -237 -244 0
243 789 -1082 0
-243 1082 237 0
-243 789 1082 0
-243 -789 -237 244 0
244 -1080 1094 0
-244 1080 0
-244 -1094 0
245 -1083 237 0
245 -790 -237 -246 0
245 790 -1083 0
-245 1083 237 0
-245 790 1083 0
-245 -790 -237 246 0
-246 1081 1082 0
246 -1081 0
246 -1082 0
247 -1084 237 0
247 -237 -248 249 0
247 -1084 -249 0
-247 1084 -249 0
-247 1084 237 0
-247 -237 248 249 0
248 -791 -1081 0
248 791 -1084 0
-248 791 1084 0
-248 -791 1081 0
249 1081 -1088 0
249 -1081 1088 0
-249 -1081 -1088 0
-249 1081 1088 0
250 -237 -251 0
250 -1085 237 0
-250 -237 251 0
-250 1085 237 0
251 -1082 -1085 0
251 -1085 -1088 0
251 792 -1085 0
251 -792 -1082 -1088 0
-251 792 1085 0
-251 -792 1082 1088 0
-251 1085 1088 0
-251 1082 1085 0
252 -237 -253 0
252 -1086 237 0
-252 -237 253 0
-252 1086 237 0
253 -1083 -1086 0
253 -1086 -1090 0
253 793 -1086 0
253 -793 -1083 -1090 0
-253 793 1086 0
-253 -793 1083 1090 0
-253 1086 1090 0
-253 1083 1086 0
254 -1087 237 0
254 -794 -237 -255 0
254 794 -1087 0
-254 1087 237 0
-254 794 1087 0
-254 -794 -237 255 0
255 -1083 1086 0
-255 1083 0
-255 -1086 0
256 -1088 237 0
256 -795 -237 -257 0
256 795 -1088 0
-256 1088 237 0
-256 795 1088 0
-256 -795 -237 257 0
257 -1086 1090 0
-257 1086 0
-257 -1090 0
258 -1089 237 0
258 -796 -237 -259 0
258 796 -1089 0
-258 1089 237 0
-258 796 1089 0
-258 -796 -237 259 0
259 -1087 -1093 0
-259 1087 0
-259 1093 0
260 -1090 237 0
260 -797 -237 -261 0
260 797 -1090 0
-260 1090 237 0
-260 797 1090 0
-260 -797 -237 261 0
-261 1089 1113 0
261 -1089 0
261 -1113 0
262 -1091 237 0
262 -798 -237 -263 0
262 798 -1091 0
-262 1091 237 0
-262 798 1091 0
-262 -798 -237 263 0
263 -1087 -1092 0
-263 1087 0
-263 1092 0
264 -1092 237 0
264 -799 -237 265 0
264 799 -1092 0
-264 1092 237 0
-264 799 1092 0
-264 -799 -237 -265 0
-265 1084 1093 0
265 -1084 0
265 -1093 0
266 -1093 237 0
266 -800 -237 267 0
266 800 -1093 0
-266 1093 237 0
-266 800 1093 0
-266 -800 -237 -267 0
-267 1085 1092 0
267 -1085 0
267 -1092 0
268 -1094 237 0
268 -801 -237 -269 0
268 801 -1094 0
-268 1094 237 0
-268 801 1094 0
-268 -801 -237 269 0
269 -1084 -1093 0
-269 1084 0
-269 1093 0
270 -1095 237 0
270 -802 -237 -271 0
270 802 -1095 0
-270 1095 237 0
-270 802 1095 0
-270 -802 -237 271 0
271 -1085 -1092 0
-271 1085 0
-271 1092 0
272 803 -1096 0
272 -1096 273 0
272 -803 1112 -273 0
-272 1096 273 0
-272 803 1096 0
-272 -803 -1112 -273 0
273 1019 1020 -274 0
-273 274 0
-273 -1020 0
-273 -1019 0
274 1021 -1022 -1023 0
-274 1023 0
-274 1022 0
-274 -1021 0
275 -1097 1320 0
275 -1096 -1320 -273 0
275 -1097 273 0
-275 1097 273 0
-275 1097 1320 0
-275 1096 -1320 -273 0
276 -1098 1321 0
276 -1091 -1321 -273 0
276 -1098 273 0
-276 1098 273 0
-276 1098 1321 0
-276 1091 -1321 -273 0
277 -1099 273 0
277 -806 -273 -278 0
277 806 -1099 0
-277 1099 273 0
-277 806 1099 0
-277 -806 -273 278 0
278 -1097 1113 0
-278 1097 0
-278 -1113 0
279 -1100 273 0
279 -807 -273 -280 0
279 807 -1100 0
-279 1100 273 0
-279 807 1100 0
-279 -807 -273 280 0
280 -1098 1112 0
-280 1098 0
-280 -1112 0
281 -1101 273 0
281 -808 -273 -282 0
281 808 -1101 0
-281 1101 273 0
-281 808 1101 0
-281 -808 -273 282 0
-282 1099 1100 0
282 -1099 0
282 -1100 0
283 -1102 273 0
283 -273 -284 285 0
283 -1102 -285 0
-283 1102 -285 0
-283 1102 273 0
-283 -273 284 285 0
284 -809 -1099 0
284 809 -1102 0
-284 809 1102 0
-284 -809 1099 0
285 1099 -1106 0
285 -1099 1106 0
-285 -1099 -1106 0
-285 1099 1106 0
286 -1103 273 0
286 -273 -287 288 0
286 -1103 -288 0
-286 1103 -288 0
-286 1103 273 0
-286 -273 287 288 0
287 -810 -1100 0
287 810 -1103 0
-287 810 1103 0
-287 -810 1100 0
288 1100 -1106 0
288 -1100 1106 0
-288 -1100 -1106 0
-288 1100 1106 0
289 -1104 273 0
289 -273 -290 291 0
289 -1104 -291 0
-289 1104 -291 0
-289 1104 273 0
-289 -273 290 291 0
290 -811 -1101 0
290 811 -1104 0
-290 811 1104 0
-290 -811 1101 0
291 1101 -1108 0
291 -1101 1108 0
-291 -1101 -1108 0
-291 1101 1108 0
292 -1105 273 0
292 -812 -273 -293 0
292 812 -1105 0
-292 1105 273 0
-292 812 1105 0
-292 -812 -273 293 0
293 -1101 1104 0
-293 1101 0
-293 -1104 0
294 -1106 273 0
294 -813 -273 -295 0
294 813 -1106 0
-294 1106 273 0
-294 813 1106 0
-294 -813 -273 295 0
295 -1104 1108 0
-295 1104 0
-295 -1108 0
296 -1107 273 0
296 -814 -273 -297 0
296 814 -1107 0
-296 1107 273 0
-296 814 1107 0
-296 -814 -273 297 0
297 -1105 -1111 0
-297 1105 0
-297 1111 0
298 -1108 273 0
298 -815 -273 -299 0
298 815 -1108 0
-298 1108 273 0
-298 815 1108 0
-298 -815 -273 299 0
-299 1107 1131 0
299 -1107 0
299 -1131 0
300 -1109 273 0
300 -816 -273 -301 0
300 816 -1109 0
-300 1109 273 0
-300 816 1109 0
-300 -816 -273 301 0
301 -1105 -1110 0
-301 1105 0
-301 1110 0
302 -1110 273 0
302 -817 -273 303 0
302 817 -1110 0
-302 1110 273 0
-302 817 1110 0
-302 -817 -273 -303 0
-303 1102 1111 0
303 -1102 0
303 -1111 0
304 -1111 273 0
304 -818 -273 305 0
304 818 -1111 0
-304 1111 273 0
-304 818 1111 0
-304 -818 -273 -305 0
-305 1103 1110 0
305 -1103 0
305 -1110 0
306 -1112 273 0
306 -819 -273 -307 0
306 819 -1112 0
-306 1112 273 0
-306 819 1112 0
-306 -819 -273 307 0
307 -1102 -1111 0
-307 1102 0
-307 1111 0
308 -1113 273 0
308 -820 -273 -309 0
308 820 -1113 0
-308 1113 273 0
-308 820 1113 0
-308 -820 -273 309 0
309 -1103 -1110 0
-309 1103 0
-309 1110 0
310 821 -1114 0
310 -1114 311 0
310 -821 1130 -311 0
-310 1114 311 0
-310 821 1114 0
-310 -821 -1130 -311 0
311 1019 1020 -312 0
-311 312 0
-311 -1020 0
-311 -1019 0
312 1021 -1022 1023 0
-312 -1021 0
-312 1022 0
-312 -1023 0
313 -1115 1322 0
313 -1114 -1322 -311 0
313 -1115 311 0
-313 1115 311 0
-313 1115 1322 0
-313 1114 -1322 -311 0
314 -1116 1323 0
314 -1109 -1323 -311 0
314 -1116 311 0
-314 1116 311 0
-314 1116 1323 0
-314 1109 -1323 -311 0
315 -1117 311 0
315 -824 -311 -316 0
315 824 -1117 0
-315 1117 311 0
-315 824 1117 0
-315 -824 -311 316 0
316 -1115 1131 0
-316 1115 0
-316 -1131 0
317 -1118 311 0
317 -825 -311 -318 0
317 825 -1118 0
-317 1118 311 0
-317 825 1118 0
-317 -825 -311 318 0
318 -1116 1130 0
-318 1116 0
-318 -1130 0
319 -1119 311 0
319 -826 -311 -320 0
319 826 -1119 0
-319 1119 311 0
-319 826 1119 0
-319 -826 -311 320 0
-320 1117 1118 0
320 -1117 0
320 -1118 0
321 -311 -322 0
321 -1120 311 0
-321 -311 322 0
-321 1120 311 0
322 -1117 -1120 0
322 -1120 -1124 0
322 827 -1120 0
322 -827 -1117 -1124 0
-322 827 1120 0
-322 -827 1117 1124 0
-322 1120 1124 0
-322 1117 1120 0
323 -1121 311 0
323 -311 -324 325 0
323 -1121 -325 0
-323 1121 -325 0
-323 1121 311 0
-323 -311 324 325 0
324 -828 -1118 0
324 828 -1121 0
-324 828 1121 0
-324 -828 1118 0
325 1118 -1124 0
325 -1118 1124 0
-325 -1118 -1124 0
-325 1118 1124 0
326 -1122 311 0
326 -311 -327 328 0
326 -1122 -328 0
-326 1122 -328 0
-326 1122 311 0
-326 -311 327 328 0
327 -829 -1119 0
327 829 -1122 0
-327 829 1122 0
-327 -829 1119 0
328 1119 -1126 0
328 -1119 1126 0
-328 -1119 -1126 0
-328 1119 1126 0
329 -1123 311 0
329 -830 -311 -330 0
329 830 -1123 0
-329 1123 311 0
-329 830 1123 0
-329 -830 -311 330 0
330 -1119 1122 0
-330 1119 0
-330 -1122 0
331 -1124 311 0
331 -831 -311 -332 0
331 831 -1124 0
-331 1124 311 0
-331 831 1124 0
-331 -831 -311 332 0
332 -1122 1126 0
-332 1122 0
-332 -1126 0
333 -1125 311 0
333 -832 -311 -334 0
333 832 -1125 0
-333 1125 311 0
-333 832 1125 0
-333 -832 -311 334 0
334 -1123 -1129 0
-334 1123 0
-334 1129 0
335 -1126 311 0
335 -833 -311 -336 0
335 833 -1126 0
-335 1126 311 0
-335 833 1126 0
-335 -833 -311 336 0
-336 1125 1149 0
336 -1125 0
336 -1149 0
337 -1127 311 0
337 -834 -311 -338 0
337 834 -1127 0
-337 1127 311 0
-337 834 1127 0
-337 -834 -311 338 0
338 -1123 -1128 0
-338 1123 0
-338 1128 0
339 -1128 311 0
339 -835 -311 340 0
339 835 -1128 0
-339 1128 311 0
-339 835 1128 0
-339 -835 -311 -340 0
-340 1120 1129 0
340 -1120 0
340 -1129 0
341 -1129 311 0
341 -836 -311 342 0
341 836 -1129 0
-341 1129 311 0
-341 836 1129 0
-341 -836 -311 -342 0
-342 1121 1128 0
342 -1121 0
342 -1128 0
343 -1130 311 0
343 -837 -311 -344 0
343 837 -1130 0
-343 1130 311 0
-343 837 1130 0
-343 -837 -311 344 0
344 -1120 -1129 0
-344 1120 0
-344 1129 0
345 -1131 311 0
345 -838 -311 -346 0
345 838 -1131 0
-345 1131 311 0
-345 838 1131 0
-345 -838 -311 346 0
346 -1121 -1128 0
-346 1121 0
-346 1128 0
347 839 -1132 0
347 -1132 348 0
347 -839 1148 -348 0
-347 1132 348 0
-347 839 1132 0
-347 -839 -1148 -348 0
348 1019 1020 -349 0
-348 349 0
-348 -1020 0
-348 -1019 0
349 1021 1022 -1023 0
-349 1023 0
-349 -1022 0
-349 -1021 0
350 -1133 1324 0
350 -1132 -1324 -348 0
350 -1133 348 0
-350 1133 348 0
-350 1133 1324 0
-350 1132 -1324 -348 0
351 -1134 1325 0
351 -1127 -1325 -348 0
351 -1134 348 0
-351 1134 348 0
-351 1134 1325 0
-351 1127 -1325 -348 0
352 -1135 348 0
352 -842 -348 -353 0
352 842 -1135 0
-352 1135 348 0
-352 842 1135 0
-352 -842 -348 353 0
353 -1133 1149 0
-353 1133 0
-353 -1149 0
354 -1136 348 0
354 -843 -348 -355 0
354 843 -1136 0
-354 1136 348 0
-354 843 1136 0
-354 -843 -348 355 0
355 -1134 1148 0
-355 1134 0
-355 -1148 0
356 -1137 348 0
356 -844 -348 -357 0
356 844 -1137 0
-356 1137 348 0
-356 844 1137 0
-356 -844 -348 357 0
-357 1135 1136 0
357 -1135 0
357 -1136 0
358 -1138 348 0
358 -348 -359 360 0
358 -1138 -360 0
-358 1138 -360 0
-358 1138 348 0
-358 -348 359 360 0
359 -845 -1135 0
359 845 -1138 0
-359 845 1138 0
-359 -845 1135 0
360 1135 -1142 0
360 -1135 1142 0
-360 -1135 -1142 0
-360 1135 1142 0
361 -1139 348 0
361 -348 -362 363 0
361 -1139 -363 0
-361 1139 -363 0
-361 1139 348 0
-361 -348 362 363 0
362 -846 -1136 0
362 846 -1139 0
-362 846 1139 0
-362 -846 1136 0
363 1136 -1142 0
363 -1136 1142 0
-363 -1136 -1142 0
-363 1136 1142 0
364 -348 -365 0
364 -1140 348 0
-364 -348 365 0
-364 1140 348 0
365 -1137 -1140 0
365 -1140 -1144 0
365 847 -1140 0
365 -847 -1137 -1144 0
-365 847 1140 0
-365 -847 1137 1144 0
-365 1140 1144 0
-365 1137 1140 0
366 -1141 348 0
366 -848 -348 -367 0
366 848 -1141 0
-366 1141 348 0
-366 848 1141 0
-366 -848 -348 367 0
367 -1137 1140 0
-367 1137 0
-367 -1140 0
368 -1142 348 0
368 -849 -348 -369 0
368 849 -1142 0
-368 1142 348 0
-368 849 1142 0
-368 -849 -348 369 0
369 -1140 1144 0
-369 1140 0
-369 -1144 0
370 -1143 348 0
370 -850 -348 -371 0
370 850 -1143 0
-370 1143 348 0
-370 850 1143 0
-370 -850 -348 371 0
371 -1141 -1147 0
-371 1141 0
-371 1147 0
372 -1144 348 0
372 -851 -348 -373 0
372 851 -1144 0
-372 1144 348 0
-372 851 1144 0
-372 -851 -348 373 0
-373 1143 1167 0
373 -1143 0
373 -1167 0
374 -1145 348 0
374 -852 -348 -375 0
374 852 -1145 0
-374 1145 348 0
-374 852 1145 0
-374 -852 -348 375 0
375 -1141 -1146 0
-375 1141 0
-375 1146 0
376 -1146 348 0
376 -853 -348 377 0
376 853 -1146 0
-376 1146 348 0
-376 853 1146 0
-376 -853 -348 -377 0
-377 1138 1147 0
377 -1138 0
377 -1147 0
378 -1147 348 0
378 -854 -348 379 0
378 854 -1147 0
-378 1147 348 0
-378 854 1147 0
-378 -854 -348 -379 0
-379 1139 1146 0
379 -1139 0
379 -1146 0
380 -1148 348 0
380 -855 -348 -381 0
380 855 -1148 0
-380 1148 348 0
-380 855 1148 0
-380 -855 -348 381 0
381 -1138 -1147 0
-381 1138 0
-381 1147 0
382 -1149 348 0
382 -856 -348 -383 0
382 856 -1149 0
-382 1149 348 0
-382 856 1149 0
-382 -856 -348 383 0
383 -1139 -1146 0
-383 1139 0
-383 1146 0
384 857 -1150 0
384 -1150 385 0
384 -857 1166 -385 0
-384 1150 385 0
-384 857 1150 0
-384 -857 -1166 -385 0
385 1019 -1020 -126 0
-385 126 0
-385 1020 0
-385 -1019 0
386 -1151 1326 0
386 -1150 -1326 -385 0
386 -1151 385 0
-386 1151 385 0
-386 1151 1326 0
-386 1150 -1326 -385 0
387 -1152 1327 0
387 -1145 -1327 -385 0
387 -1152 385 0
-387 1152 385 0
-387 1152 1327 0
-387 1145 -1327 -385 0
388 -1153 385 0
388 -860 -385 -389 0
388 860 -1153 0
-388 1153 385 0
-388 860 1153 0
-388 -860 -385 389 0
389 -1151 1167 0
-389 1151 0
-389 -1167 0
390 -1154 385 0
390 -861 -385 -391 0
390 861 -1154 0
-390 1154 385 0
-390 861 1154 0
-390 -861 -385 391 0
391 -1152 1166 0
-391 1152 0
-391 -1166 0
392 -1155 385 0
392 -862 -385 -393 0
392 862 -1155 0
-392 1155 385 0
-392 862 1155 0
-392 -862 -385 393 0
-393 1153 1154 0
393 -1153 0
393 -1154 0
394 -385 -395 0
394 -1156 385 0
-394 -385 395 0
-394 1156 385 0
395 -1153 -1156 0
395 -1156 -1160 0
395 863 -1156 0
395 -863 -1153 -1160 0
-395 863 1156 0
-395 -863 1153 1160 0
-395 1156 1160 0
-395 1153 1156 0
396 -1157 385 0
396 -385 -397 398 0
396 -1157 -398 0
-396 1157 -398 0
-396 1157 385 0
-396 -385 397 398 0
397 -864 -1154 0
397 864 -1157 0
-397 864 1157 0
-397 -864 1154 0
398 1154 -1160 0
398 -1154 1160 0
-398 -1154 -1160 0
-398 1154 1160 0
399 -1158 385 0
399 -385 -400 401 0
399 -1158 -401 0
-399 1158 -401 0
-399 1158 385 0
-399 -385 400 401 0
400 -865 -1155 0
400 865 -1158 0
-400 865 1158 0
-400 -865 1155 0
401 1155 -1162 0
401 -1155 1162 0
-401 -1155 -1162 0
-401 1155 1162 0
402 -1159 385 0
402 -866 -385 -403 0
402 866 -1159 0
-402 1159 385 0
-402 866 1159 0
-402 -866 -385 403 0
403 -1155 1158 0
-403 1155 0
-403 -1158 0
404 -1160 385 0
404 -867 -385 -405 0
404 867 -1160 0
-404 1160 385 0
-404 867 1160 0
-404 -867 -385 405 0
405 -1158 1162 0
-405 1158 0
-405 -1162 0
406 -1161 385 0
406 -868 -385 -407 0
406 868 -1161 0
-406 1161 385 0
-406 868 1161 0
-406 -868 -385 407 0
407 -1159 -1165 0
-407 1159 0
-407 1165 0
408 -1162 385 0
408 -869 -385 -409 0
408 869 -1162 0
-408 1162 385 0
-408 869 1162 0
-408 -869 -385 409 0
-409 1161 1185 0
409 -1161 0
409 -1185 0
410 -1163 385 0
410 -870 -385 -411 0
410 870 -1163 0
-410 1163 385 0
-410 870 1163 0
-410 -870 -385 411 0
411 -1159 -1164 0
-411 1159 0
-411 1164 0
412 -1164 385 0
412 -871 -385 413 0
412 871 -1164 0
-412 1164 385 0
-412 871 1164 0
-412 -871 -385 -413 0
-413 1156 1165 0
413 -1156 0
413 -1165 0
414 -1165 385 0
414 -872 -385 415 0
414 872 -1165 0
-414 1165 385 0
-414 872 1165 0
-414 -872 -385 -415 0
-415 1157 1164 0
415 -1157 0
415 -1164 0
416 -1166 385 0
416 -873 -385 -417 0
416 873 -1166 0
-416 1166 385 0
-416 873 1166 0
-416 -873 -385 417 0
417 -1156 -1165 0
-417 1156 0
-417 1165 0
418 -1167 385 0
418 -874 -385 -419 0
418 874 -1167 0
-418 1167 385 0
-418 874 1167 0
-418 -874 -385 419 0
419 -1157 -1164 0
-419 1157 0
-419 1164 0
420 875 -1168 0
420 -1168 421 0
420 -875 1184 -421 0
-420 1168 421 0
-420 875 1168 0
-420 -875 -1184 -421 0
421 1019 -1020 -163 0
-421 163 0
-421 1020 0
-421 -1019 0
422 -1169 1328 0
422 -1168 -1328 -421 0
422 -1169 421 0
-422 1169 421 0
-422 1169 1328 0
-422 1168 -1328 -421 0
423 -1170 1329 0
423 -1163 -1329 -421 0
423 -1170 421 0
-423 1170 421 0
-423 1170 1329 0
-423 1163 -1329 -421 0
424 -1171 421 0
424 -878 -421 -425 0
424 878 -1171 0
-424 1171 421 0
-424 878 1171 0
-424 -878 -421 425 0
425 -1169 1185 0
-425 1169 0
-425 -1185 0
426 -1172 421 0
426 -879 -421 -427 0
426 879 -1172 0
-426 1172 421 0
-426 879 1172 0
-426 -879 -421 427 0
427 -1170 1184 0
-427 1170 0
-427 -1184 0
428 -1173 421 0
428 -880 -421 -429 0
428 880 -1173 0
-428 1173 421 0
-428 880 1173 0
-428 -880 -421 429 0
-429 1171 1172 0
429 -1171 0
429 -1172 0
430 -1174 421 0
430 -421 -431 432 0
430 -1174 -432 0
-430 1174 -432 0
-430 1174 421 0
-430 -421 431 432 0
431 -881 -1171 0
431 881 -1174 0
-431 881 1174 0
-431 -881 1171 0
432 1171 -1178 0
432 -1171 1178 0
-432 -1171 -1178 0
-432 1171 1178 0
433 -1175 421 0
433 -421 -434 435 0
433 -1175 -435 0
-433 1175 -435 0
-433 1175 421 0
-433 -421 434 435 0
434 -882 -1172 0
434 882 -1175 0
-434 882 1175 0
-434 -882 1172 0
435 1172 -1178 0
435 -1172 1178 0
-435 -1172 -1178 0
-435 1172 1178 0
436 -1176 421 0
436 -421 -437 438 0
436 -1176 -438 0
-436 1176 -438 0
-436 1176 421 0
-436 -421 437 438 0
437 -883 -1173 0
437 883 -1176 0
-437 883 1176 0
-437 -883 1173 0
438 1173 -1180 0
438 -1173 1180 0
-438 -1173 -1180 0
-438 1173 1180 0
439 -1177 421 0
439 -884 -421 -440 0
439 884 -1177 0
-439 1177 421 0
-439 884 1177 0
-439 -884 -421 440 0
440 -1173 1176 0
-440 1173 0
-440 -1176 0
441 -1178 421 0
441 -885 -421 -442 0
441 885 -1178 0
-441 1178 421 0
-441 885 1178 0
-441 -885 -421 442 0
442 -1176 1180 0
-442 1176 0
-442 -1180 0
443 -1179 421 0
443 -886 -421 -444 0
443 886 -1179 0
-443 1179 421 0
-443 886 1179 0
-443 -886 -421 444 0
444 -1177 -1183 0
-444 1177 0
-444 1183 0
445 -1180 421 0
445 -887 -421 -446 0
445 887 -1180 0
-445 1180 421 0
-445 887 1180 0
-445 -887 -421 446 0
-446 1179 1203 0
446 -1179 0
446 -1203 0
447 -1181 421 0
447 -888 -421 -448 0
447 888 -1181 0
-447 1181 421 0
-447 888 1181 0
-447 -888 -421 448 0
448 -1177 -1182 0
-448 1177 0
-448 1182 0
449 -1182 421 0
449 -889 -421 450 0
449 889 -1182 0
-449 1182 421 0
-449 889 1182 0
-449 -889 -421 -450 0
-450 1174 1183 0
450 -1174 0
450 -1183 0
451 -1183 421 0
451 -890 -421 452 0
451 890 -1183 0
-451 1183 421 0
-451 890 1183 0
-451 -890 -421 -452 0
-452 1175 1182 0
452 -1175 0
452 -1182 0
453 -1184 421 0
453 -891 -421 -454 0
453 891 -1184 0
-453 1184 421 0
-453 891 1184 0
-453 -891 -421 454 0
454 -1174 -1183 0
-454 1174 0
-454 1183 0
455 -1185 421 0
455 -892 -421 -456 0
455 892 -1185 0
-455 1185 421 0
-455 892 1185 0
-455 -892 -421 456 0
456 -1175 -1182 0
-456 1175 0
-456 1182 0
457 893 -1186 0
457 -1186 458 0
457 -893 1202 -458 0
-457 1186 458 0
-457 893 1186 0
-457 -893 -1202 -458 0
458 1019 -1020 -200 0
-458 200 0
-458 1020 0
-458 -1019 0
459 -1187 1330 0
459 -1186 -1330 -458 0
459 -1187 458 0
-459 1187 458 0
-459 1187 1330 0
-459 1186 -1330 -458 0
460 -1188 1331 0
460 -1181 -1331 -458 0
460 -1188 458 0
-460 1188 458 0
-460 1188 1331 0
-460 1181 -1331 -458 0
461 -1189 458 0
461 -896 -458 -462 0
461 896 -1189 0
-461 1189 458 0
-461 896 1189 0
-461 -896 -458 462 0
462 -1187 1203 0
-462 1187 0
-462 -1203 0
463 -1190 458 0
463 -897 -458 -464 0
463 897 -1190 0
-463 1190 458 0
-463 897 1190 0
-463 -897 -458 464 0
464 -1188 1202 0
-464 1188 0
-464 -1202 0
465 -1191 458 0
465 -898 -458 -466 0
465 898 -1191 0
-465 1191 458 0
-465 898 1191 0
-465 -898 -458 466 0
-466 1189 1190 0
466 -1189 0
466 -1190 0
467 -1192 458 0
467 -458 -468 469 0
467 -1192 -469 0
-467 1192 -469 0
-467 1192 458 0
-467 -458 468 469 0
468 -899 -1189 0
468 899 -1192 0
-468 899 1192 0
-468 -899 1189 0
469 1189 -1196 0
469 -1189 1196 0
-469 -1189 -1196 0
-469 1189 1196 0
470 -1193 458 0
470 -458 -471 472 0
470 -1193 -472 0
-470 1193 -472 0
-470 1193 458 0
-470 -458 471 472 0
471 -900 -1190 0
471 900 -1193 0
-471 900 1193 0
-471 -900 1190 0
472 1190 -1196 0
472 -1190 1196 0
-472 -1190 -1196 0
-472 1190 1196 0
473 -1194 458 0
473 -458 -474 475 0
473 -1194 -475 0
-473 1194 -475 0
-473 1194 458 0
-473 -458 474 475 0
474 -901 -1191 0
474 901 -1194 0
-474 901 1194 0
-474 -901 1191 0
475 1191 -1198 0
475 -1191 1198 0
-475 -1191 -1198 0
-475 1191 1198 0
476 -1195 458 0
476 -902 -458 -477 0
476 902 -1195 0
-476 1195 458 0
-476 902 1195 0
-476 -902 -458 477 0
477 -1191 1194 0
-477 1191 0
-477 -1194 0
478 -1196 458 0
478 -903 -458 -479 0
478 903 -1196 0
-478 1196 458 0
-478 903 1196 0
-478 -903 -458 479 0
479 -1194 1198 0
-479 1194 0
-479 -1198 0
480 -1197 458 0
480 -904 -458 -481 0
480 904 -1197 0
-480 1197 458 0
-480 904 1197 0
-480 -904 -458 481 0
481 -1195 -1201 0
-481 1195 0
-481 1201 0
482 -1198 458 0
482 -905 -458 -483 0
482 905 -1198 0
-482 1198 458 0
-482 905 1198 0
-482 -905 -458 483 0
-483 1197 1221 0
483 -1197 0
483 -1221 0
484 -1199 458 0
484 -906 -458 -485 0
484 906 -1199 0
-484 1199 458 0
-484 906 1199 0
-484 -906 -458 485 0
485 -1195 -1200 0
-485 1195 0
-485 1200 0
486 -1200 458 0
486 -907 -458 487 0
486 907 -1200 0
-486 1200 458 0
-486 907 1200 0
-486 -907 -458 -487 0
-487 1192 1201 0
487 -1192 0
487 -1201 0
488 -1201 458 0
488 -908 -458 489 0
488 908 -1201 0
-488 1201 458 0
-488 908 1201 0
-488 -908 -458 -489 0
-489 1193 1200 0
489 -1193 0
489 -1200 0
490 -1202 458 0
490 -909 -458 -491 0
490 909 -1202 0
-490 1202 458 0
-490 909 1202 0
-490 -909 -458 491 0
491 -1192 -1201 0
-491 1192 0
-491 1201 0
492 -1203 458 0
492 -910 -458 -493 0
492 910 -1203 0
-492 1203 458 0
-492 910 1203 0
-492 -910 -458 493 0
493 -1193 -1200 0
-493 1193 0
-493 1200 0
494 911 -1204 0
494 -1204 495 0
494 -911 1220 -495 0
-494 1204 495 0
-494 911 1204 0
-494 -911 -1220 -495 0
495 1019 -1020 -238 0
-495 238 0
-495 1020 0
-495 -1019 0
496 -1205 1332 0
496 -1204 -1332 -495 0
496 -1205 495 0
-496 1205 495 0
-496 1205 1332 0
-496 1204 -1332 -495 0
497 -1206 1333 0
497 -1199 -1333 -495 0
497 -1206 495 0
-497 1206 495 0
-497 1206 1333 0
-497 1199 -1333 -495 0
498 -1207 495 0
498 -914 -495 -499 0
498 914 -1207 0
-498 1207 495 0
-498 914 1207 0
-498 -914 -495 499 0
499 -1205 1221 0
-499 1205 0
-499 -1221 0
500 -1208 495 0
500 -915 -495 -501 0
500 915 -1208 0
-500 1208 495 0
-500 915 1208 0
-500 -915 -495 501 0
501 -1206 1220 0
-501 1206 0
-501 -1220 0
502 -1209 495 0
502 -916 -495 -503 0
502 916 -1209 0
-502 1209 495 0
-502 916 1209 0
-502 -916 -495 503 0
-503 1207 1208 0
503 -1207 0
503 -1208 0
504 -1210 495 0
504 -495 -505 506 0
504 -1210 -506 0
-504 1210 -506 0
-504 1210 495 0
-504 -495 505 506 0
505 -917 -1207 0
505 917 -1210 0
-505 917 1210 0
-505 -917 1207 0
506 1207 -1214 0
506 -1207 1214 0
-506 -1207 -1214 0
-506 1207 1214 0
507 -1211 495 0
507 -495 -508 509 0
507 -1211 -509 0
-507 1211 -509 0
-507 1211 495 0
-507 -495 508 509 0
508 -918 -1208 0
508 918 -1211 0
-508 918 1211 0
-508 -918 1208 0
509 1208 -1214 0
509 -1208 1214 0
-509 -1208 -1214 0
-509 1208 1214 0
510 -495 -511 0
510 -1212 495 0
-510 -495 511 0
-510 1212 495 0
511 -1209 -1212 0
511 -1212 -1216 0
511 919 -1212 0
511 -919 -1209 -1216 0
-511 919 1212 0
-511 -919 1209 1216 0
-511 1212 1216 0
-511 1209 1212 0
512 -1213 495 0
512 -920 -495 -513 0
512 920 -1213 0
-512 1213 495 0
-512 920 1213 0
-512 -920 -495 513 0
513 -1209 1212 0
-513 1209 0
-513 -1212 0
514 -1214 495 0
514 -921 -495 -515 0
514 921 -1214 0
-514 1214 495 0
-514 921 1214 0
-514 -921 -495 515 0
515 -1212 1216 0
-515 1212 0
-515 -1216 0
516 -1215 495 0
516 -922 -495 -517 0
516 922 -1215 0
-516 1215 495 0
-516 922 1215 0
-516 -922 -495 517 0
517 -1213 -1219 0
-517 1213 0
-517 1219 0
518 -1216 495 0
518 -923 -495 -519 0
518 923 -1216 0
-518 1216 495 0
-518 923 1216 0
-518 -923 -495 519 0
-519 1215 1239 0
519 -1215 0
519 -1239 0
520 -1217 495 0
520 -924 -495 -521 0
520 924 -1217 0
-520 1217 495 0
-520 924 1217 0
-520 -924 -495 521 0
521 -1213 -1218 0
-521 1213 0
-521 1218 0
522 -1218 495 0
522 -925 -495 523 0
522 925 -1218 0
-522 1218 495 0
-522 925 1218 0
-522 -925 -495 -523 0
-523 1210 1219 0
523 -1210 0
523 -1219 0
524 -1219 495 0
524 -926 -495 525 0
524 926 -1219 0
-524 1219 495 0
-524 926 1219 0
-524 -926 -495 -525 0
-525 1211 1218 0
525 -1211 0
525 -1218 0
526 -1220 495 0
526 -927 -495 -527 0
526 927 -1220 0
-526 1220 495 0
-526 927 1220 0
-526 -927 -495 527 0
527 -1210 -1219 0
-527 1210 0
-527 1219 0
528 -1221 495 0
528 -928 -495 -529 0
528 928 -1221 0
-528 1221 495 0
-528 928 1221 0
-528 -928 -495 529 0
529 -1211 -1218 0
-529 1211 0
-529 1218 0
530 929 -1222 0
530 -1222 531 0
530 -929 1238 -531 0
-530 1222 531 0
-530 929 1222 0
-530 -929 -1238 -531 0
531 1019 -1020 -274 0
-531 274 0
-531 1020 0
-531 -1019 0
532 -1223 1334 0
532 -1222 -1334 -531 0
532 -1223 531 0
-532 1223 531 0
-532 1223 1334 0
-532 1222 -1334 -531 0
533 -1224 1335 0
533 -1217 -1335 -531 0
533 -1224 531 0
-533 1224 531 0
-533 1224 1335 0
-533 1217 -1335 -531 0
534 -1225 531 0
534 -932 -531 -535 0
534 932 -1225 0
-534 1225 531 0
-534 932 1225 0
-534 -932 -531 535 0
535 -1223 1239 0
-535 1223 0
-535 -1239 0
536 -1226 531 0
536 -933 -531 -537 0
536 933 -1226 0
-536 1226 531 0
-536 933 1226 0
-536 -933 -531 537 0
537 -1224 1238 0
-537 1224 0
-537 -1238 0
538 -1227 531 0
538 -934 -531 -539 0
538 934 -1227 0
-538 1227 531 0
-538 934 1227 0
-538 -934 -531 539 0
-539 1225 1226 0
539 -1225 0
539 -1226 0
540 -1228 531 0
540 -531 -541 542 0
540 -1228 -542 0
-540 1228 -542 0
-540 1228 531 0
-540 -531 541 542 0
541 -935 -1225 0
541 935 -1228 0
-541 935 1228 0
-541 -935 1225 0
542 1225 -1232 0
542 -1225 1232 0
-542 -1225 -1232 0
-542 1225 1232 0
543 -1229 531 0
543 -531 -544 545 0
543 -1229 -545 0
-543 1229 -545 0
-543 1229 531 0
-543 -531 544 545 0
544 -936 -1226 0
544 936 -1229 0
-544 936 1229 0
-544 -936 1226 0
545 1226 -1232 0
545 -1226 1232 0
-545 -1226 -1232 0
-545 1226 1232 0
546 -531 -547 0
546 -1230 531 0
-546 -531 547 0
-546 1230 531 0
547 -1227 -1230 0
547 -1230 -1234 0
547 937 -1230 0
547 -937 -1227 -1234 0
-547 937 1230 0
-547 -937 1227 1234 0
-547 1230 1234 0
-547 1227 1230 0
548 -1231 531 0
548 -938 -531 -549 0
548 938 -1231 0
-548 1231 531 0
-548 938 1231 0
-548 -938 -531 549 0
549 -1227 1230 0
-549 1227 0
-549 -1230 0
550 -1232 531 0
550 -939 -531 -551 0
550 939 -1232 0
-550 1232 531 0
-550 939 1232 0
-550 -939 -531 551 0
551 -1230 1234 0
-551 1230 0
-551 -1234 0
552 -1233 531 0
552 -940 -531 -553 0
552 940 -1233 0
-552 1233 531 0
-552 940 1233 0
-552 -940 -531 553 0
553 -1231 -1237 0
-553 1231 0
-553 1237 0
554 -1234 531 0
554 -941 -531 -555 0
554 941 -1234 0
-554 1234 531 0
-554 941 1234 0
-554 -941 -531 555 0
-555 1233 1257 0
555 -1233 0
555 -1257 0
556 -1235 531 0
556 -942 -531 -557 0
556 942 -1235 0
-556 1235 531 0
-556 942 1235 0
-556 -942 -531 557 0
557 -1231 -1236 0
-557 1231 0
-557 1236 0
558 -1236 531 0
558 -943 -531 559 0
558 943 -1236 0
-558 1236 531 0
-558 943 1236 0
-558 -943 -531 -559 0
-559 1228 1237 0
559 -1228 0
559 -1237 0
560 -1237 531 0
560 -944 -531 561 0
560 944 -1237 0
-560 1237 531 0
-560 944 1237 0
-560 -944 -531 -561 0
-561 1229 1236 0
561 -1229 0
561 -1236 0
562 -1238 531 0
562 -945 -531 -563 0
562 945 -1238 0
-562 1238 531 0
-562 945 1238 0
-562 -945 -531 563 0
563 -1228 -1237 0
-563 1228 0
-563 1237 0
564 -1239 531 0
564 -946 -531 -565 0
564 946 -1239 0
-564 1239 531 0
-564 946 1239 0
-564 -946 -531 565 0
565 -1229 -1236 0
-565 1229 0
-565 1236 0
566 947 -1240 0
566 -1240 567 0
566 -947 1256 -567 0
-566 1240 567 0
-566 947 1240 0
-566 -947 -1256 -567 0
567 1019 -1020 -312 0
-567 312 0
-567 1020 0
-567 -1019 0
568 -1241 1336 0
568 -1240 -1336 -567 0
568 -1241 567 0
-568 1241 567 0
-568 1241 1336 0
-568 1240 -1336 -567 0
569 -1242 1337 0
569 -1235 -1337 -567 0
569 -1242 567 0
-569 1242 567 0
-569 1242 1337 0
-569 1235 -1337 -567 0
570 -1243 567 0
570 -950 -567 -571 0
570 950 -1243 0
-570 1243 567 0
-570 950 1243 0
-570 -950 -567 571 0
571 -1241 1257 0
-571 1241 0
-571 -1257 0
572 -1244 567 0
572 -951 -567 -573 0
572 951 -1244 0
-572 1244 567 0
-572 951 1244 0
-572 -951 -567 573 0
573 -1242 1256 0
-573 1242 0
-573 -1256 0
574 -1245 567 0
574 -952 -567 -575 0
574 952 -1245 0
-574 1245 567 0
-574 952 1245 0
-574 -952 -567 575 0
-575 1243 1244 0
575 -1243 0
575 -1244 0
576 -567 -577 0
576 -1246 567 0
-576 -567 577 0
-576 1246 567 0
577 -1243 -1246 0
577 -1246 -1250 0
577 953 -1246 0
577 -953 -1243 -1250 0
-577 953 1246 0
-577 -953 1243 1250 0
-577 1246 1250 0
-577 1243 1246 0
578 -1247 567 0
578 -567 -579 580 0
578 -1247 -580 0
-578 1247 -580 0
-578 1247 567 0
-578 -567 579 580 0
579 -954 -1244 0
579 954 -1247 0
-579 954 1247 0
-579 -954 1244 0
580 1244 -1250 0
580 -1244 1250 0
-580 -1244 -1250 0
-580 1244 1250 0
581 -1248 567 0
581 -567 -582 583 0
581 -1248 -583 0
-581 1248 -583 0
-581 1248 567 0
-581 -567 582 583 0
582 -955 -1245 0
582 955 -1248 0
-582 955 1248 0
-582 -955 1245 0
583 1245 -1252 0
583 -1245 1252 0
-583 -1245 -1252 0
-583 1245 1252 0
584 -1249 567 0
584 -956 -567 -585 0
584 956 -1249 0
-584 1249 567 0
-584 956 1249 0
-584 -956 -567 585 0
585 -1245 1248 0
-585 1245 0
-585 -1248 0
586 -1250 567 0
586 -957 -567 -587 0
586 957 -1250 0
-586 1250 567 0
-586 957 1250 0
-586 -957 -567 587 0
587 -1248 1252 0
-587 1248 0
-587 -1252 0
588 -1251 567 0
588 -958 -567 -589 0
588 958 -1251 0
-588 1251 567 0
-588 958 1251 0
-588 -958 -567 589 0
589 -1249 -1255 0
-589 1249 0
-589 1255 0
590 -1252 567 0
590 -959 -567 -591 0
590 959 -1252 0
-590 1252 567 0
-590 959 1252 0
-590 -959 -567 591 0
-591 1251 1275 0
591 -1251 0
591 -1275 0
592 -1253 567 0
592 -960 -567 -593 0
592 960 -1253 0
-592 1253 567 0
-592 960 1253 0
-592 -960 -567 593 0
593 -1249 -1254 0
-593 1249 0
-593 1254 0
594 -1254 567 0
594 -961 -567 595 0
594 961 -1254 0
-594 1254 567 0
-594 961 1254 0
-594 -961 -567 -595 0
-595 1246 1255 0
595 -1246 0
595 -1255 0
596 -1255 567 0
596 -962 -567 597 0
596 962 -1255 0
-596 1255 567 0
-596 962 1255 0
-596 -962 -567 -597 0
-597 1247 1254 0
597 -1247 0
597 -1254 0
598 -1256 567 0
598 -963 -567 -599 0
598 963 -1256 0
-598 1256 567 0
-598 963 1256 0
-598 -963 -567 599 0
599 -1246 -1255 0
-599 1246 0
-599 1255 0
600 -1257 567 0
600 -964 -567 -601 0
600 964 -1257 0
-600 1257 567 0
-600 964 1257 0
-600 -964 -567 601 0
601 -1247 -1254 0
-601 1247 0
-601 1254 0
602 965 -1258 0
602 -1258 603 0
602 -965 1274 -603 0
-602 1258 603 0
-602 965 1258 0
-602 -965 -1274 -603 0
603 1019 -1020 -349 0
-603 349 0
-603 1020 0
-603 -1019 0
604 -1259 1338 0
604 -1258 -1338 -603 0
604 -1259 603 0
-604 1259 603 0
-604 1259 1338 0
-604 1258 -1338 -603 0
605 -1260 1339 0
605 -1253 -1339 -603 0
605 -1260 603 0
-605 1260 603 0
-605 1260 1339 0
-605 1253 -1339 -603 0
606 -1261 603 0
606 -968 -603 -607 0
606 968 -1261 0
-606 1261 603 0
-606 968 1261 0
-606 -968 -603 607 0
607 -1259 1275 0
-607 1259 0
-607 -1275 0
608 -1262 603 0
608 -969 -603 -609 0
608 969 -1262 0
-608 1262 603 0
-608 969 1262 0
-608 -969 -603 609 0
609 -1260 1274 0
-609 1260 0
-609 -1274 0
610 -1263 603 0
610 -970 -603 -611 0
610 970 -1263 0
-610 1263 603 0
-610 970 1263 0
-610 -970 -603 611 0
-611 1261 1262 0
611 -1261 0
611 -1262 0
612 -603 -613 0
612 -1264 603 0
-612 -603 613 0
-612 1264 603 0
613 -1261 -1264 0
613 -1264 -1268 0
613 971 -1264 0
613 -971 -1261 -1268 0
-613 971 1264 0
-613 -971 1261 1268 0
-613 1264 1268 0
-613 1261 1264 0
614 -603 -615 0
614 -1265 603 0
-614 -603 615 0
-614 1265 603 0
615 -1262 -1265 0
615 -1265 -1268 0
615 972 -1265 0
615 -972 -1262 -1268 0
-615 972 1265 0
-615 -972 1262 1268 0
-615 1265 1268 0
-615 1262 1265 0
616 -1266 603 0
616 -603 -617 618 0
616 -1266 -618 0
-616 1266 -618 0
-616 1266 603 0
-616 -603 617 618 0
617 -973 -1263 0
617 973 -1266 0
-617 973 1266 0
-617 -973 1263 0
618 1263 -1270 0
618 -1263 1270 0
-618 -1263 -1270 0
-618 1263 1270 0
619 -1267 603 0
619 -974 -603 -620 0
619 974 -1267 0
-619 1267 603 0
-619 974 1267 0
-619 -974 -603 620 0
620 -1263 1266 0
-620 1263 0
-620 -1266 0
621 -1268 603 0
621 -975 -603 -622 0
621 975 -1268 0
-621 1268 603 0
-621 975 1268 0
-621 -975 -603 622 0
622 -1266 1270 0
-622 1266 0
-622 -1270 0
623 -1269 603 0
623 -976 -603 -624 0
623 976 -1269 0
-623 1269 603 0
-623 976 1269 0
-623 -976 -603 624 0
624 -1267 -1273 0
-624 1267 0
-624 1273 0
625 -1270 603 0
625 -977 -603 -626 0
625 977 -1270 0
-625 1270 603 0
-625 977 1270 0
-625 -977 -603 626 0
-626 1269 1293 0
626 -1269 0
626 -1293 0
627 -1271 603 0
627 -978 -603 -628 0
627 978 -1271 0
-627 1271 603 0
-627 978 1271 0
-627 -978 -603 628 0
628 -1267 -1272 0
-628 1267 0
-628 1272 0
629 -1272 603 0
629 -979 -603 630 0
629 979 -1272 0
-629 1272 603 0
-629 979 1272 0
-629 -979 -603 -630 0
-630 1264 1273 0
630 -1264 0
630 -1273 0
631 -1273 603 0
631 -980 -603 632 0
631 980 -1273 0
-631 1273 603 0
-631 980 1273 0
-631 -980 -603 -632 0
-632 1265 1272 0
632 -1265 0
632 -1272 0
633 -1274 603 0
633 -981 -603 -634 0
633 981 -1274 0
-633 1274 603 0
-633 981 1274 0
-633 -981 -603 634 0
634 -1264 -1273 0
-634 1264 0
-634 1273 0
635 -1275 603 0
635 -982 -603 -636 0
635 982 -1275 0
-635 1275 603 0
-635 982 1275 0
-635 -982 -603 636 0
636 -1265 -1272 0
-636 1265 0
-636 1272 0
637 983 -1276 0
637 -1276 638 0
637 -983 1292 -638 0
-637 1276 638 0
-637 983 1276 0
-637 -983 -1292 -638 0
638 1019 -1020 639 0
-638 -639 0
-638 1020 0
-638 -1019 0
-639 1021 1022 1023 0
639 -1021 0
639 -1023 0
639 -1022 0
640 -1277 1340 0
640 -1276 -1340 -638 0
640 -1277 638 0
-640 1277 638 0
-640 1277 1340 0
-640 1276 -1340 -638 0
641 -1278 1341 0
641 -1271 -1341 -638 0
641 -1278 638 0
-641 1278 638 0
-641 1278 1341 0
-641 1271 -1341 -638 0
642 -1279 638 0
642 -986 -638 -643 0
642 986 -1279 0
-642 1279 638 0
-642 986 1279 0
-642 -986 -638 643 0
643 -1277 1293 0
-643 1277 0
-643 -1293 0
644 -1280 638 0
644 -987 -638 -645 0
644 987 -1280 0
-644 1280 638 0
-644 987 1280 0
-644 -987 -638 645 0
645 -1278 1292 0
-645 1278 0
-645 -1292 0
646 -1281 638 0
646 -988 -638 -647 0
646 988 -1281 0
-646 1281 638 0
-646 988 1281 0
-646 -988 -638 647 0
-647 1279 1280 0
647 -1279 0
647 -1280 0
648 -1282 638 0
648 -638 -649 650 0
648 -1282 -650 0
-648 1282 -650 0
-648 1282 638 0
-648 -638 649 650 0
649 -989 -1279 0
649 989 -1282 0
-649 989 1282 0
-649 -989 1279 0
650 1279 -1286 0
650 -1279 1286 0
-650 -1279 -1286 0
-650 1279 1286 0
651 -1283 638 0
651 -638 -652 653 0
651 -1283 -653 0
-651 1283 -653 0
-651 1283 638 0
-651 -638 652 653 0
652 -990 -1280 0
652 990 -1283 0
-652 990 1283 0
-652 -990 1280 0
653 1280 -1286 0
653 -1280 1286 0
-653 -1280 -1286 0
-653 1280 1286 0
654 -1284 638 0
654 -638 -655 656 0
654 -1284 -656 0
-654 1284 -656 0
-654 1284 638 0
-654 -638 655 656 0
655 -991 -1281 0
655 991 -1284 0
-655 991 1284 0
-655 -991 1281 0
656 1281 -1288 0
656 -1281 1288 0
-656 -1281 -1288 0
-656 1281 1288 0
657 -1285 638 0
657 -992 -638 -658 0
657 992 -1285 0
-657 1285 638 0
-657 992 1285 0
-657 -992 -638 658 0
658 -1281 1284 0
-658 1281 0
-658 -1284 0
659 -1286 638 0
659 -993 -638 -660 0
659 993 -1286 0
-659 1286 638 0
-659 993 1286 0
-659 -993 -638 660 0
660 -1284 1288 0
-660 1284 0
-660 -1288 0
661 -1287 638 0
661 -994 -638 -662 0
661 994 -1287 0
-661 1287 638 0
-661 994 1287 0
-661 -994 -638 662 0
662 -1285 -1291 0
-662 1285 0
-662 1291 0
663 -1288 638 0
663 -995 -638 -664 0
663 995 -1288 0
-663 1288 638 0
-663 995 1288 0
-663 -995 -638 664 0
-664 1287 1311 0
664 -1287 0
664 -1311 0
665 -1289 638 0
665 -996 -638 -666 0
665 996 -1289 0
-665 1289 638 0
-665 996 1289 0
-665 -996 -638 666 0
666 -1285 -1290 0
-666 1285 0
-666 1290 0
667 -1290 638 0
667 -997 -638 668 0
667 997 -1290 0
-667 1290 638 0
-667 997 1290 0
-667 -997 -638 -668 0
-668 1282 1291 0
668 -1282 0
668 -1291 0
669 -1291 638 0
669 -998 -638 670 0
669 998 -1291 0
-669 1291 638 0
-669 998 1291 0
-669 -998 -638 -670 0
-670 1283 1290 0
670 -1283 0
670 -1290 0
671 -1292 638 0
671 -999 -638 -672 0
671 999 -1292 0
-671 1292 638 0
-671 999 1292 0
-671 -999 -638 672 0
672 -1282 -1291 0
-672 1282 0
-672 1291 0
673 -1293 638 0
673 -1000 -638 -674 0
673 1000 -1293 0
-673 1293 638 0
-673 1000 1293 0
-673 -1000 -638 674 0
674 -1283 -1290 0
-674 1283 0
-674 1290 0
675 1001 -1294 0
675 -1294 -676 0
675 -1001 1310 676 0
-675 1294 -676 0
-675 1001 1294 0
-675 -1001 -1310 676 0
-676 1019 123 0
676 -1019 0
676 -123 0
677 -1295 1342 0
677 -1294 -1342 676 0
677 -1295 -676 0
-677 1295 -676 0
-677 1295 1342 0
-677 1294 -1342 676 0
678 -1296 1343 0
678 -1289 -1343 676 0
678 -1296 -676 0
-678 1296 -676 0
-678 1296 1343 0
-678 1289 -1343 676 0
679 -1297 -676 0
679 -1004 676 -680 0
679 1004 -1297 0
-679 1297 -676 0
-679 1004 1297 0
-679 -1004 676 680 0
680 -1295 1311 0
-680 1295 0
-680 -1311 0
681 -1298 -676 0
681 -1005 676 -682 0
681 1005 -1298 0
-681 1298 -676 0
-681 1005 1298 0
-681 -1005 676 682 0
682 -1296 1310 0
-682 1296 0
-682 -1310 0
683 -1299 -676 0
683 -1006 676 -684 0
683 1006 -1299 0
-683 1299 -676 0
-683 1006 1299 0
-683 -1006 676 684 0
-684 1297 1298 0
684 -1297 0
684 -1298 0
685 -1300 -676 0
685 676 -686 687 0
685 -1300 -687 0
-685 1300 -687 0
-685 1300 -676 0
-685 676 686 687 0
686 -1007 -1297 0
686 1007 -1300 0
-686 1007 1300 0
-686 -1007 1297 0
687 1297 -1304 0
687 -1297 1304 0
-687 -1297 -1304 0
-687 1297 1304 0
688 -1301 -676 0
688 676 -689 690 0
688 -1301 -690 0
-688 1301 -690 0
-688 1301 -676 0
-688 676 689 690 0
689 -1008 -1298 0
689 1008 -1301 0
-689 1008 1301 0
-689 -1008 1298 0
690 1298 -1304 0
690 -1298 1304 0
-690 -1298 -1304 0
-690 1298 1304 0
691 676 -692 0
691 -1302 -676 0
-691 676 692 0
-691 1302 -676 0
692 -1299 -1302 0
692 -1302 -1306 0
692 1009 -1302 0
692 -1009 -1299 -1306 0
-692 1009 1302 0
-692 -1009 1299 1306 0
-692 1302 1306 0
-692 1299 1302 0
693 -1303 -676 0
693 -1010 676 -694 0
693 1010 -1303 0
-693 1303 -676 0
-693 1010 1303 0
-693 -1010 676 694 0
694 -1299 1302 0
-694 1299 0
-694 -1302 0
695 -1304 -676 0
695 -1011 676 -696 0
695 1011 -1304 0
-695 1304 -676 0
-695 1011 1304 0
-695 -1011 676 696 0
696 -1302 1306 0
-696 1302 0
-696 -1306 0
697 -1305 -676 0
697 -1012 676 -698 0
697 1012 -1305 0
-697 1305 -676 0
-697 1012 1305 0
-697 -1012 676 698 0
698 -1303 -1309 0
-698 1303 0
-698 1309 0
699 -1306 -676 0
699 -1013 676 -700 0
699 1013 -1306 0
-699 1306 -676 0
-699 1013 1306 0
-699 -1013 676 700 0
-700 1041 1305 0
700 -1041 0
700 -1305 0
701 -1307 -676 0
701 -1014 676 -702 0
701 1014 -1307 0
-701 1307 -676 0
-701 1014 1307 0
-701 -1014 676 702 0
702 -1303 -1308 0
-702 1303 0
-702 1308 0
703 -1308 -676 0
703 -1015 676 704 0
703 1015 -1308 0
-703 1308 -676 0
-703 1015 1308 0
-703 -1015 676 -704 0
-704 1300 1309 0
704 -1300 0
704 -1309 0
705 -1309 -676 0
705 -1016 676 706 0
705 1016 -1309 0
-705 1309 -676 0
-705 1016 1309 0
-705 -1016 676 -706 0
-706 1301 1308 0
706 -1301 0
706 -1308 0
707 -1310 -676 0
707 -1017 676 -708 0
707 1017 -1310 0
-707 1310 -676 0
-707 1017 1310 0
-707 -1017 676 708 0
708 -1300 -1309 0
-708 1300 0
-708 1309 0
709 -1311 -676 0
709 -1018 676 -710 0
709 1018 -1311 0
-709 1311 -676 0
-709 1018 1311 0
-709 -1018 676 710 0
710 -1301 -1308 0
-710 1301 0
-710 1308 0
-711 1344 677 712 0
-711 1344 678 712 0
711 -1344 0
711 -712 0
711 -677 -678 0
-712 605 713 714 0
-712 604 713 714 0
712 -714 0
712 -713 0
712 -604 -605 0
713 -640 -641 0
-713 640 0
-713 641 0
-714 533 715 716 0
-714 532 715 716 0
714 -716 0
714 -715 0
714 -532 -533 0
715 -568 -569 0
-715 568 0
-715 569 0
-716 460 717 718 0
-716 459 717 718 0
716 -718 0
716 -717 0
716 -459 -460 0
717 -496 -497 0
-717 496 0
-717 497 0
-718 387 719 720 0
-718 386 719 720 0
718 -720 0
718 -719 0
718 -386 -387 0
719 -422 -423 0
-719 422 0
-719 423 0
-720 314 721 722 0
-720 313 721 722 0
720 -722 0
720 -721 0
720 -313 -314 0
721 -350 -351 0
-721 350 0
-721 351 0
-722 240 723 724 0
-722 239 723 724 0
722 -724 0
722 -723 0
722 -239 -240 0
723 -275 -276 0
-723 275 0
-723 276 0
-724 202 725 0
-724 201 725 0
724 -725 0
724 -201 -202 0
-725 128 164 0
-725 127 165 0
-725 128 165 0
-725 127 164 0
725 -127 -128 0
725 -164 -165 0
-1345 0
2 0
3 0
4 0
5 0
6 0
7 0
8 0
9 0
10 0
11 0
12 0
13 0
14 0
15 0
16 0
17 0
18 0
19 0
20 0
21 0
22 0
23 0
24 0
25 0
26 0
27 0
28 0
29 0
30 0
31 0
32 0
33 0
34 0
35 0
36 0
37 0
38 0
39 0
40 0
41 0
42 0
43 0
44 0
45 0
46 0
47 0
48 0
49 0
50 0
51 0
52 0
53 0
54 0
55 0
56 0
57 0
58 0
59 0
60 0
61 0
62 0
63 0
64 0
65 0
66 0
67 0
68 0
69 0
70 0
71 0
72 0
73 0
74 0
75 0
76 0
77 0
78 0
79 0
80 0
81 0
82 0
83 0
84 0
85 0
86 0
87 0
88 0
89 0
90 0
91 0
92 0
93 0
94 0
95 0
96 0
97 0
98 0
99 0
100 0
101 0
102 0
103 0
104 0
105 0
106 0
107 0
108 0
109 0
110 0
111 0
112 0
113 0
114 0
115 0
116 0
117 0
118 0
119 0
120 0
121 0
122 0
726 0
727 0
728 0
729 0
730 0
124 0
127 0
128 0
129 0
131 0
133 0
135 0
137 0
140 0
143 0
145 0
147 0
149 0
151 0
153 0
155 0
157 0
159 0
161 0
164 0
165 0
166 0
168 0
170 0
172 0
174 0
177 0
180 0
182 0
184 0
186 0
188 0
190 0
192 0
194 0
196 0
198 0
201 0
202 0
203 0
205 0
207 0
209 0
212 0
215 0
218 0
220 0
222 0
224 0
226 0
228 0
230 0
232 0
234 0
236 0
239 0
240 0
241 0
243 0
245 0
247 0
250 0
252 0
254 0
256 0
258 0
260 0
262 0
264 0
266 0
268 0
270 0
272 0
275 0
276 0
277 0
279 0
281 0
283 0
286 0
289 0
292 0
294 0
296 0
298 0
300 0
302 0
304 0
306 0
308 0
310 0
313 0
314 0
315 0
317 0
319 0
321 0
323 0
326 0
329 0
331 0
333 0
335 0
337 0
339 0
341 0
343 0
345 0
347 0
350 0
351 0
352 0
354 0
356 0
358 0
361 0
364 0
366 0
368 0
370 0
372 0
374 0
376 0
378 0
380 0
382 0
384 0
386 0
387 0
388 0
390 0
392 0
394 0
396 0
399 0
402 0
404 0
406 0
408 0
410 0
412 0
414 0
416 0
418 0
420 0
422 0
423 0
424 0
426 0
428 0
430 0
433 0
436 0
439 0
441 0
443 0
445 0
447 0
449 0
451 0
453 0
455 0
457 0
459 0
460 0
461 0
463 0
465 0
467 0
470 0
473 0
476 0
478 0
480 0
482 0
484 0
486 0
488 0
490 0
492 0
494 0
496 0
497 0
498 0
500 0
502 0
504 0
507 0
510 0
512 0
514 0
516 0
518 0
520 0
522 0
524 0
526 0
528 0
530 0
532 0
533 0
534 0
536 0
538 0
540 0
543 0
546 0
548 0
550 0
552 0
554 0
556 0
558 0
560 0
562 0
564 0
566 0
568 0
569 0
570 0
572 0
574 0
576 0
578 0
581 0
584 0
586 0
588 0
590 0
592 0
594 0
596 0
598 0
600 0
602 0
604 0
605 0
606 0
608 0
610 0
612 0
614 0
616 0
619 0
621 0
623 0
625 0
627 0
629 0
631 0
633 0
635 0
637 0
640 0
641 0
642 0
644 0
646 0
648 0
651 0
654 0
657 0
659 0
661 0
663 0
665 0
667 0
669 0
671 0
673 0
675 0
677 0
678 0
679 0
681 0
683 0
685 0
688 0
691 0
693 0
695 0
697 0
699 0
701 0
703 0
705 0
707 0
709 0
732 0
733 0
750 0
751 0
768 0
769 0
786 0
787 0
804 0
805 0
822 0
823 0
840 0
841 0
858 0
859 0
876 0
877 0
894 0
895 0
912 0
913 0
930 0
931 0
948 0
949 0
966 0
967 0
984 0
985 0
1002 0
1003 0
711 0

