c Result of efficient AIG-to-CNF conversion using package CNF
p cnf 119 368
2 -94 95 -3 19 0
-2 -19 0
-2 94 0
-2 3 0
-2 -95 0
3 109 -4 0
3 110 -4 0
-3 4 0
-3 -109 -110 0
-4 95 5 0
4 -95 0
4 -5 0
-5 96 6 0
5 -96 0
5 -6 0
-6 97 7 0
6 -97 0
6 -7 0
-7 98 117 8 0
-7 98 118 8 0
7 -98 0
7 -8 0
7 -117 -118 0
-8 116 9 18 0
-8 115 9 18 0
8 -9 0
8 -18 0
8 -115 -116 0
-9 10 11 16 17 0
9 -11 0
9 -17 0
9 -10 0
9 -16 0
10 -109 -110 0
-10 109 0
-10 110 0
-11 12 13 14 15 0
11 -15 0
11 -14 0
11 -12 0
11 -13 0
12 -99 -100 0
-12 99 0
-12 100 0
13 -101 -102 0
-13 101 0
-13 102 0
14 -103 -104 0
-14 103 0
-14 104 0
15 -105 -106 0
-15 105 0
-15 106 0
16 -107 -108 0
-16 107 0
-16 108 0
17 -111 -112 0
-17 111 0
-17 112 0
18 -113 -114 0
-18 113 0
-18 114 0
-19 96 97 98 0
19 -96 0
19 -98 0
19 -97 0
20 -21 -22 0
-20 21 0
-20 22 0
21 -98 8 0
21 -98 -117 -118 0
-21 98 0
-21 117 -8 0
-21 118 -8 0
22 -97 7 0
22 -97 -115 -116 0
-22 97 0
-22 115 -7 0
-22 116 -7 0
23 -21 -24 0
-23 21 0
-23 24 0
24 -96 6 0
24 -96 -113 -114 0
-24 96 0
-24 113 -6 0
-24 114 -6 0
25 -22 -24 0
-25 22 0
-25 24 0
26 -21 -27 0
-26 21 0
-26 27 0
27 -95 5 0
27 -95 -111 -112 0
-27 95 0
-27 111 -5 0
-27 112 -5 0
28 -22 -27 0
-28 22 0
-28 27 0
29 -24 -27 0
-29 24 0
-29 27 0
30 -21 -31 0
-30 21 0
-30 31 0
31 -94 3 0
-31 94 0
-31 -3 0
32 -22 -31 0
-32 22 0
-32 31 0
33 -24 -31 0
-33 24 0
-33 31 0
34 -27 -31 0
-34 27 0
-34 31 0
35 -21 -36 0
-35 21 0
-35 36 0
36 -93 37 0
36 -93 -107 -108 0
-36 93 0
-36 107 -37 0
-36 108 -37 0
-37 94 4 0
37 -94 0
37 -4 0
38 -22 -36 0
-38 22 0
-38 36 0
39 -24 -36 0
-39 24 0
-39 36 0
40 -27 -36 0
-40 27 0
-40 36 0
41 -31 -36 0
-41 31 0
-41 36 0
42 -21 -43 0
-42 21 0
-42 43 0
43 -92 44 0
43 -92 -105 -106 0
-43 92 0
-43 105 -44 0
-43 106 -44 0
-44 93 37 0
44 -93 0
44 -37 0
45 -22 -43 0
-45 22 0
-45 43 0
46 -24 -43 0
-46 24 0
-46 43 0
47 -27 -43 0
-47 27 0
-47 43 0
48 -31 -43 0
-48 31 0
-48 43 0
49 -36 -43 0
-49 36 0
-49 43 0
50 -21 -51 0
-50 21 0
-50 51 0
51 -91 52 0
51 -91 -103 -104 0
-51 91 0
-51 103 -52 0
-51 104 -52 0
-52 92 44 0
52 -92 0
52 -44 0
53 -22 -51 0
-53 22 0
-53 51 0
54 -24 -51 0
-54 24 0
-54 51 0
55 -27 -51 0
-55 27 0
-55 51 0
56 -31 -51 0
-56 31 0
-56 51 0
57 -36 -51 0
-57 36 0
-57 51 0
58 -43 -51 0
-58 43 0
-58 51 0
59 -21 -60 0
-59 21 0
-59 60 0
60 -90 61 0
60 -90 -101 -102 0
-60 90 0
-60 101 -61 0
-60 102 -61 0
-61 91 52 0
61 -91 0
61 -52 0
62 -22 -60 0
-62 22 0
-62 60 0
63 -24 -60 0
-63 24 0
-63 60 0
64 -27 -60 0
-64 27 0
-64 60 0
65 -31 -60 0
-65 31 0
-65 60 0
66 -36 -60 0
-66 36 0
-66 60 0
67 -43 -60 0
-67 43 0
-67 60 0
68 -51 -60 0
-68 51 0
-68 60 0
69 -21 -70 0
-69 21 0
-69 70 0
70 -89 -12 0
70 -89 90 61 0
-70 89 0
-70 -90 12 0
-70 12 -61 0
71 -22 -70 0
-71 22 0
-71 70 0
72 -24 -70 0
-72 24 0
-72 70 0
73 -27 -70 0
-73 27 0
-73 70 0
74 -31 -70 0
-74 31 0
-74 70 0
75 -36 -70 0
-75 36 0
-75 70 0
76 -43 -70 0
-76 43 0
-76 70 0
77 -51 -70 0
-77 51 0
-77 70 0
78 -60 -70 0
-78 60 0
-78 70 0
79 -89 -99 0
79 -89 -100 0
-79 89 0
-79 99 100 0
80 -90 -101 0
80 -90 -102 0
-80 90 0
-80 101 102 0
81 -91 -103 0
81 -91 -104 0
-81 91 0
-81 103 104 0
82 -92 -105 0
82 -92 -106 0
-82 92 0
-82 105 106 0
83 -93 -107 0
83 -93 -108 0
-83 93 0
-83 107 108 0
84 -94 -109 0
84 -94 -110 0
-84 94 0
-84 109 110 0
85 -95 -111 0
85 -95 -112 0
-85 95 0
-85 111 112 0
86 -96 -113 0
86 -96 -114 0
-86 96 0
-86 113 114 0
87 -97 -115 0
87 -97 -116 0
-87 97 0
-87 115 116 0
88 -98 -117 0
88 -98 -118 0
-88 98 0
-88 117 118 0
-119 0
2 0
20 0
23 0
25 0
26 0
28 0
29 0
30 0
32 0
33 0
34 0
35 0
38 0
39 0
40 0
41 0
42 0
45 0
46 0
47 0
48 0
49 0
50 0
53 0
54 0
55 0
56 0
57 0
58 0
59 0
62 0
63 0
64 0
65 0
66 0
67 0
68 0
69 0
71 0
72 0
73 0
74 0
75 0
76 0
77 0
78 0
79 0
102 0
80 0
104 0
81 0
106 0
82 0
108 0
83 0
110 0
84 0
112 0
85 0
114 0
86 0
116 0
87 0
118 0
88 0
100 0

