c Result of efficient AIG-to-CNF conversion using package CNF
p cnf 48 136
2 -33 34 -3 12 0
-2 -12 0
-2 33 0
-2 3 0
-2 -34 0
3 4 -5 0
3 -34 4 0
-3 -4 0
-3 34 5 0
4 -38 -39 0
-4 38 0
-4 39 0
-5 35 6 0
5 -35 0
5 -6 0
-6 36 7 0
6 -36 0
6 -7 0
-7 37 46 8 0
-7 37 47 8 0
7 -37 0
7 -8 0
7 -46 -47 0
-8 4 9 10 11 0
8 -11 0
8 -10 0
8 -4 0
8 -9 0
9 -40 -41 0
-9 40 0
-9 41 0
10 -42 -43 0
-10 42 0
-10 43 0
11 -44 -45 0
-11 44 0
-11 45 0
-12 35 36 37 0
12 -35 0
12 -37 0
12 -36 0
13 -14 -15 0
-13 14 0
-13 15 0
14 -37 8 0
14 -37 -46 -47 0
-14 37 0
-14 46 -8 0
-14 47 -8 0
15 -36 7 0
15 -36 -44 -45 0
-15 36 0
-15 44 -7 0
-15 45 -7 0
16 -14 -17 0
-16 14 0
-16 17 0
17 -35 6 0
17 -35 -42 -43 0
-17 35 0
-17 42 -6 0
-17 43 -6 0
18 -15 -17 0
-18 15 0
-18 17 0
19 -14 -20 0
-19 14 0
-19 20 0
20 -34 5 0
20 -34 -40 -41 0
-20 34 0
-20 40 -5 0
-20 41 -5 0
21 -15 -20 0
-21 15 0
-21 20 0
22 -17 -20 0
-22 17 0
-22 20 0
23 -14 -24 0
-23 14 0
-23 24 0
24 -33 3 0
-24 33 0
-24 -3 0
25 -15 -24 0
-25 15 0
-25 24 0
26 -17 -24 0
-26 17 0
-26 24 0
27 -20 -24 0
-27 20 0
-27 24 0
28 -33 -38 0
28 -33 -39 0
-28 33 0
-28 38 39 0
29 -34 -40 0
29 -34 -41 0
-29 34 0
-29 40 41 0
30 -35 -42 0
30 -35 -43 0
-30 35 0
-30 42 43 0
31 -36 -44 0
31 -36 -45 0
-31 36 0
-31 44 45 0
32 -37 -46 0
32 -37 -47 0
-32 37 0
-32 46 47 0
-48 0
2 0
13 0
16 0
18 0
19 0
21 0
22 0
23 0
25 0
26 0
27 0
28 0
41 0
29 0
43 0
30 0
45 0
31 0
47 0
32 0
39 0

