c Result of efficient AIG-to-CNF conversion using package CNF
p cnf 235 599
2 -208 -226 234 0
-2 208 0
-2 226 0
-2 -234 0
3 -190 -226 234 0
-3 190 0
-3 226 0
-3 -234 0
4 -190 -208 234 0
-4 190 0
-4 208 0
-4 -234 0
5 118 -174 0
5 -174 6 0
5 -118 190 -6 0
-5 174 6 0
-5 118 174 0
-5 -118 -190 -6 0
6 -172 173 0
-6 172 0
-6 -173 0
7 -175 228 0
7 -174 -228 -6 0
7 -175 6 0
-7 175 6 0
-7 175 228 0
-7 174 -228 -6 0
8 -176 6 0
8 -223 -229 -6 0
8 -176 229 0
-8 176 6 0
-8 223 -229 -6 0
-8 176 229 0
9 -177 6 0
9 -121 -6 -10 0
9 121 -177 0
-9 177 6 0
-9 121 177 0
-9 -121 -6 10 0
10 -175 191 0
-10 175 0
-10 -191 0
11 -178 6 0
11 -122 -6 -12 0
11 122 -178 0
-11 178 6 0
-11 122 178 0
-11 -122 -6 12 0
12 -176 190 0
-12 176 0
-12 -190 0
13 -179 6 0
13 -123 -6 -14 0
13 123 -179 0
-13 179 6 0
-13 123 179 0
-13 -123 -6 14 0
-14 177 178 0
14 -177 0
14 -178 0
15 -180 6 0
15 -6 -16 17 0
15 -180 -17 0
-15 180 -17 0
-15 180 6 0
-15 -6 16 17 0
16 -124 -177 0
16 124 -180 0
-16 124 180 0
-16 -124 177 0
17 177 -184 0
17 -177 184 0
-17 -177 -184 0
-17 177 184 0
18 -181 6 0
18 -6 -19 20 0
18 -181 -20 0
-18 181 -20 0
-18 181 6 0
-18 -6 19 20 0
19 -125 -178 0
19 125 -181 0
-19 125 181 0
-19 -125 178 0
20 178 -184 0
20 -178 184 0
-20 -178 -184 0
-20 178 184 0
21 -6 -22 0
21 -182 6 0
-21 -6 22 0
-21 182 6 0
22 -179 -182 0
22 -182 -186 0
22 126 -182 0
22 -126 -179 -186 0
-22 126 182 0
-22 -126 179 186 0
-22 182 186 0
-22 179 182 0
23 -183 6 0
23 -127 -6 -24 0
23 127 -183 0
-23 183 6 0
-23 127 183 0
-23 -127 -6 24 0
24 -179 182 0
-24 179 0
-24 -182 0
25 -184 6 0
25 -128 -6 -26 0
25 128 -184 0
-25 184 6 0
-25 128 184 0
-25 -128 -6 26 0
26 -182 186 0
-26 182 0
-26 -186 0
27 -185 6 0
27 -129 -6 -28 0
27 129 -185 0
-27 185 6 0
-27 129 185 0
-27 -129 -6 28 0
28 -183 -189 0
-28 183 0
-28 189 0
29 -186 6 0
29 -130 -6 -30 0
29 130 -186 0
-29 186 6 0
-29 130 186 0
-29 -130 -6 30 0
-30 185 209 0
30 -185 0
30 -209 0
31 -187 6 0
31 -131 -6 -32 0
31 131 -187 0
-31 187 6 0
-31 131 187 0
-31 -131 -6 32 0
32 -183 -188 0
-32 183 0
-32 188 0
33 -188 6 0
33 -132 -6 34 0
33 132 -188 0
-33 188 6 0
-33 132 188 0
-33 -132 -6 -34 0
-34 180 189 0
34 -180 0
34 -189 0
35 -189 6 0
35 -133 -6 36 0
35 133 -189 0
-35 189 6 0
-35 133 189 0
-35 -133 -6 -36 0
-36 181 188 0
36 -181 0
36 -188 0
37 -190 6 0
37 -134 -6 -38 0
37 134 -190 0
-37 190 6 0
-37 134 190 0
-37 -134 -6 38 0
38 -180 -189 0
-38 180 0
-38 189 0
39 -191 6 0
39 -135 -6 -40 0
39 135 -191 0
-39 191 6 0
-39 135 191 0
-39 -135 -6 40 0
40 -181 -188 0
-40 181 0
-40 188 0
41 136 -192 0
41 -192 42 0
41 -136 208 -42 0
-41 192 42 0
-41 136 192 0
-41 -136 -208 -42 0
42 172 -173 0
-42 -172 0
-42 173 0
43 -193 230 0
43 -192 -230 -42 0
43 -193 42 0
-43 193 42 0
-43 193 230 0
-43 192 -230 -42 0
44 -194 231 0
44 -187 -231 -42 0
44 -194 42 0
-44 194 42 0
-44 194 231 0
-44 187 -231 -42 0
45 -195 42 0
45 -139 -42 -46 0
45 139 -195 0
-45 195 42 0
-45 139 195 0
-45 -139 -42 46 0
46 -193 209 0
-46 193 0
-46 -209 0
47 -196 42 0
47 -140 -42 -48 0
47 140 -196 0
-47 196 42 0
-47 140 196 0
-47 -140 -42 48 0
48 -194 208 0
-48 194 0
-48 -208 0
49 -197 42 0
49 -141 -42 -50 0
49 141 -197 0
-49 197 42 0
-49 141 197 0
-49 -141 -42 50 0
-50 195 196 0
50 -195 0
50 -196 0
51 -198 42 0
51 -42 -52 53 0
51 -198 -53 0
-51 198 -53 0
-51 198 42 0
-51 -42 52 53 0
52 -142 -195 0
52 142 -198 0
-52 142 198 0
-52 -142 195 0
53 195 -202 0
53 -195 202 0
-53 -195 -202 0
-53 195 202 0
54 -199 42 0
54 -42 -55 56 0
54 -199 -56 0
-54 199 -56 0
-54 199 42 0
-54 -42 55 56 0
55 -143 -196 0
55 143 -199 0
-55 143 199 0
-55 -143 196 0
56 196 -202 0
56 -196 202 0
-56 -196 -202 0
-56 196 202 0
57 -200 42 0
57 -42 -58 59 0
57 -200 -59 0
-57 200 -59 0
-57 200 42 0
-57 -42 58 59 0
58 -144 -197 0
58 144 -200 0
-58 144 200 0
-58 -144 197 0
59 197 -204 0
59 -197 204 0
-59 -197 -204 0
-59 197 204 0
60 -201 42 0
60 -145 -42 -61 0
60 145 -201 0
-60 201 42 0
-60 145 201 0
-60 -145 -42 61 0
61 -197 200 0
-61 197 0
-61 -200 0
62 -202 42 0
62 -146 -42 -63 0
62 146 -202 0
-62 202 42 0
-62 146 202 0
-62 -146 -42 63 0
63 -200 204 0
-63 200 0
-63 -204 0
64 -203 42 0
64 -147 -42 -65 0
64 147 -203 0
-64 203 42 0
-64 147 203 0
-64 -147 -42 65 0
65 -201 -207 0
-65 201 0
-65 207 0
66 -204 42 0
66 -148 -42 -67 0
66 148 -204 0
-66 204 42 0
-66 148 204 0
-66 -148 -42 67 0
-67 203 227 0
67 -203 0
67 -227 0
68 -205 42 0
68 -149 -42 -69 0
68 149 -205 0
-68 205 42 0
-68 149 205 0
-68 -149 -42 69 0
69 -201 -206 0
-69 201 0
-69 206 0
70 -206 42 0
70 -150 -42 71 0
70 150 -206 0
-70 206 42 0
-70 150 206 0
-70 -150 -42 -71 0
-71 198 207 0
71 -198 0
71 -207 0
72 -207 42 0
72 -151 -42 73 0
72 151 -207 0
-72 207 42 0
-72 151 207 0
-72 -151 -42 -73 0
-73 199 206 0
73 -199 0
73 -206 0
74 -208 42 0
74 -152 -42 -75 0
74 152 -208 0
-74 208 42 0
-74 152 208 0
-74 -152 -42 75 0
75 -198 -207 0
-75 198 0
-75 207 0
76 -209 42 0
76 -153 -42 -77 0
76 153 -209 0
-76 209 42 0
-76 153 209 0
-76 -153 -42 77 0
77 -199 -206 0
-77 199 0
-77 206 0
78 154 -210 0
78 -210 -79 0
78 -154 226 79 0
-78 210 -79 0
-78 154 210 0
-78 -154 -226 79 0
-79 172 173 0
79 -172 0
79 -173 0
80 -211 232 0
80 -210 -232 79 0
80 -211 -79 0
-80 211 -79 0
-80 211 232 0
-80 210 -232 79 0
81 -212 233 0
81 -205 -233 79 0
81 -212 -79 0
-81 212 -79 0
-81 212 233 0
-81 205 -233 79 0
82 -213 -79 0
82 -157 79 -83 0
82 157 -213 0
-82 213 -79 0
-82 157 213 0
-82 -157 79 83 0
83 -211 227 0
-83 211 0
-83 -227 0
84 -214 -79 0
84 -158 79 -85 0
84 158 -214 0
-84 214 -79 0
-84 158 214 0
-84 -158 79 85 0
85 -212 226 0
-85 212 0
-85 -226 0
86 -215 -79 0
86 -159 79 -87 0
86 159 -215 0
-86 215 -79 0
-86 159 215 0
-86 -159 79 87 0
-87 213 214 0
87 -213 0
87 -214 0
88 -216 -79 0
88 79 -89 90 0
88 -216 -90 0
-88 216 -90 0
-88 216 -79 0
-88 79 89 90 0
89 -160 -213 0
89 160 -216 0
-89 160 216 0
-89 -160 213 0
90 213 -220 0
90 -213 220 0
-90 -213 -220 0
-90 213 220 0
91 79 -92 0
91 -217 -79 0
-91 79 92 0
-91 217 -79 0
92 -214 -217 0
92 -217 -220 0
92 161 -217 0
92 -161 -214 -220 0
-92 161 217 0
-92 -161 214 220 0
-92 217 220 0
-92 214 217 0
93 -218 -79 0
93 79 -94 95 0
93 -218 -95 0
-93 218 -95 0
-93 218 -79 0
-93 79 94 95 0
94 -162 -215 0
94 162 -218 0
-94 162 218 0
-94 -162 215 0
95 215 -222 0
95 -215 222 0
-95 -215 -222 0
-95 215 222 0
96 -219 -79 0
96 -163 79 -97 0
96 163 -219 0
-96 219 -79 0
-96 163 219 0
-96 -163 79 97 0
97 -215 218 0
-97 215 0
-97 -218 0
98 -220 -79 0
98 -164 79 -99 0
98 164 -220 0
-98 220 -79 0
-98 164 220 0
-98 -164 79 99 0
99 -218 222 0
-99 218 0
-99 -222 0
100 -221 -79 0
100 -165 79 -101 0
100 165 -221 0
-100 221 -79 0
-100 165 221 0
-100 -165 79 101 0
101 -219 -225 0
-101 219 0
-101 225 0
102 -222 -79 0
102 -166 79 -103 0
102 166 -222 0
-102 222 -79 0
-102 166 222 0
-102 -166 79 103 0
-103 191 221 0
103 -191 0
103 -221 0
104 -223 -79 0
104 -167 79 -105 0
104 167 -223 0
-104 223 -79 0
-104 167 223 0
-104 -167 79 105 0
105 -219 -224 0
-105 219 0
-105 224 0
106 -224 -79 0
106 -168 79 107 0
106 168 -224 0
-106 224 -79 0
-106 168 224 0
-106 -168 79 -107 0
-107 216 225 0
107 -216 0
107 -225 0
108 -225 -79 0
108 -169 79 109 0
108 169 -225 0
-108 225 -79 0
-108 169 225 0
-108 -169 79 -109 0
-109 217 224 0
109 -217 0
109 -224 0
110 -226 -79 0
110 -170 79 -111 0
110 170 -226 0
-110 226 -79 0
-110 170 226 0
-110 -170 79 111 0
111 -216 -225 0
-111 216 0
-111 225 0
112 -227 -79 0
112 -171 79 -113 0
112 171 -227 0
-112 227 -79 0
-112 171 227 0
-112 -171 79 113 0
113 -217 -224 0
-113 217 0
-113 224 0
-114 234 80 115 0
-114 234 81 115 0
114 -234 0
114 -115 0
114 -80 -81 0
-115 8 43 0
-115 7 44 0
-115 8 44 0
-115 7 43 0
115 -7 -8 0
115 -43 -44 0
-235 0
2 0
3 0
4 0
116 0
117 0
5 0
7 0
8 0
9 0
11 0
13 0
15 0
18 0
21 0
23 0
25 0
27 0
29 0
31 0
33 0
35 0
37 0
39 0
41 0
43 0
44 0
45 0
47 0
49 0
51 0
54 0
57 0
60 0
62 0
64 0
66 0
68 0
70 0
72 0
74 0
76 0
78 0
80 0
81 0
82 0
84 0
86 0
88 0
91 0
93 0
96 0
98 0
100 0
102 0
104 0
106 0
108 0
110 0
112 0
119 0
120 0
137 0
138 0
155 0
156 0
114 0

