c Result of efficient AIG-to-CNF conversion using package CNF
p cnf 1034 2533
2 -981 -999 1033 0
-2 981 0
-2 999 0
-2 -1033 0
3 -963 -999 1033 0
-3 963 0
-3 999 0
-3 -1033 0
4 -963 -981 1033 0
-4 963 0
-4 981 0
-4 -1033 0
5 -945 -999 1033 0
-5 945 0
-5 999 0
-5 -1033 0
6 -945 -981 1033 0
-6 945 0
-6 981 0
-6 -1033 0
7 -945 -963 1033 0
-7 945 0
-7 963 0
-7 -1033 0
8 -927 -999 1033 0
-8 927 0
-8 999 0
-8 -1033 0
9 -927 -981 1033 0
-9 927 0
-9 981 0
-9 -1033 0
10 -927 -963 1033 0
-10 927 0
-10 963 0
-10 -1033 0
11 -927 -945 1033 0
-11 927 0
-11 945 0
-11 -1033 0
12 -909 -999 1033 0
-12 909 0
-12 999 0
-12 -1033 0
13 -909 -981 1033 0
-13 909 0
-13 981 0
-13 -1033 0
14 -909 -963 1033 0
-14 909 0
-14 963 0
-14 -1033 0
15 -909 -945 1033 0
-15 909 0
-15 945 0
-15 -1033 0
16 -909 -927 1033 0
-16 909 0
-16 927 0
-16 -1033 0
17 -891 -999 1033 0
-17 891 0
-17 999 0
-17 -1033 0
18 -891 -981 1033 0
-18 891 0
-18 981 0
-18 -1033 0
19 -891 -963 1033 0
-19 891 0
-19 963 0
-19 -1033 0
20 -891 -945 1033 0
-20 891 0
-20 945 0
-20 -1033 0
21 -891 -927 1033 0
-21 891 0
-21 927 0
-21 -1033 0
22 -891 -909 1033 0
-22 891 0
-22 909 0
-22 -1033 0
23 -873 -999 1033 0
-23 873 0
-23 999 0
-23 -1033 0
24 -873 -981 1033 0
-24 873 0
-24 981 0
-24 -1033 0
25 -873 -963 1033 0
-25 873 0
-25 963 0
-25 -1033 0
26 -873 -945 1033 0
-26 873 0
-26 945 0
-26 -1033 0
27 -873 -927 1033 0
-27 873 0
-27 927 0
-27 -1033 0
28 -873 -909 1033 0
-28 873 0
-28 909 0
-28 -1033 0
29 -873 -891 1033 0
-29 873 0
-29 891 0
-29 -1033 0
30 -855 -999 1033 0
-30 855 0
-30 999 0
-30 -1033 0
31 -855 -981 1033 0
-31 855 0
-31 981 0
-31 -1033 0
32 -855 -963 1033 0
-32 855 0
-32 963 0
-32 -1033 0
33 -855 -945 1033 0
-33 855 0
-33 945 0
-33 -1033 0
34 -855 -927 1033 0
-34 855 0
-34 927 0
-34 -1033 0
35 -855 -909 1033 0
-35 855 0
-35 909 0
-35 -1033 0
36 -855 -891 1033 0
-36 855 0
-36 891 0
-36 -1033 0
37 -855 -873 1033 0
-37 855 0
-37 873 0
-37 -1033 0
38 -837 -999 1033 0
-38 837 0
-38 999 0
-38 -1033 0
39 -837 -981 1033 0
-39 837 0
-39 981 0
-39 -1033 0
40 -837 -963 1033 0
-40 837 0
-40 963 0
-40 -1033 0
41 -837 -945 1033 0
-41 837 0
-41 945 0
-41 -1033 0
42 -837 -927 1033 0
-42 837 0
-42 927 0
-42 -1033 0
43 -837 -909 1033 0
-43 837 0
-43 909 0
-43 -1033 0
44 -837 -891 1033 0
-44 837 0
-44 891 0
-44 -1033 0
45 -837 -873 1033 0
-45 837 0
-45 873 0
-45 -1033 0
46 -837 -855 1033 0
-46 837 0
-46 855 0
-46 -1033 0
47 -819 -999 1033 0
-47 819 0
-47 999 0
-47 -1033 0
48 -819 -981 1033 0
-48 819 0
-48 981 0
-48 -1033 0
49 -819 -963 1033 0
-49 819 0
-49 963 0
-49 -1033 0
50 -819 -945 1033 0
-50 819 0
-50 945 0
-50 -1033 0
51 -819 -927 1033 0
-51 819 0
-51 927 0
-51 -1033 0
52 -819 -909 1033 0
-52 819 0
-52 909 0
-52 -1033 0
53 -819 -891 1033 0
-53 819 0
-53 891 0
-53 -1033 0
54 -819 -873 1033 0
-54 819 0
-54 873 0
-54 -1033 0
55 -819 -855 1033 0
-55 819 0
-55 855 0
-55 -1033 0
56 -819 -837 1033 0
-56 819 0
-56 837 0
-56 -1033 0
57 -801 -999 1033 0
-57 801 0
-57 999 0
-57 -1033 0
58 -801 -981 1033 0
-58 801 0
-58 981 0
-58 -1033 0
59 -801 -963 1033 0
-59 801 0
-59 963 0
-59 -1033 0
60 -801 -945 1033 0
-60 801 0
-60 945 0
-60 -1033 0
61 -801 -927 1033 0
-61 801 0
-61 927 0
-61 -1033 0
62 -801 -909 1033 0
-62 801 0
-62 909 0
-62 -1033 0
63 -801 -891 1033 0
-63 801 0
-63 891 0
-63 -1033 0
64 -801 -873 1033 0
-64 801 0
-64 873 0
-64 -1033 0
65 -801 -855 1033 0
-65 801 0
-65 855 0
-65 -1033 0
66 -801 -837 1033 0
-66 801 0
-66 837 0
-66 -1033 0
67 -801 -819 1033 0
-67 801 0
-67 819 0
-67 -1033 0
68 -783 -999 1033 0
-68 783 0
-68 999 0
-68 -1033 0
69 -783 -981 1033 0
-69 783 0
-69 981 0
-69 -1033 0
70 -783 -963 1033 0
-70 783 0
-70 963 0
-70 -1033 0
71 -783 -945 1033 0
-71 783 0
-71 945 0
-71 -1033 0
72 -783 -927 1033 0
-72 783 0
-72 927 0
-72 -1033 0
73 -783 -909 1033 0
-73 783 0
-73 909 0
-73 -1033 0
74 -783 -891 1033 0
-74 783 0
-74 891 0
-74 -1033 0
75 -783 -873 1033 0
-75 783 0
-75 873 0
-75 -1033 0
76 -783 -855 1033 0
-76 783 0
-76 855 0
-76 -1033 0
77 -783 -837 1033 0
-77 783 0
-77 837 0
-77 -1033 0
78 -783 -819 1033 0
-78 783 0
-78 819 0
-78 -1033 0
79 -783 -801 1033 0
-79 783 0
-79 801 0
-79 -1033 0
80 -765 -999 1033 0
-80 765 0
-80 999 0
-80 -1033 0
81 -765 -981 1033 0
-81 765 0
-81 981 0
-81 -1033 0
82 -765 -963 1033 0
-82 765 0
-82 963 0
-82 -1033 0
83 -765 -945 1033 0
-83 765 0
-83 945 0
-83 -1033 0
84 -765 -927 1033 0
-84 765 0
-84 927 0
-84 -1033 0
85 -765 -909 1033 0
-85 765 0
-85 909 0
-85 -1033 0
86 -765 -891 1033 0
-86 765 0
-86 891 0
-86 -1033 0
87 -765 -873 1033 0
-87 765 0
-87 873 0
-87 -1033 0
88 -765 -855 1033 0
-88 765 0
-88 855 0
-88 -1033 0
89 -765 -837 1033 0
-89 765 0
-89 837 0
-89 -1033 0
90 -765 -819 1033 0
-90 765 0
-90 819 0
-90 -1033 0
91 -765 -801 1033 0
-91 765 0
-91 801 0
-91 -1033 0
92 -765 -783 1033 0
-92 765 0
-92 783 0
-92 -1033 0
93 -747 -999 1033 0
-93 747 0
-93 999 0
-93 -1033 0
94 -747 -981 1033 0
-94 747 0
-94 981 0
-94 -1033 0
95 -747 -963 1033 0
-95 747 0
-95 963 0
-95 -1033 0
96 -747 -945 1033 0
-96 747 0
-96 945 0
-96 -1033 0
97 -747 -927 1033 0
-97 747 0
-97 927 0
-97 -1033 0
98 -747 -909 1033 0
-98 747 0
-98 909 0
-98 -1033 0
99 -747 -891 1033 0
-99 747 0
-99 891 0
-99 -1033 0
100 -747 -873 1033 0
-100 747 0
-100 873 0
-100 -1033 0
101 -747 -855 1033 0
-101 747 0
-101 855 0
-101 -1033 0
102 -747 -837 1033 0
-102 747 0
-102 837 0
-102 -1033 0
103 -747 -819 1033 0
-103 747 0
-103 819 0
-103 -1033 0
104 -747 -801 1033 0
-104 747 0
-104 801 0
-104 -1033 0
105 -747 -783 1033 0
-105 747 0
-105 783 0
-105 -1033 0
106 -747 -765 1033 0
-106 747 0
-106 765 0
-106 -1033 0
107 -729 -999 1033 0
-107 729 0
-107 999 0
-107 -1033 0
108 -729 -981 1033 0
-108 729 0
-108 981 0
-108 -1033 0
109 -729 -963 1033 0
-109 729 0
-109 963 0
-109 -1033 0
110 -729 -945 1033 0
-110 729 0
-110 945 0
-110 -1033 0
111 -729 -927 1033 0
-111 729 0
-111 927 0
-111 -1033 0
112 -729 -909 1033 0
-112 729 0
-112 909 0
-112 -1033 0
113 -729 -891 1033 0
-113 729 0
-113 891 0
-113 -1033 0
114 -729 -873 1033 0
-114 729 0
-114 873 0
-114 -1033 0
115 -729 -855 1033 0
-115 729 0
-115 855 0
-115 -1033 0
116 -729 -837 1033 0
-116 729 0
-116 837 0
-116 -1033 0
117 -729 -819 1033 0
-117 729 0
-117 819 0
-117 -1033 0
118 -729 -801 1033 0
-118 729 0
-118 801 0
-118 -1033 0
119 -729 -783 1033 0
-119 729 0
-119 783 0
-119 -1033 0
120 -729 -765 1033 0
-120 729 0
-120 765 0
-120 -1033 0
121 -729 -747 1033 0
-121 729 0
-121 747 0
-121 -1033 0
122 425 -713 0
122 -425 -714 -719 0
-122 -425 719 0
-122 425 713 0
-122 -425 714 0
123 -714 -715 0
123 -714 -717 0
123 426 -714 0
123 -426 -715 -717 0
-123 426 714 0
-123 -426 715 717 0
-123 714 717 0
-123 714 715 0
124 427 -715 0
124 -427 -716 729 0
-124 -427 716 0
-124 427 715 0
-124 -427 -729 0
125 -997 -1001 0
125 -716 1001 0
-125 716 1001 0
-125 997 -1001 0
126 429 -717 0
126 -429 -718 730 0
-126 -429 718 0
-126 429 717 0
-126 -429 -730 0
127 -718 -723 0
127 -718 -730 0
127 430 -718 0
127 -430 -723 -730 0
-127 430 718 0
-127 -430 723 730 0
-127 718 730 0
-127 718 723 0
128 431 -719 0
128 -431 724 728 0
-128 -431 -724 0
-128 431 719 0
-128 -431 -728 0
129 432 -720 0
129 -432 729 0
-129 -432 -729 0
-129 432 720 0
130 -721 1002 0
130 -720 -1002 0
-130 721 1002 0
-130 720 -1002 0
131 434 -722 0
131 -434 713 -721 0
-131 -434 -713 0
-131 434 722 0
-131 -434 721 0
132 -435 -715 0
132 435 -723 0
132 -435 -722 0
-132 435 723 0
-132 -435 715 722 0
133 -722 -724 0
133 -717 -724 0
133 436 -724 0
133 -436 -717 -722 0
-133 436 724 0
-133 -436 717 722 0
-133 717 724 0
-133 722 724 0
134 437 -725 0
134 -437 718 -723 0
-134 -437 -718 0
-134 437 725 0
-134 -437 723 0
135 438 -726 0
135 -438 -725 -728 0
-135 -438 728 0
-135 438 726 0
-135 -438 725 0
136 439 -727 0
136 -439 -719 -725 0
-136 -439 719 0
-136 439 727 0
-136 -439 725 0
137 440 -728 0
137 -440 714 719 0
-137 -440 -714 0
-137 440 728 0
-137 -440 -719 0
138 441 -729 0
138 -441 -724 -728 0
-138 -441 724 0
-138 441 729 0
-138 -441 728 0
139 -442 -726 0
139 442 -730 0
139 -442 -731 0
-139 442 730 0
-139 -442 726 731 0
140 443 -731 0
140 -443 -732 -737 0
-140 -443 737 0
-140 443 731 0
-140 -443 732 0
141 -732 -733 0
141 -732 -735 0
141 444 -732 0
141 -444 -733 -735 0
-141 444 732 0
-141 -444 733 735 0
-141 732 735 0
-141 732 733 0
142 445 -733 0
142 -445 -734 747 0
-142 -445 734 0
-142 445 733 0
-142 -445 -747 0
143 -734 1003 0
143 -727 -1003 0
-143 734 1003 0
-143 727 -1003 0
144 447 -735 0
144 -447 -736 748 0
-144 -447 736 0
-144 447 735 0
-144 -447 -748 0
145 -736 -741 0
145 -736 -748 0
145 448 -736 0
145 -448 -741 -748 0
-145 448 736 0
-145 -448 741 748 0
-145 736 748 0
-145 736 741 0
146 449 -737 0
146 -449 742 746 0
-146 -449 -742 0
-146 449 737 0
-146 -449 -746 0
147 450 -738 0
147 -450 747 0
-147 -450 -747 0
-147 450 738 0
148 -739 1004 0
148 -738 -1004 0
-148 739 1004 0
-148 738 -1004 0
149 452 -740 0
149 -452 731 -739 0
-149 -452 -731 0
-149 452 740 0
-149 -452 739 0
150 -453 -733 0
150 453 -741 0
150 -453 -740 0
-150 453 741 0
-150 -453 733 740 0
151 -740 -742 0
151 -735 -742 0
151 454 -742 0
151 -454 -735 -740 0
-151 454 742 0
-151 -454 735 740 0
-151 735 742 0
-151 740 742 0
152 455 -743 0
152 -455 736 -741 0
-152 -455 -736 0
-152 455 743 0
-152 -455 741 0
153 456 -744 0
153 -456 -743 -746 0
-153 -456 746 0
-153 456 744 0
-153 -456 743 0
154 457 -745 0
154 -457 -737 -743 0
-154 -457 737 0
-154 457 745 0
-154 -457 743 0
155 458 -746 0
155 -458 732 737 0
-155 -458 -732 0
-155 458 746 0
-155 -458 -737 0
156 459 -747 0
156 -459 -742 -746 0
-156 -459 742 0
-156 459 747 0
-156 -459 746 0
157 -460 -744 0
157 460 -748 0
157 -460 -749 0
-157 460 748 0
-157 -460 744 749 0
158 461 -749 0
158 -461 -750 -755 0
-158 -461 755 0
-158 461 749 0
-158 -461 750 0
159 -750 -751 0
159 -750 -753 0
159 462 -750 0
159 -462 -751 -753 0
-159 462 750 0
-159 -462 751 753 0
-159 750 753 0
-159 750 751 0
160 463 -751 0
160 -463 -752 765 0
-160 -463 752 0
-160 463 751 0
-160 -463 -765 0
161 -752 1005 0
161 -745 -1005 0
-161 752 1005 0
-161 745 -1005 0
162 465 -753 0
162 -465 -754 766 0
-162 -465 754 0
-162 465 753 0
-162 -465 -766 0
163 -754 -759 0
163 -754 -766 0
163 466 -754 0
163 -466 -759 -766 0
-163 466 754 0
-163 -466 759 766 0
-163 754 766 0
-163 754 759 0
164 467 -755 0
164 -467 760 764 0
-164 -467 -760 0
-164 467 755 0
-164 -467 -764 0
165 468 -756 0
165 -468 765 0
-165 -468 -765 0
-165 468 756 0
166 -757 1006 0
166 -756 -1006 0
-166 757 1006 0
-166 756 -1006 0
167 470 -758 0
167 -470 749 -757 0
-167 -470 -749 0
-167 470 758 0
-167 -470 757 0
168 -471 -751 0
168 471 -759 0
168 -471 -758 0
-168 471 759 0
-168 -471 751 758 0
169 -758 -760 0
169 -753 -760 0
169 472 -760 0
169 -472 -753 -758 0
-169 472 760 0
-169 -472 753 758 0
-169 753 760 0
-169 758 760 0
170 473 -761 0
170 -473 754 -759 0
-170 -473 -754 0
-170 473 761 0
-170 -473 759 0
171 474 -762 0
171 -474 -761 -764 0
-171 -474 764 0
-171 474 762 0
-171 -474 761 0
172 475 -763 0
172 -475 -755 -761 0
-172 -475 755 0
-172 475 763 0
-172 -475 761 0
173 476 -764 0
173 -476 750 755 0
-173 -476 -750 0
-173 476 764 0
-173 -476 -755 0
174 477 -765 0
174 -477 -760 -764 0
-174 -477 760 0
-174 477 765 0
-174 -477 764 0
175 -478 -762 0
175 478 -766 0
175 -478 -767 0
-175 478 766 0
-175 -478 762 767 0
176 479 -767 0
176 -479 -768 -773 0
-176 -479 773 0
-176 479 767 0
-176 -479 768 0
177 -768 -769 0
177 -768 -771 0
177 480 -768 0
177 -480 -769 -771 0
-177 480 768 0
-177 -480 769 771 0
-177 768 771 0
-177 768 769 0
178 481 -769 0
178 -481 -770 783 0
-178 -481 770 0
-178 481 769 0
-178 -481 -783 0
179 -770 1007 0
179 -763 -1007 0
-179 770 1007 0
-179 763 -1007 0
180 483 -771 0
180 -483 -772 784 0
-180 -483 772 0
-180 483 771 0
-180 -483 -784 0
181 -772 -777 0
181 -772 -784 0
181 484 -772 0
181 -484 -777 -784 0
-181 484 772 0
-181 -484 777 784 0
-181 772 784 0
-181 772 777 0
182 485 -773 0
182 -485 778 782 0
-182 -485 -778 0
-182 485 773 0
-182 -485 -782 0
183 486 -774 0
183 -486 783 0
-183 -486 -783 0
-183 486 774 0
184 -775 1008 0
184 -774 -1008 0
-184 775 1008 0
-184 774 -1008 0
185 488 -776 0
185 -488 767 -775 0
-185 -488 -767 0
-185 488 776 0
-185 -488 775 0
186 -489 -769 0
186 489 -777 0
186 -489 -776 0
-186 489 777 0
-186 -489 769 776 0
187 -776 -778 0
187 -771 -778 0
187 490 -778 0
187 -490 -771 -776 0
-187 490 778 0
-187 -490 771 776 0
-187 771 778 0
-187 776 778 0
188 491 -779 0
188 -491 772 -777 0
-188 -491 -772 0
-188 491 779 0
-188 -491 777 0
189 492 -780 0
189 -492 -779 -782 0
-189 -492 782 0
-189 492 780 0
-189 -492 779 0
190 493 -781 0
190 -493 -773 -779 0
-190 -493 773 0
-190 493 781 0
-190 -493 779 0
191 494 -782 0
191 -494 768 773 0
-191 -494 -768 0
-191 494 782 0
-191 -494 -773 0
192 495 -783 0
192 -495 -778 -782 0
-192 -495 778 0
-192 495 783 0
-192 -495 782 0
193 -496 -780 0
193 496 -784 0
193 -496 -785 0
-193 496 784 0
-193 -496 780 785 0
194 497 -785 0
194 -497 -786 -791 0
-194 -497 791 0
-194 497 785 0
-194 -497 786 0
195 -786 -787 0
195 -786 -789 0
195 498 -786 0
195 -498 -787 -789 0
-195 498 786 0
-195 -498 787 789 0
-195 786 789 0
-195 786 787 0
196 499 -787 0
196 -499 -788 801 0
-196 -499 788 0
-196 499 787 0
-196 -499 -801 0
197 -788 1009 0
197 -781 -1009 0
-197 788 1009 0
-197 781 -1009 0
198 501 -789 0
198 -501 -790 802 0
-198 -501 790 0
-198 501 789 0
-198 -501 -802 0
199 -790 -795 0
199 -790 -802 0
199 502 -790 0
199 -502 -795 -802 0
-199 502 790 0
-199 -502 795 802 0
-199 790 802 0
-199 790 795 0
200 503 -791 0
200 -503 796 800 0
-200 -503 -796 0
-200 503 791 0
-200 -503 -800 0
201 504 -792 0
201 -504 801 0
-201 -504 -801 0
-201 504 792 0
202 -793 1010 0
202 -792 -1010 0
-202 793 1010 0
-202 792 -1010 0
203 506 -794 0
203 -506 785 -793 0
-203 -506 -785 0
-203 506 794 0
-203 -506 793 0
204 -507 -787 0
204 507 -795 0
204 -507 -794 0
-204 507 795 0
-204 -507 787 794 0
205 -794 -796 0
205 -789 -796 0
205 508 -796 0
205 -508 -789 -794 0
-205 508 796 0
-205 -508 789 794 0
-205 789 796 0
-205 794 796 0
206 509 -797 0
206 -509 790 -795 0
-206 -509 -790 0
-206 509 797 0
-206 -509 795 0
207 510 -798 0
207 -510 -797 -800 0
-207 -510 800 0
-207 510 798 0
-207 -510 797 0
208 511 -799 0
208 -511 -791 -797 0
-208 -511 791 0
-208 511 799 0
-208 -511 797 0
209 512 -800 0
209 -512 786 791 0
-209 -512 -786 0
-209 512 800 0
-209 -512 -791 0
210 513 -801 0
210 -513 -796 -800 0
-210 -513 796 0
-210 513 801 0
-210 -513 800 0
211 -514 -798 0
211 514 -802 0
211 -514 -803 0
-211 514 802 0
-211 -514 798 803 0
212 515 -803 0
212 -515 -804 -809 0
-212 -515 809 0
-212 515 803 0
-212 -515 804 0
213 -804 -805 0
213 -804 -807 0
213 516 -804 0
213 -516 -805 -807 0
-213 516 804 0
-213 -516 805 807 0
-213 804 807 0
-213 804 805 0
214 517 -805 0
214 -517 -806 819 0
-214 -517 806 0
-214 517 805 0
-214 -517 -819 0
215 -806 1011 0
215 -799 -1011 0
-215 806 1011 0
-215 799 -1011 0
216 519 -807 0
216 -519 -808 820 0
-216 -519 808 0
-216 519 807 0
-216 -519 -820 0
217 -808 -813 0
217 -808 -820 0
217 520 -808 0
217 -520 -813 -820 0
-217 520 808 0
-217 -520 813 820 0
-217 808 820 0
-217 808 813 0
218 521 -809 0
218 -521 814 818 0
-218 -521 -814 0
-218 521 809 0
-218 -521 -818 0
219 522 -810 0
219 -522 819 0
-219 -522 -819 0
-219 522 810 0
220 -811 1012 0
220 -810 -1012 0
-220 811 1012 0
-220 810 -1012 0
221 524 -812 0
221 -524 803 -811 0
-221 -524 -803 0
-221 524 812 0
-221 -524 811 0
222 -525 -805 0
222 525 -813 0
222 -525 -812 0
-222 525 813 0
-222 -525 805 812 0
223 -812 -814 0
223 -807 -814 0
223 526 -814 0
223 -526 -807 -812 0
-223 526 814 0
-223 -526 807 812 0
-223 807 814 0
-223 812 814 0
224 527 -815 0
224 -527 808 -813 0
-224 -527 -808 0
-224 527 815 0
-224 -527 813 0
225 528 -816 0
225 -528 -815 -818 0
-225 -528 818 0
-225 528 816 0
-225 -528 815 0
226 529 -817 0
226 -529 -809 -815 0
-226 -529 809 0
-226 529 817 0
-226 -529 815 0
227 530 -818 0
227 -530 804 809 0
-227 -530 -804 0
-227 530 818 0
-227 -530 -809 0
228 531 -819 0
228 -531 -814 -818 0
-228 -531 814 0
-228 531 819 0
-228 -531 818 0
229 -532 -816 0
229 532 -820 0
229 -532 -821 0
-229 532 820 0
-229 -532 816 821 0
230 533 -821 0
230 -533 -822 -827 0
-230 -533 827 0
-230 533 821 0
-230 -533 822 0
231 -822 -823 0
231 -822 -825 0
231 534 -822 0
231 -534 -823 -825 0
-231 534 822 0
-231 -534 823 825 0
-231 822 825 0
-231 822 823 0
232 535 -823 0
232 -535 -824 837 0
-232 -535 824 0
-232 535 823 0
-232 -535 -837 0
233 -824 1013 0
233 -817 -1013 0
-233 824 1013 0
-233 817 -1013 0
234 537 -825 0
234 -537 -826 838 0
-234 -537 826 0
-234 537 825 0
-234 -537 -838 0
235 -826 -831 0
235 -826 -838 0
235 538 -826 0
235 -538 -831 -838 0
-235 538 826 0
-235 -538 831 838 0
-235 826 838 0
-235 826 831 0
236 539 -827 0
236 -539 832 836 0
-236 -539 -832 0
-236 539 827 0
-236 -539 -836 0
237 540 -828 0
237 -540 837 0
-237 -540 -837 0
-237 540 828 0
238 -829 1014 0
238 -828 -1014 0
-238 829 1014 0
-238 828 -1014 0
239 542 -830 0
239 -542 821 -829 0
-239 -542 -821 0
-239 542 830 0
-239 -542 829 0
240 -543 -823 0
240 543 -831 0
240 -543 -830 0
-240 543 831 0
-240 -543 823 830 0
241 -830 -832 0
241 -825 -832 0
241 544 -832 0
241 -544 -825 -830 0
-241 544 832 0
-241 -544 825 830 0
-241 825 832 0
-241 830 832 0
242 545 -833 0
242 -545 826 -831 0
-242 -545 -826 0
-242 545 833 0
-242 -545 831 0
243 546 -834 0
243 -546 -833 -836 0
-243 -546 836 0
-243 546 834 0
-243 -546 833 0
244 547 -835 0
244 -547 -827 -833 0
-244 -547 827 0
-244 547 835 0
-244 -547 833 0
245 548 -836 0
245 -548 822 827 0
-245 -548 -822 0
-245 548 836 0
-245 -548 -827 0
246 549 -837 0
246 -549 -832 -836 0
-246 -549 832 0
-246 549 837 0
-246 -549 836 0
247 -550 -834 0
247 550 -838 0
247 -550 -839 0
-247 550 838 0
-247 -550 834 839 0
248 551 -839 0
248 -551 -840 -845 0
-248 -551 845 0
-248 551 839 0
-248 -551 840 0
249 -840 -841 0
249 -840 -843 0
249 552 -840 0
249 -552 -841 -843 0
-249 552 840 0
-249 -552 841 843 0
-249 840 843 0
-249 840 841 0
250 553 -841 0
250 -553 -842 855 0
-250 -553 842 0
-250 553 841 0
-250 -553 -855 0
251 -842 1015 0
251 -835 -1015 0
-251 842 1015 0
-251 835 -1015 0
252 555 -843 0
252 -555 -844 856 0
-252 -555 844 0
-252 555 843 0
-252 -555 -856 0
253 -844 -849 0
253 -844 -856 0
253 556 -844 0
253 -556 -849 -856 0
-253 556 844 0
-253 -556 849 856 0
-253 844 856 0
-253 844 849 0
254 557 -845 0
254 -557 850 854 0
-254 -557 -850 0
-254 557 845 0
-254 -557 -854 0
255 558 -846 0
255 -558 855 0
-255 -558 -855 0
-255 558 846 0
256 -847 1016 0
256 -846 -1016 0
-256 847 1016 0
-256 846 -1016 0
257 560 -848 0
257 -560 839 -847 0
-257 -560 -839 0
-257 560 848 0
-257 -560 847 0
258 -561 -841 0
258 561 -849 0
258 -561 -848 0
-258 561 849 0
-258 -561 841 848 0
259 -848 -850 0
259 -843 -850 0
259 562 -850 0
259 -562 -843 -848 0
-259 562 850 0
-259 -562 843 848 0
-259 843 850 0
-259 848 850 0
260 563 -851 0
260 -563 844 -849 0
-260 -563 -844 0
-260 563 851 0
-260 -563 849 0
261 564 -852 0
261 -564 -851 -854 0
-261 -564 854 0
-261 564 852 0
-261 -564 851 0
262 565 -853 0
262 -565 -845 -851 0
-262 -565 845 0
-262 565 853 0
-262 -565 851 0
263 566 -854 0
263 -566 840 845 0
-263 -566 -840 0
-263 566 854 0
-263 -566 -845 0
264 567 -855 0
264 -567 -850 -854 0
-264 -567 850 0
-264 567 855 0
-264 -567 854 0
265 -568 -852 0
265 568 -856 0
265 -568 -857 0
-265 568 856 0
-265 -568 852 857 0
266 569 -857 0
266 -569 -858 -863 0
-266 -569 863 0
-266 569 857 0
-266 -569 858 0
267 -858 -859 0
267 -858 -861 0
267 570 -858 0
267 -570 -859 -861 0
-267 570 858 0
-267 -570 859 861 0
-267 858 861 0
-267 858 859 0
268 571 -859 0
268 -571 -860 873 0
-268 -571 860 0
-268 571 859 0
-268 -571 -873 0
269 -860 1017 0
269 -853 -1017 0
-269 860 1017 0
-269 853 -1017 0
270 573 -861 0
270 -573 -862 874 0
-270 -573 862 0
-270 573 861 0
-270 -573 -874 0
271 -862 -867 0
271 -862 -874 0
271 574 -862 0
271 -574 -867 -874 0
-271 574 862 0
-271 -574 867 874 0
-271 862 874 0
-271 862 867 0
272 575 -863 0
272 -575 868 872 0
-272 -575 -868 0
-272 575 863 0
-272 -575 -872 0
273 576 -864 0
273 -576 873 0
-273 -576 -873 0
-273 576 864 0
274 -865 1018 0
274 -864 -1018 0
-274 865 1018 0
-274 864 -1018 0
275 578 -866 0
275 -578 857 -865 0
-275 -578 -857 0
-275 578 866 0
-275 -578 865 0
276 -579 -859 0
276 579 -867 0
276 -579 -866 0
-276 579 867 0
-276 -579 859 866 0
277 -866 -868 0
277 -861 -868 0
277 580 -868 0
277 -580 -861 -866 0
-277 580 868 0
-277 -580 861 866 0
-277 861 868 0
-277 866 868 0
278 581 -869 0
278 -581 862 -867 0
-278 -581 -862 0
-278 581 869 0
-278 -581 867 0
279 582 -870 0
279 -582 -869 -872 0
-279 -582 872 0
-279 582 870 0
-279 -582 869 0
280 583 -871 0
280 -583 -863 -869 0
-280 -583 863 0
-280 583 871 0
-280 -583 869 0
281 584 -872 0
281 -584 858 863 0
-281 -584 -858 0
-281 584 872 0
-281 -584 -863 0
282 585 -873 0
282 -585 -868 -872 0
-282 -585 868 0
-282 585 873 0
-282 -585 872 0
283 -586 -870 0
283 586 -874 0
283 -586 -875 0
-283 586 874 0
-283 -586 870 875 0
284 587 -875 0
284 -587 -876 -881 0
-284 -587 881 0
-284 587 875 0
-284 -587 876 0
285 -876 -877 0
285 -876 -879 0
285 588 -876 0
285 -588 -877 -879 0
-285 588 876 0
-285 -588 877 879 0
-285 876 879 0
-285 876 877 0
286 589 -877 0
286 -589 -878 891 0
-286 -589 878 0
-286 589 877 0
-286 -589 -891 0
287 -878 1019 0
287 -871 -1019 0
-287 878 1019 0
-287 871 -1019 0
288 591 -879 0
288 -591 -880 892 0
-288 -591 880 0
-288 591 879 0
-288 -591 -892 0
289 -880 -885 0
289 -880 -892 0
289 592 -880 0
289 -592 -885 -892 0
-289 592 880 0
-289 -592 885 892 0
-289 880 892 0
-289 880 885 0
290 593 -881 0
290 -593 886 890 0
-290 -593 -886 0
-290 593 881 0
-290 -593 -890 0
291 594 -882 0
291 -594 891 0
-291 -594 -891 0
-291 594 882 0
292 -883 1020 0
292 -882 -1020 0
-292 883 1020 0
-292 882 -1020 0
293 596 -884 0
293 -596 875 -883 0
-293 -596 -875 0
-293 596 884 0
-293 -596 883 0
294 -597 -877 0
294 597 -885 0
294 -597 -884 0
-294 597 885 0
-294 -597 877 884 0
295 -884 -886 0
295 -879 -886 0
295 598 -886 0
295 -598 -879 -884 0
-295 598 886 0
-295 -598 879 884 0
-295 879 886 0
-295 884 886 0
296 599 -887 0
296 -599 880 -885 0
-296 -599 -880 0
-296 599 887 0
-296 -599 885 0
297 600 -888 0
297 -600 -887 -890 0
-297 -600 890 0
-297 600 888 0
-297 -600 887 0
298 601 -889 0
298 -601 -881 -887 0
-298 -601 881 0
-298 601 889 0
-298 -601 887 0
299 602 -890 0
299 -602 876 881 0
-299 -602 -876 0
-299 602 890 0
-299 -602 -881 0
300 603 -891 0
300 -603 -886 -890 0
-300 -603 886 0
-300 603 891 0
-300 -603 890 0
301 -604 -888 0
301 604 -892 0
301 -604 -893 0
-301 604 892 0
-301 -604 888 893 0
302 605 -893 0
302 -605 -894 -899 0
-302 -605 899 0
-302 605 893 0
-302 -605 894 0
303 -894 -895 0
303 -894 -897 0
303 606 -894 0
303 -606 -895 -897 0
-303 606 894 0
-303 -606 895 897 0
-303 894 897 0
-303 894 895 0
304 607 -895 0
304 -607 -896 909 0
-304 -607 896 0
-304 607 895 0
-304 -607 -909 0
305 -896 1021 0
305 -889 -1021 0
-305 896 1021 0
-305 889 -1021 0
306 609 -897 0
306 -609 -898 910 0
-306 -609 898 0
-306 609 897 0
-306 -609 -910 0
307 -898 -903 0
307 -898 -910 0
307 610 -898 0
307 -610 -903 -910 0
-307 610 898 0
-307 -610 903 910 0
-307 898 910 0
-307 898 903 0
308 611 -899 0
308 -611 904 908 0
-308 -611 -904 0
-308 611 899 0
-308 -611 -908 0
309 612 -900 0
309 -612 909 0
-309 -612 -909 0
-309 612 900 0
310 -901 1022 0
310 -900 -1022 0
-310 901 1022 0
-310 900 -1022 0
311 614 -902 0
311 -614 893 -901 0
-311 -614 -893 0
-311 614 902 0
-311 -614 901 0
312 -615 -895 0
312 615 -903 0
312 -615 -902 0
-312 615 903 0
-312 -615 895 902 0
313 -902 -904 0
313 -897 -904 0
313 616 -904 0
313 -616 -897 -902 0
-313 616 904 0
-313 -616 897 902 0
-313 897 904 0
-313 902 904 0
314 617 -905 0
314 -617 898 -903 0
-314 -617 -898 0
-314 617 905 0
-314 -617 903 0
315 618 -906 0
315 -618 -905 -908 0
-315 -618 908 0
-315 618 906 0
-315 -618 905 0
316 619 -907 0
316 -619 -899 -905 0
-316 -619 899 0
-316 619 907 0
-316 -619 905 0
317 620 -908 0
317 -620 894 899 0
-317 -620 -894 0
-317 620 908 0
-317 -620 -899 0
318 621 -909 0
318 -621 -904 -908 0
-318 -621 904 0
-318 621 909 0
-318 -621 908 0
319 -622 -906 0
319 622 -910 0
319 -622 -911 0
-319 622 910 0
-319 -622 906 911 0
320 623 -911 0
320 -623 -912 -917 0
-320 -623 917 0
-320 623 911 0
-320 -623 912 0
321 -912 -913 0
321 -912 -915 0
321 624 -912 0
321 -624 -913 -915 0
-321 624 912 0
-321 -624 913 915 0
-321 912 915 0
-321 912 913 0
322 625 -913 0
322 -625 -914 927 0
-322 -625 914 0
-322 625 913 0
-322 -625 -927 0
323 -914 1023 0
323 -907 -1023 0
-323 914 1023 0
-323 907 -1023 0
324 627 -915 0
324 -627 -916 928 0
-324 -627 916 0
-324 627 915 0
-324 -627 -928 0
325 -916 -921 0
325 -916 -928 0
325 628 -916 0
325 -628 -921 -928 0
-325 628 916 0
-325 -628 921 928 0
-325 916 928 0
-325 916 921 0
326 629 -917 0
326 -629 922 926 0
-326 -629 -922 0
-326 629 917 0
-326 -629 -926 0
327 630 -918 0
327 -630 927 0
-327 -630 -927 0
-327 630 918 0
328 -919 1024 0
328 -918 -1024 0
-328 919 1024 0
-328 918 -1024 0
329 632 -920 0
329 -632 911 -919 0
-329 -632 -911 0
-329 632 920 0
-329 -632 919 0
330 -633 -913 0
330 633 -921 0
330 -633 -920 0
-330 633 921 0
-330 -633 913 920 0
331 -920 -922 0
331 -915 -922 0
331 634 -922 0
331 -634 -915 -920 0
-331 634 922 0
-331 -634 915 920 0
-331 915 922 0
-331 920 922 0
332 635 -923 0
332 -635 916 -921 0
-332 -635 -916 0
-332 635 923 0
-332 -635 921 0
333 636 -924 0
333 -636 -923 -926 0
-333 -636 926 0
-333 636 924 0
-333 -636 923 0
334 637 -925 0
334 -637 -917 -923 0
-334 -637 917 0
-334 637 925 0
-334 -637 923 0
335 638 -926 0
335 -638 912 917 0
-335 -638 -912 0
-335 638 926 0
-335 -638 -917 0
336 639 -927 0
336 -639 -922 -926 0
-336 -639 922 0
-336 639 927 0
-336 -639 926 0
337 -640 -924 0
337 640 -928 0
337 -640 -929 0
-337 640 928 0
-337 -640 924 929 0
338 641 -929 0
338 -641 -930 -935 0
-338 -641 935 0
-338 641 929 0
-338 -641 930 0
339 -930 -931 0
339 -930 -933 0
339 642 -930 0
339 -642 -931 -933 0
-339 642 930 0
-339 -642 931 933 0
-339 930 933 0
-339 930 931 0
340 643 -931 0
340 -643 -932 945 0
-340 -643 932 0
-340 643 931 0
-340 -643 -945 0
341 -932 1025 0
341 -925 -1025 0
-341 932 1025 0
-341 925 -1025 0
342 645 -933 0
342 -645 -934 946 0
-342 -645 934 0
-342 645 933 0
-342 -645 -946 0
343 -934 -939 0
343 -934 -946 0
343 646 -934 0
343 -646 -939 -946 0
-343 646 934 0
-343 -646 939 946 0
-343 934 946 0
-343 934 939 0
344 647 -935 0
344 -647 940 944 0
-344 -647 -940 0
-344 647 935 0
-344 -647 -944 0
345 648 -936 0
345 -648 945 0
-345 -648 -945 0
-345 648 936 0
346 -937 1026 0
346 -936 -1026 0
-346 937 1026 0
-346 936 -1026 0
347 650 -938 0
347 -650 929 -937 0
-347 -650 -929 0
-347 650 938 0
-347 -650 937 0
348 -651 -931 0
348 651 -939 0
348 -651 -938 0
-348 651 939 0
-348 -651 931 938 0
349 -938 -940 0
349 -933 -940 0
349 652 -940 0
349 -652 -933 -938 0
-349 652 940 0
-349 -652 933 938 0
-349 933 940 0
-349 938 940 0
350 653 -941 0
350 -653 934 -939 0
-350 -653 -934 0
-350 653 941 0
-350 -653 939 0
351 654 -942 0
351 -654 -941 -944 0
-351 -654 944 0
-351 654 942 0
-351 -654 941 0
352 655 -943 0
352 -655 -935 -941 0
-352 -655 935 0
-352 655 943 0
-352 -655 941 0
353 656 -944 0
353 -656 930 935 0
-353 -656 -930 0
-353 656 944 0
-353 -656 -935 0
354 657 -945 0
354 -657 -940 -944 0
-354 -657 940 0
-354 657 945 0
-354 -657 944 0
355 -658 -942 0
355 658 -946 0
355 -658 -947 0
-355 658 946 0
-355 -658 942 947 0
356 659 -947 0
356 -659 -948 -953 0
-356 -659 953 0
-356 659 947 0
-356 -659 948 0
357 -948 -949 0
357 -948 -951 0
357 660 -948 0
357 -660 -949 -951 0
-357 660 948 0
-357 -660 949 951 0
-357 948 951 0
-357 948 949 0
358 661 -949 0
358 -661 -950 963 0
-358 -661 950 0
-358 661 949 0
-358 -661 -963 0
359 -950 1027 0
359 -943 -1027 0
-359 950 1027 0
-359 943 -1027 0
360 663 -951 0
360 -663 -952 964 0
-360 -663 952 0
-360 663 951 0
-360 -663 -964 0
361 -952 -957 0
361 -952 -964 0
361 664 -952 0
361 -664 -957 -964 0
-361 664 952 0
-361 -664 957 964 0
-361 952 964 0
-361 952 957 0
362 665 -953 0
362 -665 958 962 0
-362 -665 -958 0
-362 665 953 0
-362 -665 -962 0
363 666 -954 0
363 -666 963 0
-363 -666 -963 0
-363 666 954 0
364 -955 1028 0
364 -954 -1028 0
-364 955 1028 0
-364 954 -1028 0
365 668 -956 0
365 -668 947 -955 0
-365 -668 -947 0
-365 668 956 0
-365 -668 955 0
366 -669 -949 0
366 669 -957 0
366 -669 -956 0
-366 669 957 0
-366 -669 949 956 0
367 -956 -958 0
367 -951 -958 0
367 670 -958 0
367 -670 -951 -956 0
-367 670 958 0
-367 -670 951 956 0
-367 951 958 0
-367 956 958 0
368 671 -959 0
368 -671 952 -957 0
-368 -671 -952 0
-368 671 959 0
-368 -671 957 0
369 672 -960 0
369 -672 -959 -962 0
-369 -672 962 0
-369 672 960 0
-369 -672 959 0
370 673 -961 0
370 -673 -953 -959 0
-370 -673 953 0
-370 673 961 0
-370 -673 959 0
371 674 -962 0
371 -674 948 953 0
-371 -674 -948 0
-371 674 962 0
-371 -674 -953 0
372 675 -963 0
372 -675 -958 -962 0
-372 -675 958 0
-372 675 963 0
-372 -675 962 0
373 -676 -960 0
373 676 -964 0
373 -676 -965 0
-373 676 964 0
-373 -676 960 965 0
374 677 -965 0
374 -677 -966 -971 0
-374 -677 971 0
-374 677 965 0
-374 -677 966 0
375 -966 -967 0
375 -966 -969 0
375 678 -966 0
375 -678 -967 -969 0
-375 678 966 0
-375 -678 967 969 0
-375 966 969 0
-375 966 967 0
376 679 -967 0
376 -679 -968 981 0
-376 -679 968 0
-376 679 967 0
-376 -679 -981 0
377 -968 1029 0
377 -961 -1029 0
-377 968 1029 0
-377 961 -1029 0
378 681 -969 0
378 -681 -970 982 0
-378 -681 970 0
-378 681 969 0
-378 -681 -982 0
379 -970 -975 0
379 -970 -982 0
379 682 -970 0
379 -682 -975 -982 0
-379 682 970 0
-379 -682 975 982 0
-379 970 982 0
-379 970 975 0
380 683 -971 0
380 -683 976 980 0
-380 -683 -976 0
-380 683 971 0
-380 -683 -980 0
381 684 -972 0
381 -684 981 0
-381 -684 -981 0
-381 684 972 0
382 -973 1030 0
382 -972 -1030 0
-382 973 1030 0
-382 972 -1030 0
383 686 -974 0
383 -686 965 -973 0
-383 -686 -965 0
-383 686 974 0
-383 -686 973 0
384 -687 -967 0
384 687 -975 0
384 -687 -974 0
-384 687 975 0
-384 -687 967 974 0
385 -974 -976 0
385 -969 -976 0
385 688 -976 0
385 -688 -969 -974 0
-385 688 976 0
-385 -688 969 974 0
-385 969 976 0
-385 974 976 0
386 689 -977 0
386 -689 970 -975 0
-386 -689 -970 0
-386 689 977 0
-386 -689 975 0
387 690 -978 0
387 -690 -977 -980 0
-387 -690 980 0
-387 690 978 0
-387 -690 977 0
388 691 -979 0
388 -691 -971 -977 0
-388 -691 971 0
-388 691 979 0
-388 -691 977 0
389 692 -980 0
389 -692 966 971 0
-389 -692 -966 0
-389 692 980 0
-389 -692 -971 0
390 693 -981 0
390 -693 -976 -980 0
-390 -693 976 0
-390 693 981 0
-390 -693 980 0
391 -694 -978 0
391 694 -982 0
391 -694 -983 0
-391 694 982 0
-391 -694 978 983 0
392 695 -983 0
392 -695 -984 -989 0
-392 -695 989 0
-392 695 983 0
-392 -695 984 0
393 -984 -985 0
393 -984 -987 0
393 696 -984 0
393 -696 -985 -987 0
-393 696 984 0
-393 -696 985 987 0
-393 984 987 0
-393 984 985 0
394 697 -985 0
394 -697 -986 999 0
-394 -697 986 0
-394 697 985 0
-394 -697 -999 0
395 -986 1031 0
395 -979 -1031 0
-395 986 1031 0
-395 979 -1031 0
396 699 -987 0
396 -699 -988 1000 0
-396 -699 988 0
-396 699 987 0
-396 -699 -1000 0
397 -988 -993 0
397 -988 -1000 0
397 700 -988 0
397 -700 -993 -1000 0
-397 700 988 0
-397 -700 993 1000 0
-397 988 1000 0
-397 988 993 0
398 701 -989 0
398 -701 994 998 0
-398 -701 -994 0
-398 701 989 0
-398 -701 -998 0
399 702 -990 0
399 -702 999 0
-399 -702 -999 0
-399 702 990 0
400 -991 1032 0
400 -990 -1032 0
-400 991 1032 0
-400 990 -1032 0
401 704 -992 0
401 -704 983 -991 0
-401 -704 -983 0
-401 704 992 0
-401 -704 991 0
402 -705 -985 0
402 705 -993 0
402 -705 -992 0
-402 705 993 0
-402 -705 985 992 0
403 -992 -994 0
403 -987 -994 0
403 706 -994 0
403 -706 -987 -992 0
-403 706 994 0
-403 -706 987 992 0
-403 987 994 0
-403 992 994 0
404 707 -995 0
404 -707 988 -993 0
-404 -707 -988 0
-404 707 995 0
-404 -707 993 0
405 708 -996 0
405 -708 -995 -998 0
-405 -708 998 0
-405 708 996 0
-405 -708 995 0
406 709 -997 0
406 -709 -989 -995 0
-406 -709 989 0
-406 709 997 0
-406 -709 995 0
407 710 -998 0
407 -710 984 989 0
-407 -710 -984 0
-407 710 998 0
-407 -710 -989 0
408 711 -999 0
408 -711 -994 -998 0
-408 -711 994 0
-408 711 999 0
-408 -711 998 0
409 -712 -713 0
409 712 -1000 0
409 -712 -996 0
-409 712 1000 0
-409 -712 713 996 0
-410 1033 395 411 0
-410 1033 400 411 0
410 -1033 0
410 -411 0
410 -395 -400 0
-411 364 412 413 0
-411 359 412 413 0
411 -413 0
411 -412 0
411 -359 -364 0
412 -973 1030 -377 0
412 -972 -1030 -377 0
-412 377 0
-412 973 1030 0
-412 972 -1030 0
-413 328 414 415 0
-413 323 414 415 0
413 -415 0
413 -414 0
413 -323 -328 0
414 -937 1026 -341 0
414 -936 -1026 -341 0
-414 341 0
-414 937 1026 0
-414 936 -1026 0
-415 292 416 417 0
-415 287 416 417 0
415 -417 0
415 -416 0
415 -287 -292 0
416 -901 1022 -305 0
416 -900 -1022 -305 0
-416 305 0
-416 901 1022 0
-416 900 -1022 0
-417 256 418 419 0
-417 251 418 419 0
417 -419 0
417 -418 0
417 -251 -256 0
418 -865 1018 -269 0
418 -864 -1018 -269 0
-418 269 0
-418 865 1018 0
-418 864 -1018 0
-419 220 420 421 0
-419 215 420 421 0
419 -421 0
419 -420 0
419 -215 -220 0
420 -829 1014 -233 0
420 -828 -1014 -233 0
-420 233 0
-420 829 1014 0
-420 828 -1014 0
-421 184 422 423 0
-421 179 422 423 0
421 -423 0
421 -422 0
421 -179 -184 0
422 -793 1010 -197 0
422 -792 -1010 -197 0
-422 197 0
-422 793 1010 0
-422 792 -1010 0
-423 166 424 0
-423 161 424 0
423 -424 0
423 -161 -166 0
-424 130 143 0
-424 125 148 0
-424 130 148 0
-424 125 143 0
424 -125 -130 0
424 -143 -148 0
-1034 0
2 0
3 0
4 0
5 0
6 0
7 0
8 0
9 0
10 0
11 0
12 0
13 0
14 0
15 0
16 0
17 0
18 0
19 0
20 0
21 0
22 0
23 0
24 0
25 0
26 0
27 0
28 0
29 0
30 0
31 0
32 0
33 0
34 0
35 0
36 0
37 0
38 0
39 0
40 0
41 0
42 0
43 0
44 0
45 0
46 0
47 0
48 0
49 0
50 0
51 0
52 0
53 0
54 0
55 0
56 0
57 0
58 0
59 0
60 0
61 0
62 0
63 0
64 0
65 0
66 0
67 0
68 0
69 0
70 0
71 0
72 0
73 0
74 0
75 0
76 0
77 0
78 0
79 0
80 0
81 0
82 0
83 0
84 0
85 0
86 0
87 0
88 0
89 0
90 0
91 0
92 0
93 0
94 0
95 0
96 0
97 0
98 0
99 0
100 0
101 0
102 0
103 0
104 0
105 0
106 0
107 0
108 0
109 0
110 0
111 0
112 0
113 0
114 0
115 0
116 0
117 0
118 0
119 0
120 0
121 0
122 0
123 0
124 0
125 0
126 0
127 0
128 0
129 0
130 0
131 0
132 0
133 0
134 0
135 0
136 0
137 0
138 0
139 0
140 0
141 0
142 0
143 0
144 0
145 0
146 0
147 0
148 0
149 0
150 0
151 0
152 0
153 0
154 0
155 0
156 0
157 0
158 0
159 0
160 0
161 0
162 0
163 0
164 0
165 0
166 0
167 0
168 0
169 0
170 0
171 0
172 0
173 0
174 0
175 0
176 0
177 0
178 0
179 0
180 0
181 0
182 0
183 0
184 0
185 0
186 0
187 0
188 0
189 0
190 0
191 0
192 0
193 0
194 0
195 0
196 0
197 0
198 0
199 0
200 0
201 0
202 0
203 0
204 0
205 0
206 0
207 0
208 0
209 0
210 0
211 0
212 0
213 0
214 0
215 0
216 0
217 0
218 0
219 0
220 0
221 0
222 0
223 0
224 0
225 0
226 0
227 0
228 0
229 0
230 0
231 0
232 0
233 0
234 0
235 0
236 0
237 0
238 0
239 0
240 0
241 0
242 0
243 0
244 0
245 0
246 0
247 0
248 0
249 0
250 0
251 0
252 0
253 0
254 0
255 0
256 0
257 0
258 0
259 0
260 0
261 0
262 0
263 0
264 0
265 0
266 0
267 0
268 0
269 0
270 0
271 0
272 0
273 0
274 0
275 0
276 0
277 0
278 0
279 0
280 0
281 0
282 0
283 0
284 0
285 0
286 0
287 0
288 0
289 0
290 0
291 0
292 0
293 0
294 0
295 0
296 0
297 0
298 0
299 0
300 0
301 0
302 0
303 0
304 0
305 0
306 0
307 0
308 0
309 0
310 0
311 0
312 0
313 0
314 0
315 0
316 0
317 0
318 0
319 0
320 0
321 0
322 0
323 0
324 0
325 0
326 0
327 0
328 0
329 0
330 0
331 0
332 0
333 0
334 0
335 0
336 0
337 0
338 0
339 0
340 0
341 0
342 0
343 0
344 0
345 0
346 0
347 0
348 0
349 0
350 0
351 0
352 0
353 0
354 0
355 0
356 0
357 0
358 0
359 0
360 0
361 0
362 0
363 0
364 0
365 0
366 0
367 0
368 0
369 0
370 0
371 0
372 0
373 0
374 0
375 0
376 0
377 0
378 0
379 0
380 0
381 0
382 0
383 0
384 0
385 0
386 0
387 0
388 0
389 0
390 0
391 0
392 0
393 0
394 0
395 0
396 0
397 0
398 0
399 0
400 0
401 0
402 0
403 0
404 0
405 0
406 0
407 0
408 0
409 0
428 0
433 0
446 0
451 0
464 0
469 0
482 0
487 0
500 0
505 0
518 0
523 0
536 0
541 0
554 0
559 0
572 0
577 0
590 0
595 0
608 0
613 0
626 0
631 0
644 0
649 0
662 0
667 0
680 0
685 0
698 0
703 0
410 0

