c Result of efficient AIG-to-CNF conversion using package CNF
p cnf 1808 8274
-2 1660 1700 0
2 -1660 0
2 -1700 0
-3 1650 1691 1805 4 0
3 -4 0
3 -1805 0
3 -1650 0
3 -1691 0
-4 1681 1717 1756 5 0
4 -5 0
4 -1756 0
4 -1681 0
4 -1717 0
-5 1641 1793 0
5 -1641 0
5 -1793 0
6 -1679 -7 0
-6 1679 0
-6 7 0
-7 1633 1786 0
7 -1633 0
7 -1786 0
8 -1633 9 -11 0
8 -1679 9 -11 0
-8 -9 0
-8 11 0
-8 1633 1679 0
-9 -1727 -1791 10 0
-9 1727 1791 10 0
9 -10 0
9 -1727 1791 0
9 1727 -1791 0
-10 -1634 1672 -1693 1741 0
-10 1634 -1672 1693 -1741 0
-10 1634 1672 1693 1741 0
-10 -1634 -1672 -1693 -1741 0
10 -1634 1693 0
10 1634 -1693 0
10 1672 -1741 0
10 -1672 1741 0
-11 12 13 14 15 0
11 -15 0
11 -12 0
11 -14 0
11 -13 0
-12 -1661 -1712 0
-12 1661 1712 0
12 1661 -1712 0
12 -1661 1712 0
-13 -1624 -1673 0
-13 1624 1673 0
13 1624 -1673 0
13 -1624 1673 0
-14 -1635 -1771 0
-14 1635 1771 0
14 1635 -1771 0
14 -1635 1771 0
-15 16 17 0
15 -16 0
15 -17 0
-16 -1726 -1790 0
-16 1726 1790 0
16 1726 -1790 0
16 -1726 1790 0
-17 18 19 0
17 -18 0
17 -19 0
-18 -1692 -1740 0
-18 1692 1740 0
18 1692 -1740 0
18 -1692 1740 0
-19 20 21 22 0
19 -20 0
19 -21 0
19 -22 0
-20 -1652 -1701 0
-20 1652 1701 0
20 1652 -1701 0
20 -1652 1701 0
-21 -1622 -1758 0
-21 1622 1758 0
21 1622 -1758 0
21 -1622 1758 0
-22 -1665 -1807 0
-22 1665 1807 0
22 1665 -1807 0
22 -1665 1807 0
23 -1679 1768 -24 25 0
23 -1679 -1768 -24 -25 0
-23 24 0
-23 -1768 25 0
-23 1679 0
-23 1768 -25 0
24 -1626 1663 1773 0
-24 1626 0
-24 -1773 0
-24 -1663 0
-25 1624 1661 1771 26 0
25 -26 0
25 -1771 0
25 -1624 0
25 -1661 0
-26 1652 1692 1726 27 0
26 -27 0
26 -1726 0
26 -1652 0
26 -1692 0
-27 1758 1807 0
27 -1758 0
27 -1807 0
28 9 -29 -30 -31 0
-28 31 0
-28 -9 0
-28 30 0
-28 29 0
29 -1648 1687 1722 0
-29 1648 0
-29 -1722 0
-29 -1687 0
30 -1626 1663 -1773 0
-30 1626 0
-30 -1663 0
-30 1773 0
31 -1679 -1724 0
31 -1679 -32 0
31 -1679 -1764 0
-31 1679 0
-31 1724 1764 32 0
-32 1646 1689 1801 33 0
32 -33 0
32 -1801 0
32 -1646 0
32 -1689 0
-33 1676 1708 1749 0
33 -1676 0
33 -1749 0
33 -1708 0
34 -1679 -29 -30 -35 0
-34 30 0
-34 35 0
-34 1679 0
-34 29 0
-35 1708 22 36 38 0
-35 -1708 -22 36 38 0
35 -38 0
35 1708 -22 0
35 -36 0
35 -1708 22 0
-36 1749 20 37 0
-36 -1749 -20 37 0
36 -37 0
36 1749 -20 0
36 -1749 20 0
-37 -1646 1801 -16 18 0
-37 1646 1801 16 18 0
-37 1646 -1801 16 -18 0
-37 -1646 -1801 -16 -18 0
37 -1646 16 0
37 1646 -16 0
37 1801 -18 0
37 -1801 18 0
-38 1676 21 0
-38 -1676 -21 0
38 -1676 21 0
38 1676 -21 0
39 9 -30 -40 -41 0
-39 41 0
-39 -9 0
-39 30 0
-39 40 0
-40 -1648 0
-40 1687 0
40 1648 -1687 0
41 -1679 -42 0
41 1661 -1679 -1764 0
41 -1661 -1679 1764 0
-41 1679 0
-41 1661 1764 42 0
-41 -1661 -1764 42 0
-42 1624 1724 43 47 0
-42 -1624 -1724 43 47 0
42 -47 0
42 -1624 1724 0
42 -43 0
42 1624 -1724 0
-43 1646 1726 44 46 0
-43 -1646 -1726 44 46 0
43 -46 0
43 -1646 1726 0
43 -44 0
43 1646 -1726 0
-44 -1652 -1749 45 0
-44 1652 1749 45 0
44 -45 0
44 -1652 1749 0
44 1652 -1749 0
-45 -1676 1708 -1758 1807 0
-45 1676 -1708 1758 -1807 0
-45 1676 1708 1758 1807 0
-45 -1676 -1708 -1758 -1807 0
45 -1676 1758 0
45 1676 -1758 0
45 1708 -1807 0
45 -1708 1807 0
-46 -1692 -1801 0
-46 1692 1801 0
46 1692 -1801 0
46 -1692 1801 0
-47 -1689 -1771 0
-47 1689 1771 0
47 1689 -1771 0
47 -1689 1771 0
48 -1679 -30 -49 -50 0
-48 49 0
-48 50 0
-48 1679 0
-48 30 0
49 1648 -1687 1722 0
-49 -1648 0
-49 1687 0
-49 -1722 0
-50 1676 51 0
-50 -1622 -1758 51 0
50 -51 0
50 -1676 1758 0
50 1622 -1676 0
-51 1708 52 0
-51 -1665 -1807 52 0
51 -52 0
51 -1708 1807 0
51 1665 -1708 0
-52 1749 53 0
-52 -1652 -1701 53 0
52 -53 0
52 1701 -1749 0
52 1652 -1749 0
-53 1801 54 0
-53 -1692 -1740 54 0
53 -54 0
53 1740 -1801 0
53 1692 -1801 0
-54 1646 0
-54 -1726 -1790 0
54 -1646 1790 0
54 -1646 1726 0
55 -1679 -30 -56 -57 0
-55 56 0
-55 57 0
-55 1679 0
-55 30 0
56 1648 -1687 -1722 0
-56 1722 0
-56 1687 0
-56 -1648 0
-57 -1676 58 0
-57 1622 1758 58 0
57 -58 0
57 -1622 1676 0
57 1676 -1758 0
-58 -1708 59 0
-58 1665 1807 59 0
58 -59 0
58 -1665 1708 0
58 1708 -1807 0
-59 -1749 60 0
-59 1652 1701 60 0
59 -60 0
59 -1701 1749 0
59 -1652 1749 0
-60 -1646 61 0
-60 1726 1790 61 0
60 -61 0
60 1646 -1726 0
60 1646 -1790 0
-61 -1801 0
-61 1692 1740 0
61 -1692 1801 0
61 -1740 1801 0
62 9 -30 -31 -63 0
-62 63 0
-62 -9 0
-62 31 0
-62 30 0
63 1648 1687 -1722 0
-63 1722 0
-63 -1687 0
-63 -1648 0
64 -1767 65 0
-64 1767 0
-64 -65 0
65 1630 1669 1706 -66 0
-65 66 0
-65 -1706 0
-65 -1630 0
-65 -1669 0
66 -1697 1732 -1780 -67 0
-66 67 0
-66 1697 0
-66 1780 0
-66 -1732 0
67 -1618 1657 0
-67 1618 0
-67 -1657 0
68 -7 -70 0
68 1632 -7 -69 0
-68 7 0
-68 -1632 70 0
-68 69 70 0
-69 -1638 -1678 0
-69 1638 1678 0
69 1638 -1678 0
69 -1638 1678 0
-70 -1788 72 0
-70 71 69 72 0
70 -72 0
70 1788 -69 0
70 1788 -71 0
-71 -1632 -1789 0
-71 1632 1789 0
71 1632 -1789 0
71 -1632 1789 0
72 1738 -71 0
72 1738 -73 0
72 1738 -69 0
-72 -1738 0
-72 73 71 69 0
-73 -1739 -1788 0
-73 1739 1788 0
73 1739 -1788 0
73 -1739 1788 0
74 -75 -76 0
74 -1787 -75 80 0
-74 75 0
-74 76 -80 0
-74 1787 76 0
75 1633 1679 -1786 0
-75 1786 0
-75 -1679 0
-75 -1633 0
-76 1795 1799 0
-76 -65 -77 0
-76 1795 -77 0
-76 1799 -65 0
76 -1795 65 0
76 -1799 77 0
77 1713 1750 1802 -78 0
-77 78 0
-77 -1802 0
-77 -1713 0
-77 -1750 0
78 1636 -1674 -1783 -79 0
-78 -1636 0
-78 79 0
-78 1783 0
-78 1674 0
79 -1702 1736 0
-79 1702 0
-79 -1736 0
80 1628 1728 1775 -81 0
-80 81 0
-80 -1775 0
-80 -1628 0
-80 -1728 0
81 -1614 1653 -1696 -82 0
-81 82 0
-81 1614 0
-81 1696 0
-81 -1653 0
82 -1719 1759 0
-82 1719 0
-82 -1759 0
83 -1768 -84 -85 89 0
-83 -89 0
-83 1768 0
-83 84 0
-83 85 0
84 -1679 -24 0
-84 1679 0
-84 24 0
-85 1638 1646 86 88 0
-85 -1638 -1646 86 88 0
85 -88 0
85 -1638 1646 0
85 -86 0
85 1638 -1646 0
-86 -1739 -1749 87 0
-86 1739 1749 87 0
86 -87 0
86 -1739 1749 0
86 1739 -1749 0
-87 1660 1676 -1704 -1708 0
-87 -1660 -1676 -1704 -1708 0
-87 1660 1676 1704 1708 0
-87 -1660 -1676 1704 1708 0
87 1660 -1676 0
87 -1660 1676 0
87 1704 -1708 0
87 -1704 1708 0
-88 -1789 -1801 0
-88 1789 1801 0
88 1789 -1801 0
88 -1789 1801 0
-89 73 71 69 90 0
89 -90 0
89 -73 0
89 -69 0
89 -71 0
-90 1660 1700 -1704 -1738 0
-90 -1660 -1700 -1704 -1738 0
-90 1660 1700 1704 1738 0
-90 -1660 -1700 1704 1738 0
90 1660 -1700 0
90 -1660 1700 0
90 1704 -1738 0
90 -1704 1738 0
91 -1679 1768 -89 0
91 -1679 24 -89 0
-91 1679 0
-91 89 0
-91 -1768 -24 0
92 -1776 -1781 93 0
-92 1776 0
-92 1781 0
-92 -93 0
-93 -1750 0
-93 -1802 0
-93 94 96 0
93 1750 1802 -96 0
93 1750 1802 -94 0
94 -1636 1674 1713 -95 0
-94 95 0
-94 -1713 0
-94 1636 0
-94 -1674 0
95 1702 -1736 1783 0
-95 -1702 0
-95 1736 0
-95 -1783 0
96 -1636 1674 1713 -97 0
-96 97 0
-96 -1713 0
-96 1636 0
-96 -1674 0
97 -1702 -1736 1783 0
-97 1702 0
-97 1736 0
-97 -1783 0
-98 0
99 -1766 100 0
99 -1766 77 0
99 -1766 80 0
-99 1766 0
-99 -77 -80 -100 0
100 1630 1669 1706 -101 0
-100 101 0
-100 -1706 0
-100 -1630 0
-100 -1669 0
101 -1732 1780 -102 0
-101 1732 0
-101 -1780 0
-101 102 0
102 1618 -1657 1697 0
-102 -1618 0
-102 1657 0
-102 -1697 0
103 -1677 104 0
-103 1677 0
-103 -104 0
104 1626 -1663 1773 -105 0
-104 1663 0
-104 -1773 0
-104 -1626 0
-104 105 0
105 1693 -1727 1741 -106 0
-105 1727 0
-105 -1741 0
-105 -1693 0
-105 106 0
106 1634 1672 -1791 -107 0
-106 -1634 0
-106 107 0
-106 1791 0
-106 -1672 0
107 -1711 1754 -1804 -49 0
-107 49 0
-107 1711 0
-107 1804 0
-107 -1754 0
108 -1699 109 0
-108 1699 0
-108 -109 0
109 -1638 -1739 1789 -110 0
-109 110 0
-109 1638 0
-109 1739 0
-109 -1789 0
110 -1660 1704 0
-110 1660 0
-110 -1704 0
111 -1718 115 0
111 -1718 112 0
-111 1718 0
-111 -112 -115 0
112 1624 1661 1771 -113 0
-112 113 0
-112 -1771 0
-112 -1624 0
-112 -1661 0
113 -1652 1692 -1726 -114 0
-113 114 0
-113 1652 0
-113 1726 0
-113 -1692 0
114 -1758 1807 0
-114 1758 0
-114 -1807 0
115 1635 1673 1712 -116 0
-115 116 0
-115 -1712 0
-115 -1635 0
-115 -1673 0
116 1701 -1740 1790 -117 0
-116 1740 0
-116 -1790 0
-116 -1701 0
-116 117 0
117 1622 -1665 0
-117 -1622 0
-117 1665 0
118 -1744 119 0
-118 1744 0
-118 -119 0
119 1689 1724 1764 -120 0
-119 120 0
-119 -1764 0
-119 -1689 0
-119 -1724 0
120 -1646 -1749 1801 -121 0
-120 121 0
-120 1646 0
-120 1749 0
-120 -1801 0
121 -1676 1708 0
-121 1676 0
-121 -1708 0
122 1768 -1770 0
-122 -1768 0
-122 1770 0
123 -1800 124 0
-123 1800 0
-123 -124 0
124 1613 1655 1760 -125 0
-124 125 0
-124 -1760 0
-124 -1613 0
-124 -1655 0
125 -1644 1683 -1721 -126 0
-125 126 0
-125 1644 0
-125 1721 0
-125 -1683 0
126 -1746 1796 0
-126 1746 0
-126 -1796 0
127 -1631 128 0
-127 1631 0
-127 -128 0
128 1632 -1678 -1788 -129 0
-128 -1632 0
-128 129 0
-128 1788 0
-128 1678 0
129 -1700 1738 0
-129 1700 0
-129 -1738 0
130 -1748 -131 0
130 -1748 1764 -1803 0
130 -1748 -1764 1803 0
-130 1748 0
-130 1764 1803 131 0
-130 -1764 -1803 131 0
-131 1724 1752 132 136 0
-131 -1724 -1752 132 136 0
131 -136 0
131 -1724 1752 0
131 -132 0
131 1724 -1752 0
-132 1632 1801 133 135 0
-132 -1632 -1801 133 135 0
132 -135 0
132 -1632 1801 0
132 -133 0
132 1632 -1801 0
-133 -1749 -1788 134 0
-133 1749 1788 134 0
133 -134 0
133 -1749 1788 0
133 1749 -1788 0
-134 1676 1700 -1708 -1738 0
-134 -1676 -1700 -1708 -1738 0
-134 1676 1700 1708 1738 0
-134 -1676 -1700 1708 1738 0
134 1676 -1700 0
134 -1676 1700 0
134 1708 -1738 0
134 -1708 1738 0
-135 -1646 -1678 0
-135 1646 1678 0
135 1646 -1678 0
135 -1646 1678 0
-136 -1689 -1710 0
-136 1689 1710 0
136 1689 -1710 0
136 -1689 1710 0
137 -11 -138 -439 0
137 -11 -138 -445 0
-137 11 0
-137 138 0
-137 439 445 0
138 -139 -433 0
138 1649 -1712 -139 0
138 -1649 1712 -139 0
-138 139 0
-138 -1649 -1712 433 0
-138 1649 1712 433 0
139 -140 -427 0
139 1712 -1745 -140 0
139 -1712 1745 -140 0
-139 140 0
-139 -1712 -1745 427 0
-139 1712 1745 427 0
140 -141 -421 0
140 1667 -1712 -141 0
140 -1667 1712 -141 0
-140 141 0
-140 -1667 -1712 421 0
-140 1667 1712 421 0
141 -142 -415 0
141 1628 -1712 -142 0
141 -1628 1712 -142 0
-141 142 0
-141 -1628 -1712 415 0
-141 1628 1712 415 0
142 -143 -409 0
142 1706 -1712 -143 0
142 -1706 1712 -143 0
-142 143 0
-142 -1706 -1712 409 0
-142 1706 1712 409 0
143 -144 -403 0
143 1712 -1802 -144 0
143 -1712 1802 -144 0
-143 144 0
-143 -1712 -1802 403 0
-143 1712 1802 403 0
144 -145 -397 0
144 1691 -1712 -145 0
144 -1691 1712 -145 0
-144 145 0
-144 -1691 -1712 397 0
-144 1691 1712 397 0
145 -146 -391 0
145 1661 -1725 -146 0
145 -1661 1725 -146 0
-145 146 0
-145 -1661 -1725 391 0
-145 1661 1725 391 0
146 -147 -385 0
146 1649 -1661 -147 0
146 -1649 1661 -147 0
-146 147 0
-146 -1649 -1661 385 0
-146 1649 1661 385 0
147 -148 -379 0
147 1661 -1745 -148 0
147 -1661 1745 -148 0
-147 148 0
-147 -1661 -1745 379 0
-147 1661 1745 379 0
148 -149 -373 0
148 1661 -1667 -149 0
148 -1661 1667 -149 0
-148 149 0
-148 -1661 -1667 373 0
-148 1661 1667 373 0
149 -150 -367 0
149 1628 -1661 -150 0
149 -1628 1661 -150 0
-149 150 0
-149 -1628 -1661 367 0
-149 1628 1661 367 0
150 -151 -361 0
150 1661 -1706 -151 0
150 -1661 1706 -151 0
-150 151 0
-150 -1661 -1706 361 0
-150 1661 1706 361 0
151 -152 -355 0
151 1661 -1802 -152 0
151 -1661 1802 -152 0
-151 152 0
-151 -1661 -1802 355 0
-151 1661 1802 355 0
152 -153 -349 0
152 1661 -1691 -153 0
152 -1661 1691 -153 0
-152 153 0
-152 -1661 -1691 349 0
-152 1661 1691 349 0
153 -154 -343 0
153 1649 -1725 -154 0
153 -1649 1725 -154 0
-153 154 0
-153 -1649 -1725 343 0
-153 1649 1725 343 0
154 -155 -337 0
154 1725 -1745 -155 0
154 -1725 1745 -155 0
-154 155 0
-154 -1725 -1745 337 0
-154 1725 1745 337 0
155 -156 -331 0
155 1649 -1745 -156 0
155 -1649 1745 -156 0
-155 156 0
-155 -1649 -1745 331 0
-155 1649 1745 331 0
156 -157 -325 0
156 1667 -1725 -157 0
156 -1667 1725 -157 0
-156 157 0
-156 -1667 -1725 325 0
-156 1667 1725 325 0
157 -158 -319 0
157 1649 -1667 -158 0
157 -1649 1667 -158 0
-157 158 0
-157 -1649 -1667 319 0
-157 1649 1667 319 0
158 -159 -313 0
158 1667 -1745 -159 0
158 -1667 1745 -159 0
-158 159 0
-158 -1667 -1745 313 0
-158 1667 1745 313 0
159 -160 -307 0
159 1628 -1725 -160 0
159 -1628 1725 -160 0
-159 160 0
-159 -1628 -1725 307 0
-159 1628 1725 307 0
160 -161 -301 0
160 1628 -1649 -161 0
160 -1628 1649 -161 0
-160 161 0
-160 -1628 -1649 301 0
-160 1628 1649 301 0
161 -162 -295 0
161 1628 -1745 -162 0
161 -1628 1745 -162 0
-161 162 0
-161 -1628 -1745 295 0
-161 1628 1745 295 0
162 -163 -289 0
162 1628 -1667 -163 0
162 -1628 1667 -163 0
-162 163 0
-162 -1628 -1667 289 0
-162 1628 1667 289 0
163 -164 -283 0
163 1706 -1725 -164 0
163 -1706 1725 -164 0
-163 164 0
-163 -1706 -1725 283 0
-163 1706 1725 283 0
164 -165 -277 0
164 1649 -1706 -165 0
164 -1649 1706 -165 0
-164 165 0
-164 -1649 -1706 277 0
-164 1649 1706 277 0
165 -166 -271 0
165 1706 -1745 -166 0
165 -1706 1745 -166 0
-165 166 0
-165 -1706 -1745 271 0
-165 1706 1745 271 0
166 -167 -265 0
166 1667 -1706 -167 0
166 -1667 1706 -167 0
-166 167 0
-166 -1667 -1706 265 0
-166 1667 1706 265 0
167 -168 -259 0
167 1628 -1706 -168 0
167 -1628 1706 -168 0
-167 168 0
-167 -1628 -1706 259 0
-167 1628 1706 259 0
168 -169 -253 0
168 1725 -1802 -169 0
168 -1725 1802 -169 0
-168 169 0
-168 -1725 -1802 253 0
-168 1725 1802 253 0
169 -170 -247 0
169 1649 -1802 -170 0
169 -1649 1802 -170 0
-169 170 0
-169 -1649 -1802 247 0
-169 1649 1802 247 0
170 -171 -241 0
170 1745 -1802 -171 0
170 -1745 1802 -171 0
-170 171 0
-170 -1745 -1802 241 0
-170 1745 1802 241 0
171 -172 -235 0
171 1667 -1802 -172 0
171 -1667 1802 -172 0
-171 172 0
-171 -1667 -1802 235 0
-171 1667 1802 235 0
172 -173 -229 0
172 1628 -1802 -173 0
172 -1628 1802 -173 0
-172 173 0
-172 -1628 -1802 229 0
-172 1628 1802 229 0
173 -174 -223 0
173 1706 -1802 -174 0
173 -1706 1802 -174 0
-173 174 0
-173 -1706 -1802 223 0
-173 1706 1802 223 0
174 -175 -217 0
174 1691 -1725 -175 0
174 -1691 1725 -175 0
-174 175 0
-174 -1691 -1725 217 0
-174 1691 1725 217 0
175 -176 -211 0
175 1649 -1691 -176 0
175 -1649 1691 -176 0
-175 176 0
-175 -1649 -1691 211 0
-175 1649 1691 211 0
176 -177 -205 0
176 1691 -1745 -177 0
176 -1691 1745 -177 0
-176 177 0
-176 -1691 -1745 205 0
-176 1691 1745 205 0
177 -178 -199 0
177 1667 -1691 -178 0
177 -1667 1691 -178 0
-177 178 0
-177 -1667 -1691 199 0
-177 1667 1691 199 0
178 -179 -193 0
178 1628 -1691 -179 0
178 -1628 1691 -179 0
-178 179 0
-178 -1628 -1691 193 0
-178 1628 1691 193 0
179 -180 -186 0
179 -1691 1802 -186 0
179 1691 -1802 -186 0
-179 186 0
-179 1691 1802 180 0
-179 -1691 -1802 180 0
-180 1650 1750 181 185 0
-180 -1650 -1750 181 185 0
180 -185 0
180 -1650 1750 0
180 -181 0
180 1650 -1750 0
-181 -1674 -1756 182 0
-181 1674 1756 182 0
181 -182 0
181 -1674 1756 0
181 1674 -1756 0
-182 -1636 -1717 183 0
-182 1636 1717 183 0
182 -183 0
182 -1636 1717 0
182 1636 -1717 0
-183 -1681 -1783 184 0
-183 1681 1783 184 0
183 -184 0
183 -1681 1783 0
183 1681 -1783 0
-184 -1641 1702 -1736 1793 0
-184 1641 -1702 1736 -1793 0
-184 1641 1702 1736 1793 0
-184 -1641 -1702 -1736 -1793 0
184 -1641 1736 0
184 1641 -1736 0
184 1702 -1793 0
184 -1702 1793 0
-185 -1713 -1805 0
-185 1713 1805 0
185 1713 -1805 0
185 -1713 1805 0
-186 1691 1706 187 192 0
-186 -1691 -1706 187 192 0
186 -192 0
186 -1691 1706 0
186 -187 0
186 1691 -1706 0
-187 1630 1805 188 191 0
-187 -1630 -1805 188 191 0
187 -191 0
187 -1630 1805 0
187 -188 0
187 1630 -1805 0
-188 -1717 -1732 189 0
-188 1717 1732 189 0
188 -189 0
188 -1717 1732 0
188 1717 -1732 0
-189 -1681 -1697 190 0
-189 1681 1697 190 0
189 -190 0
189 -1681 1697 0
189 1681 -1697 0
-190 -1618 1641 1657 -1793 0
-190 -1618 -1641 -1657 -1793 0
-190 1618 1641 1657 1793 0
-190 1618 -1641 -1657 1793 0
190 1618 -1793 0
190 -1618 1793 0
190 -1641 1657 0
190 1641 -1657 0
-191 -1756 -1780 0
-191 1756 1780 0
191 1756 -1780 0
191 -1756 1780 0
-192 -1650 -1669 0
-192 1650 1669 0
192 1650 -1669 0
192 -1650 1669 0
-193 1650 1775 194 198 0
-193 -1650 -1775 194 198 0
193 -198 0
193 -1650 1775 0
193 -194 0
193 1650 -1775 0
-194 -1696 -1756 195 0
-194 1696 1756 195 0
194 -195 0
194 -1696 1756 0
194 1696 -1756 0
-195 -1653 -1717 196 0
-195 1653 1717 196 0
195 -196 0
195 -1653 1717 0
195 1653 -1717 0
-196 -1614 -1681 197 0
-196 1614 1681 197 0
196 -197 0
196 -1614 1681 0
196 1614 -1681 0
-197 -1641 1719 -1759 1793 0
-197 1641 -1719 1759 -1793 0
-197 1641 1719 1759 1793 0
-197 -1641 -1719 -1759 -1793 0
197 -1641 1759 0
197 1641 -1759 0
197 1719 -1793 0
197 -1719 1793 0
-198 -1728 -1805 0
-198 1728 1805 0
198 1728 -1805 0
198 -1728 1805 0
-199 1650 1705 200 204 0
-199 -1650 -1705 200 204 0
199 -204 0
199 -1650 1705 0
199 -200 0
199 1650 -1705 0
-200 -1756 -1794 201 0
-200 1756 1794 201 0
200 -201 0
200 -1756 1794 0
200 1756 -1794 0
-201 -1640 -1717 202 0
-201 1640 1717 202 0
201 -202 0
201 -1640 1717 0
201 1640 -1717 0
-202 -1681 -1682 203 0
-202 1681 1682 203 0
202 -203 0
202 -1681 1682 0
202 1681 -1682 0
-203 1641 1716 -1757 -1793 0
-203 -1641 -1716 -1757 -1793 0
-203 1641 1716 1757 1793 0
-203 -1641 -1716 1757 1793 0
203 1641 -1716 0
203 -1641 1716 0
203 1757 -1793 0
203 -1757 1793 0
-204 -1742 -1805 0
-204 1742 1805 0
204 1742 -1805 0
204 -1742 1805 0
-205 1650 1798 206 210 0
-205 -1650 -1798 206 210 0
205 -210 0
205 -1650 1798 0
205 -206 0
205 1650 -1798 0
-206 -1685 -1756 207 0
-206 1685 1756 207 0
206 -207 0
206 -1685 1756 0
206 1685 -1756 0
-207 -1717 -1720 208 0
-207 1717 1720 208 0
207 -208 0
207 -1717 1720 0
207 1717 -1720 0
-208 -1681 -1761 209 0
-208 1681 1761 209 0
208 -209 0
208 -1681 1761 0
208 1681 -1761 0
-209 1616 1641 -1654 -1793 0
-209 -1616 -1641 -1654 -1793 0
-209 1616 1641 1654 1793 0
-209 -1616 -1641 1654 1793 0
209 1616 -1641 0
209 -1616 1641 0
209 1654 -1793 0
209 -1654 1793 0
-210 -1643 -1805 0
-210 1643 1805 0
210 1643 -1805 0
210 -1643 1805 0
-211 1650 1688 212 216 0
-211 -1650 -1688 212 216 0
211 -216 0
211 -1650 1688 0
211 -212 0
211 1650 -1688 0
-212 -1756 -1763 213 0
-212 1756 1763 213 0
212 -213 0
212 -1756 1763 0
212 1756 -1763 0
-213 -1619 -1717 214 0
-213 1619 1717 214 0
213 -214 0
213 -1619 1717 0
213 1619 -1717 0
-214 -1658 -1681 215 0
-214 1658 1681 215 0
214 -215 0
214 -1658 1681 0
214 1658 -1681 0
-215 1641 1698 -1731 -1793 0
-215 -1641 -1698 -1731 -1793 0
-215 1641 1698 1731 1793 0
-215 -1641 -1698 1731 1793 0
215 1641 -1698 0
215 -1641 1698 0
215 1731 -1793 0
215 -1731 1793 0
-216 -1723 -1805 0
-216 1723 1805 0
216 1723 -1805 0
216 -1723 1805 0
-217 1650 1769 218 222 0
-217 -1650 -1769 218 222 0
217 -222 0
217 -1650 1769 0
217 -218 0
217 1650 -1769 0
-218 -1659 -1756 219 0
-218 1659 1756 219 0
218 -219 0
218 -1659 1756 0
218 1659 -1756 0
-219 -1703 -1717 220 0
-219 1703 1717 220 0
219 -220 0
219 -1703 1717 0
219 1703 -1717 0
-220 -1681 -1735 221 0
-220 1681 1735 221 0
220 -221 0
220 -1681 1735 0
220 1681 -1735 0
-221 -1637 1641 1782 -1793 0
-221 -1637 -1641 -1782 -1793 0
-221 1637 1641 1782 1793 0
-221 1637 -1641 -1782 1793 0
221 1637 -1793 0
221 -1637 1793 0
221 -1641 1782 0
221 1641 -1782 0
-222 -1623 -1805 0
-222 1623 1805 0
222 1623 -1805 0
222 -1623 1805 0
-223 1669 1750 224 228 0
-223 -1669 -1750 224 228 0
223 -228 0
223 -1669 1750 0
223 -224 0
223 1669 -1750 0
-224 -1674 -1780 225 0
-224 1674 1780 225 0
224 -225 0
224 -1674 1780 0
224 1674 -1780 0
-225 -1636 -1732 226 0
-225 1636 1732 226 0
225 -226 0
225 -1636 1732 0
225 1636 -1732 0
-226 -1697 -1783 227 0
-226 1697 1783 227 0
226 -227 0
226 -1697 1783 0
226 1697 -1783 0
-227 -1618 1657 -1702 1736 0
-227 1618 -1657 1702 -1736 0
-227 1618 1657 1702 1736 0
-227 -1618 -1657 -1702 -1736 0
227 -1618 1702 0
227 1618 -1702 0
227 1657 -1736 0
227 -1657 1736 0
-228 -1630 -1713 0
-228 1630 1713 0
228 1630 -1713 0
228 -1630 1713 0
-229 1750 1775 230 234 0
-229 -1750 -1775 230 234 0
229 -234 0
229 -1750 1775 0
229 -230 0
229 1750 -1775 0
-230 -1674 -1696 231 0
-230 1674 1696 231 0
230 -231 0
230 -1674 1696 0
230 1674 -1696 0
-231 -1636 -1653 232 0
-231 1636 1653 232 0
231 -232 0
231 -1636 1653 0
231 1636 -1653 0
-232 -1614 -1783 233 0
-232 1614 1783 233 0
232 -233 0
232 -1614 1783 0
232 1614 -1783 0
-233 1702 1719 -1736 -1759 0
-233 -1702 -1719 -1736 -1759 0
-233 1702 1719 1736 1759 0
-233 -1702 -1719 1736 1759 0
233 1702 -1719 0
233 -1702 1719 0
233 1736 -1759 0
233 -1736 1759 0
-234 -1713 -1728 0
-234 1713 1728 0
234 1713 -1728 0
234 -1713 1728 0
-235 1705 1750 236 240 0
-235 -1705 -1750 236 240 0
235 -240 0
235 -1705 1750 0
235 -236 0
235 1705 -1750 0
-236 -1674 -1794 237 0
-236 1674 1794 237 0
236 -237 0
236 -1674 1794 0
236 1674 -1794 0
-237 -1636 -1640 238 0
-237 1636 1640 238 0
237 -238 0
237 -1636 1640 0
237 1636 -1640 0
-238 -1682 -1783 239 0
-238 1682 1783 239 0
238 -239 0
238 -1682 1783 0
238 1682 -1783 0
-239 -1702 1716 1736 -1757 0
-239 -1702 -1716 -1736 -1757 0
-239 1702 1716 1736 1757 0
-239 1702 -1716 -1736 1757 0
239 1702 -1757 0
239 -1702 1757 0
239 -1716 1736 0
239 1716 -1736 0
-240 -1713 -1742 0
-240 1713 1742 0
240 1713 -1742 0
240 -1713 1742 0
-241 1750 1798 242 246 0
-241 -1750 -1798 242 246 0
241 -246 0
241 -1750 1798 0
241 -242 0
241 1750 -1798 0
-242 -1674 -1685 243 0
-242 1674 1685 243 0
242 -243 0
242 -1674 1685 0
242 1674 -1685 0
-243 -1636 -1720 244 0
-243 1636 1720 244 0
243 -244 0
243 -1636 1720 0
243 1636 -1720 0
-244 -1761 -1783 245 0
-244 1761 1783 245 0
244 -245 0
244 -1761 1783 0
244 1761 -1783 0
-245 -1616 1654 1702 -1736 0
-245 -1616 -1654 -1702 -1736 0
-245 1616 1654 1702 1736 0
-245 1616 -1654 -1702 1736 0
245 1616 -1736 0
245 -1616 1736 0
245 -1654 1702 0
245 1654 -1702 0
-246 -1643 -1713 0
-246 1643 1713 0
246 1643 -1713 0
246 -1643 1713 0
-247 1688 1750 248 252 0
-247 -1688 -1750 248 252 0
247 -252 0
247 -1688 1750 0
247 -248 0
247 1688 -1750 0
-248 -1674 -1763 249 0
-248 1674 1763 249 0
248 -249 0
248 -1674 1763 0
248 1674 -1763 0
-249 -1619 -1636 250 0
-249 1619 1636 250 0
249 -250 0
249 -1619 1636 0
249 1619 -1636 0
-250 -1658 -1783 251 0
-250 1658 1783 251 0
250 -251 0
250 -1658 1783 0
250 1658 -1783 0
-251 -1698 1702 1731 -1736 0
-251 -1698 -1702 -1731 -1736 0
-251 1698 1702 1731 1736 0
-251 1698 -1702 -1731 1736 0
251 1698 -1736 0
251 -1698 1736 0
251 -1702 1731 0
251 1702 -1731 0
-252 -1713 -1723 0
-252 1713 1723 0
252 1713 -1723 0
252 -1713 1723 0
-253 1750 1769 254 258 0
-253 -1750 -1769 254 258 0
253 -258 0
253 -1750 1769 0
253 -254 0
253 1750 -1769 0
-254 -1659 -1674 255 0
-254 1659 1674 255 0
254 -255 0
254 -1659 1674 0
254 1659 -1674 0
-255 -1636 -1703 256 0
-255 1636 1703 256 0
255 -256 0
255 -1636 1703 0
255 1636 -1703 0
-256 -1735 -1783 257 0
-256 1735 1783 257 0
256 -257 0
256 -1735 1783 0
256 1735 -1783 0
-257 1637 1702 -1736 -1782 0
-257 -1637 -1702 -1736 -1782 0
-257 1637 1702 1736 1782 0
-257 -1637 -1702 1736 1782 0
257 1637 -1702 0
257 -1637 1702 0
257 1736 -1782 0
257 -1736 1782 0
-258 -1623 -1713 0
-258 1623 1713 0
258 1623 -1713 0
258 -1623 1713 0
-259 1669 1775 260 264 0
-259 -1669 -1775 260 264 0
259 -264 0
259 -1669 1775 0
259 -260 0
259 1669 -1775 0
-260 -1696 -1780 261 0
-260 1696 1780 261 0
260 -261 0
260 -1696 1780 0
260 1696 -1780 0
-261 -1653 -1732 262 0
-261 1653 1732 262 0
261 -262 0
261 -1653 1732 0
261 1653 -1732 0
-262 -1614 -1697 263 0
-262 1614 1697 263 0
262 -263 0
262 -1614 1697 0
262 1614 -1697 0
-263 -1618 1657 -1719 1759 0
-263 1618 -1657 1719 -1759 0
-263 1618 1657 1719 1759 0
-263 -1618 -1657 -1719 -1759 0
263 -1618 1719 0
263 1618 -1719 0
263 1657 -1759 0
263 -1657 1759 0
-264 -1630 -1728 0
-264 1630 1728 0
264 1630 -1728 0
264 -1630 1728 0
-265 1669 1705 266 270 0
-265 -1669 -1705 266 270 0
265 -270 0
265 -1669 1705 0
265 -266 0
265 1669 -1705 0
-266 -1780 -1794 267 0
-266 1780 1794 267 0
266 -267 0
266 -1780 1794 0
266 1780 -1794 0
-267 -1640 -1732 268 0
-267 1640 1732 268 0
267 -268 0
267 -1640 1732 0
267 1640 -1732 0
-268 -1682 -1697 269 0
-268 1682 1697 269 0
268 -269 0
268 -1682 1697 0
268 1682 -1697 0
-269 -1618 1657 1716 -1757 0
-269 -1618 -1657 -1716 -1757 0
-269 1618 1657 1716 1757 0
-269 1618 -1657 -1716 1757 0
269 1618 -1757 0
269 -1618 1757 0
269 -1657 1716 0
269 1657 -1716 0
-270 -1630 -1742 0
-270 1630 1742 0
270 1630 -1742 0
270 -1630 1742 0
-271 1669 1798 272 276 0
-271 -1669 -1798 272 276 0
271 -276 0
271 -1669 1798 0
271 -272 0
271 1669 -1798 0
-272 -1685 -1780 273 0
-272 1685 1780 273 0
272 -273 0
272 -1685 1780 0
272 1685 -1780 0
-273 -1720 -1732 274 0
-273 1720 1732 274 0
273 -274 0
273 -1720 1732 0
273 1720 -1732 0
-274 -1697 -1761 275 0
-274 1697 1761 275 0
274 -275 0
274 -1697 1761 0
274 1697 -1761 0
-275 -1616 1618 1654 -1657 0
-275 -1616 -1618 -1654 -1657 0
-275 1616 1618 1654 1657 0
-275 1616 -1618 -1654 1657 0
275 1616 -1657 0
275 -1616 1657 0
275 -1618 1654 0
275 1618 -1654 0
-276 -1630 -1643 0
-276 1630 1643 0
276 1630 -1643 0
276 -1630 1643 0
-277 1669 1688 278 282 0
-277 -1669 -1688 278 282 0
277 -282 0
277 -1669 1688 0
277 -278 0
277 1669 -1688 0
-278 -1763 -1780 279 0
-278 1763 1780 279 0
278 -279 0
278 -1763 1780 0
278 1763 -1780 0
-279 -1619 -1732 280 0
-279 1619 1732 280 0
279 -280 0
279 -1619 1732 0
279 1619 -1732 0
-280 -1658 -1697 281 0
-280 1658 1697 281 0
280 -281 0
280 -1658 1697 0
280 1658 -1697 0
-281 -1618 1657 1698 -1731 0
-281 -1618 -1657 -1698 -1731 0
-281 1618 1657 1698 1731 0
-281 1618 -1657 -1698 1731 0
281 1618 -1731 0
281 -1618 1731 0
281 -1657 1698 0
281 1657 -1698 0
-282 -1630 -1723 0
-282 1630 1723 0
282 1630 -1723 0
282 -1630 1723 0
-283 1669 1769 284 288 0
-283 -1669 -1769 284 288 0
283 -288 0
283 -1669 1769 0
283 -284 0
283 1669 -1769 0
-284 -1659 -1780 285 0
-284 1659 1780 285 0
284 -285 0
284 -1659 1780 0
284 1659 -1780 0
-285 -1703 -1732 286 0
-285 1703 1732 286 0
285 -286 0
285 -1703 1732 0
285 1703 -1732 0
-286 -1697 -1735 287 0
-286 1697 1735 287 0
286 -287 0
286 -1697 1735 0
286 1697 -1735 0
-287 1618 1637 -1657 -1782 0
-287 -1618 -1637 -1657 -1782 0
-287 1618 1637 1657 1782 0
-287 -1618 -1637 1657 1782 0
287 1618 -1637 0
287 -1618 1637 0
287 1657 -1782 0
287 -1657 1782 0
-288 -1623 -1630 0
-288 1623 1630 0
288 1623 -1630 0
288 -1623 1630 0
-289 1705 1775 290 294 0
-289 -1705 -1775 290 294 0
289 -294 0
289 -1705 1775 0
289 -290 0
289 1705 -1775 0
-290 -1696 -1794 291 0
-290 1696 1794 291 0
290 -291 0
290 -1696 1794 0
290 1696 -1794 0
-291 -1640 -1653 292 0
-291 1640 1653 292 0
291 -292 0
291 -1640 1653 0
291 1640 -1653 0
-292 -1614 -1682 293 0
-292 1614 1682 293 0
292 -293 0
292 -1614 1682 0
292 1614 -1682 0
-293 -1716 1719 1757 -1759 0
-293 -1716 -1719 -1757 -1759 0
-293 1716 1719 1757 1759 0
-293 1716 -1719 -1757 1759 0
293 1716 -1759 0
293 -1716 1759 0
293 -1719 1757 0
293 1719 -1757 0
-294 -1728 -1742 0
-294 1728 1742 0
294 1728 -1742 0
294 -1728 1742 0
-295 1775 1798 296 300 0
-295 -1775 -1798 296 300 0
295 -300 0
295 -1775 1798 0
295 -296 0
295 1775 -1798 0
-296 -1685 -1696 297 0
-296 1685 1696 297 0
296 -297 0
296 -1685 1696 0
296 1685 -1696 0
-297 -1653 -1720 298 0
-297 1653 1720 298 0
297 -298 0
297 -1653 1720 0
297 1653 -1720 0
-298 -1614 -1761 299 0
-298 1614 1761 299 0
298 -299 0
298 -1614 1761 0
298 1614 -1761 0
-299 -1616 1654 1719 -1759 0
-299 -1616 -1654 -1719 -1759 0
-299 1616 1654 1719 1759 0
-299 1616 -1654 -1719 1759 0
299 1616 -1759 0
299 -1616 1759 0
299 -1654 1719 0
299 1654 -1719 0
-300 -1643 -1728 0
-300 1643 1728 0
300 1643 -1728 0
300 -1643 1728 0
-301 1688 1775 302 306 0
-301 -1688 -1775 302 306 0
301 -306 0
301 -1688 1775 0
301 -302 0
301 1688 -1775 0
-302 -1696 -1763 303 0
-302 1696 1763 303 0
302 -303 0
302 -1696 1763 0
302 1696 -1763 0
-303 -1619 -1653 304 0
-303 1619 1653 304 0
303 -304 0
303 -1619 1653 0
303 1619 -1653 0
-304 -1614 -1658 305 0
-304 1614 1658 305 0
304 -305 0
304 -1614 1658 0
304 1614 -1658 0
-305 -1698 1719 1731 -1759 0
-305 -1698 -1719 -1731 -1759 0
-305 1698 1719 1731 1759 0
-305 1698 -1719 -1731 1759 0
305 1698 -1759 0
305 -1698 1759 0
305 -1719 1731 0
305 1719 -1731 0
-306 -1723 -1728 0
-306 1723 1728 0
306 1723 -1728 0
306 -1723 1728 0
-307 1769 1775 308 312 0
-307 -1769 -1775 308 312 0
307 -312 0
307 -1769 1775 0
307 -308 0
307 1769 -1775 0
-308 -1659 -1696 309 0
-308 1659 1696 309 0
308 -309 0
308 -1659 1696 0
308 1659 -1696 0
-309 -1653 -1703 310 0
-309 1653 1703 310 0
309 -310 0
309 -1653 1703 0
309 1653 -1703 0
-310 -1614 -1735 311 0
-310 1614 1735 311 0
310 -311 0
310 -1614 1735 0
310 1614 -1735 0
-311 1637 1719 -1759 -1782 0
-311 -1637 -1719 -1759 -1782 0
-311 1637 1719 1759 1782 0
-311 -1637 -1719 1759 1782 0
311 1637 -1719 0
311 -1637 1719 0
311 1759 -1782 0
311 -1759 1782 0
-312 -1623 -1728 0
-312 1623 1728 0
312 1623 -1728 0
312 -1623 1728 0
-313 1705 1798 314 318 0
-313 -1705 -1798 314 318 0
313 -318 0
313 -1705 1798 0
313 -314 0
313 1705 -1798 0
-314 -1685 -1794 315 0
-314 1685 1794 315 0
314 -315 0
314 -1685 1794 0
314 1685 -1794 0
-315 -1640 -1720 316 0
-315 1640 1720 316 0
315 -316 0
315 -1640 1720 0
315 1640 -1720 0
-316 -1682 -1761 317 0
-316 1682 1761 317 0
316 -317 0
316 -1682 1761 0
316 1682 -1761 0
-317 -1616 1654 -1716 1757 0
-317 1616 -1654 1716 -1757 0
-317 1616 1654 1716 1757 0
-317 -1616 -1654 -1716 -1757 0
317 -1616 1716 0
317 1616 -1716 0
317 1654 -1757 0
317 -1654 1757 0
-318 -1643 -1742 0
-318 1643 1742 0
318 1643 -1742 0
318 -1643 1742 0
-319 1688 1705 320 324 0
-319 -1688 -1705 320 324 0
319 -324 0
319 -1688 1705 0
319 -320 0
319 1688 -1705 0
-320 -1763 -1794 321 0
-320 1763 1794 321 0
320 -321 0
320 -1763 1794 0
320 1763 -1794 0
-321 -1619 -1640 322 0
-321 1619 1640 322 0
321 -322 0
321 -1619 1640 0
321 1619 -1640 0
-322 -1658 -1682 323 0
-322 1658 1682 323 0
322 -323 0
322 -1658 1682 0
322 1658 -1682 0
-323 1698 1716 -1731 -1757 0
-323 -1698 -1716 -1731 -1757 0
-323 1698 1716 1731 1757 0
-323 -1698 -1716 1731 1757 0
323 1698 -1716 0
323 -1698 1716 0
323 1731 -1757 0
323 -1731 1757 0
-324 -1723 -1742 0
-324 1723 1742 0
324 1723 -1742 0
324 -1723 1742 0
-325 1705 1769 326 330 0
-325 -1705 -1769 326 330 0
325 -330 0
325 -1705 1769 0
325 -326 0
325 1705 -1769 0
-326 -1659 -1794 327 0
-326 1659 1794 327 0
326 -327 0
326 -1659 1794 0
326 1659 -1794 0
-327 -1640 -1703 328 0
-327 1640 1703 328 0
327 -328 0
327 -1640 1703 0
327 1640 -1703 0
-328 -1682 -1735 329 0
-328 1682 1735 329 0
328 -329 0
328 -1682 1735 0
328 1682 -1735 0
-329 -1637 1716 -1757 1782 0
-329 1637 -1716 1757 -1782 0
-329 1637 1716 1757 1782 0
-329 -1637 -1716 -1757 -1782 0
329 -1637 1757 0
329 1637 -1757 0
329 1716 -1782 0
329 -1716 1782 0
-330 -1623 -1742 0
-330 1623 1742 0
330 1623 -1742 0
330 -1623 1742 0
-331 1688 1798 332 336 0
-331 -1688 -1798 332 336 0
331 -336 0
331 -1688 1798 0
331 -332 0
331 1688 -1798 0
-332 -1685 -1763 333 0
-332 1685 1763 333 0
332 -333 0
332 -1685 1763 0
332 1685 -1763 0
-333 -1619 -1720 334 0
-333 1619 1720 334 0
333 -334 0
333 -1619 1720 0
333 1619 -1720 0
-334 -1658 -1761 335 0
-334 1658 1761 335 0
334 -335 0
334 -1658 1761 0
334 1658 -1761 0
-335 -1616 1654 -1698 1731 0
-335 1616 -1654 1698 -1731 0
-335 1616 1654 1698 1731 0
-335 -1616 -1654 -1698 -1731 0
335 -1616 1698 0
335 1616 -1698 0
335 1654 -1731 0
335 -1654 1731 0
-336 -1643 -1723 0
-336 1643 1723 0
336 1643 -1723 0
336 -1643 1723 0
-337 1769 1798 338 342 0
-337 -1769 -1798 338 342 0
337 -342 0
337 -1769 1798 0
337 -338 0
337 1769 -1798 0
-338 -1659 -1685 339 0
-338 1659 1685 339 0
338 -339 0
338 -1659 1685 0
338 1659 -1685 0
-339 -1703 -1720 340 0
-339 1703 1720 340 0
339 -340 0
339 -1703 1720 0
339 1703 -1720 0
-340 -1735 -1761 341 0
-340 1735 1761 341 0
340 -341 0
340 -1735 1761 0
340 1735 -1761 0
-341 -1616 1637 1654 -1782 0
-341 -1616 -1637 -1654 -1782 0
-341 1616 1637 1654 1782 0
-341 1616 -1637 -1654 1782 0
341 1616 -1782 0
341 -1616 1782 0
341 -1637 1654 0
341 1637 -1654 0
-342 -1623 -1643 0
-342 1623 1643 0
342 1623 -1643 0
342 -1623 1643 0
-343 1688 1769 344 348 0
-343 -1688 -1769 344 348 0
343 -348 0
343 -1688 1769 0
343 -344 0
343 1688 -1769 0
-344 -1659 -1763 345 0
-344 1659 1763 345 0
344 -345 0
344 -1659 1763 0
344 1659 -1763 0
-345 -1619 -1703 346 0
-345 1619 1703 346 0
345 -346 0
345 -1619 1703 0
345 1619 -1703 0
-346 -1658 -1735 347 0
-346 1658 1735 347 0
346 -347 0
346 -1658 1735 0
346 1658 -1735 0
-347 -1637 1698 -1731 1782 0
-347 1637 -1698 1731 -1782 0
-347 1637 1698 1731 1782 0
-347 -1637 -1698 -1731 -1782 0
347 -1637 1731 0
347 1637 -1731 0
347 1698 -1782 0
347 -1698 1782 0
-348 -1623 -1723 0
-348 1623 1723 0
348 1623 -1723 0
348 -1623 1723 0
-349 1624 1650 350 354 0
-349 -1624 -1650 350 354 0
349 -354 0
349 -1624 1650 0
349 -350 0
349 1624 -1650 0
-350 -1726 -1756 351 0
-350 1726 1756 351 0
350 -351 0
350 -1726 1756 0
350 1726 -1756 0
-351 -1692 -1717 352 0
-351 1692 1717 352 0
351 -352 0
351 -1692 1717 0
351 1692 -1717 0
-352 -1652 -1681 353 0
-352 1652 1681 353 0
352 -353 0
352 -1652 1681 0
352 1652 -1681 0
-353 -1641 1758 1793 -1807 0
-353 -1641 -1758 -1793 -1807 0
-353 1641 1758 1793 1807 0
-353 1641 -1758 -1793 1807 0
353 1641 -1807 0
353 -1641 1807 0
353 -1758 1793 0
353 1758 -1793 0
-354 -1771 -1805 0
-354 1771 1805 0
354 1771 -1805 0
354 -1771 1805 0
-355 1624 1750 356 360 0
-355 -1624 -1750 356 360 0
355 -360 0
355 -1624 1750 0
355 -356 0
355 1624 -1750 0
-356 -1674 -1726 357 0
-356 1674 1726 357 0
356 -357 0
356 -1674 1726 0
356 1674 -1726 0
-357 -1636 -1692 358 0
-357 1636 1692 358 0
357 -358 0
357 -1636 1692 0
357 1636 -1692 0
-358 -1652 -1783 359 0
-358 1652 1783 359 0
358 -359 0
358 -1652 1783 0
358 1652 -1783 0
-359 -1702 1736 -1758 1807 0
-359 1702 -1736 1758 -1807 0
-359 1702 1736 1758 1807 0
-359 -1702 -1736 -1758 -1807 0
359 -1702 1758 0
359 1702 -1758 0
359 1736 -1807 0
359 -1736 1807 0
-360 -1713 -1771 0
-360 1713 1771 0
360 1713 -1771 0
360 -1713 1771 0
-361 1624 1669 362 366 0
-361 -1624 -1669 362 366 0
361 -366 0
361 -1624 1669 0
361 -362 0
361 1624 -1669 0
-362 -1726 -1780 363 0
-362 1726 1780 363 0
362 -363 0
362 -1726 1780 0
362 1726 -1780 0
-363 -1692 -1732 364 0
-363 1692 1732 364 0
363 -364 0
363 -1692 1732 0
363 1692 -1732 0
-364 -1652 -1697 365 0
-364 1652 1697 365 0
364 -365 0
364 -1652 1697 0
364 1652 -1697 0
-365 -1618 1657 -1758 1807 0
-365 1618 -1657 1758 -1807 0
-365 1618 1657 1758 1807 0
-365 -1618 -1657 -1758 -1807 0
365 -1618 1758 0
365 1618 -1758 0
365 1657 -1807 0
365 -1657 1807 0
-366 -1630 -1771 0
-366 1630 1771 0
366 1630 -1771 0
366 -1630 1771 0
-367 1624 1775 368 372 0
-367 -1624 -1775 368 372 0
367 -372 0
367 -1624 1775 0
367 -368 0
367 1624 -1775 0
-368 -1696 -1726 369 0
-368 1696 1726 369 0
368 -369 0
368 -1696 1726 0
368 1696 -1726 0
-369 -1653 -1692 370 0
-369 1653 1692 370 0
369 -370 0
369 -1653 1692 0
369 1653 -1692 0
-370 -1614 -1652 371 0
-370 1614 1652 371 0
370 -371 0
370 -1614 1652 0
370 1614 -1652 0
-371 1719 1758 -1759 -1807 0
-371 -1719 -1758 -1759 -1807 0
-371 1719 1758 1759 1807 0
-371 -1719 -1758 1759 1807 0
371 1719 -1758 0
371 -1719 1758 0
371 1759 -1807 0
371 -1759 1807 0
-372 -1728 -1771 0
-372 1728 1771 0
372 1728 -1771 0
372 -1728 1771 0
-373 1624 1705 374 378 0
-373 -1624 -1705 374 378 0
373 -378 0
373 -1624 1705 0
373 -374 0
373 1624 -1705 0
-374 -1726 -1794 375 0
-374 1726 1794 375 0
374 -375 0
374 -1726 1794 0
374 1726 -1794 0
-375 -1640 -1692 376 0
-375 1640 1692 376 0
375 -376 0
375 -1640 1692 0
375 1640 -1692 0
-376 -1652 -1682 377 0
-376 1652 1682 377 0
376 -377 0
376 -1652 1682 0
376 1652 -1682 0
-377 -1716 1757 1758 -1807 0
-377 -1716 -1757 -1758 -1807 0
-377 1716 1757 1758 1807 0
-377 1716 -1757 -1758 1807 0
377 1716 -1807 0
377 -1716 1807 0
377 -1757 1758 0
377 1757 -1758 0
-378 -1742 -1771 0
-378 1742 1771 0
378 1742 -1771 0
378 -1742 1771 0
-379 1624 1798 380 384 0
-379 -1624 -1798 380 384 0
379 -384 0
379 -1624 1798 0
379 -380 0
379 1624 -1798 0
-380 -1685 -1726 381 0
-380 1685 1726 381 0
380 -381 0
380 -1685 1726 0
380 1685 -1726 0
-381 -1692 -1720 382 0
-381 1692 1720 382 0
381 -382 0
381 -1692 1720 0
381 1692 -1720 0
-382 -1652 -1761 383 0
-382 1652 1761 383 0
382 -383 0
382 -1652 1761 0
382 1652 -1761 0
-383 -1616 1654 1758 -1807 0
-383 -1616 -1654 -1758 -1807 0
-383 1616 1654 1758 1807 0
-383 1616 -1654 -1758 1807 0
383 1616 -1807 0
383 -1616 1807 0
383 -1654 1758 0
383 1654 -1758 0
-384 -1643 -1771 0
-384 1643 1771 0
384 1643 -1771 0
384 -1643 1771 0
-385 1624 1688 386 390 0
-385 -1624 -1688 386 390 0
385 -390 0
385 -1624 1688 0
385 -386 0
385 1624 -1688 0
-386 -1726 -1763 387 0
-386 1726 1763 387 0
386 -387 0
386 -1726 1763 0
386 1726 -1763 0
-387 -1619 -1692 388 0
-387 1619 1692 388 0
387 -388 0
387 -1619 1692 0
387 1619 -1692 0
-388 -1652 -1658 389 0
-388 1652 1658 389 0
388 -389 0
388 -1652 1658 0
388 1652 -1658 0
-389 -1698 1731 1758 -1807 0
-389 -1698 -1731 -1758 -1807 0
-389 1698 1731 1758 1807 0
-389 1698 -1731 -1758 1807 0
389 1698 -1807 0
389 -1698 1807 0
389 -1731 1758 0
389 1731 -1758 0
-390 -1723 -1771 0
-390 1723 1771 0
390 1723 -1771 0
390 -1723 1771 0
-391 1624 1769 392 396 0
-391 -1624 -1769 392 396 0
391 -396 0
391 -1624 1769 0
391 -392 0
391 1624 -1769 0
-392 -1659 -1726 393 0
-392 1659 1726 393 0
392 -393 0
392 -1659 1726 0
392 1659 -1726 0
-393 -1692 -1703 394 0
-393 1692 1703 394 0
393 -394 0
393 -1692 1703 0
393 1692 -1703 0
-394 -1652 -1735 395 0
-394 1652 1735 395 0
394 -395 0
394 -1652 1735 0
394 1652 -1735 0
-395 1637 1758 -1782 -1807 0
-395 -1637 -1758 -1782 -1807 0
-395 1637 1758 1782 1807 0
-395 -1637 -1758 1782 1807 0
395 1637 -1758 0
395 -1637 1758 0
395 1782 -1807 0
395 -1782 1807 0
-396 -1623 -1771 0
-396 1623 1771 0
396 1623 -1771 0
396 -1623 1771 0
-397 1650 1673 398 402 0
-397 -1650 -1673 398 402 0
397 -402 0
397 -1650 1673 0
397 -398 0
397 1650 -1673 0
-398 -1756 -1790 399 0
-398 1756 1790 399 0
398 -399 0
398 -1756 1790 0
398 1756 -1790 0
-399 -1717 -1740 400 0
-399 1717 1740 400 0
399 -400 0
399 -1717 1740 0
399 1717 -1740 0
-400 -1681 -1701 401 0
-400 1681 1701 401 0
400 -401 0
400 -1681 1701 0
400 1681 -1701 0
-401 -1622 1641 1665 -1793 0
-401 -1622 -1641 -1665 -1793 0
-401 1622 1641 1665 1793 0
-401 1622 -1641 -1665 1793 0
401 1622 -1793 0
401 -1622 1793 0
401 -1641 1665 0
401 1641 -1665 0
-402 -1635 -1805 0
-402 1635 1805 0
402 1635 -1805 0
402 -1635 1805 0
-403 1673 1750 404 408 0
-403 -1673 -1750 404 408 0
403 -408 0
403 -1673 1750 0
403 -404 0
403 1673 -1750 0
-404 -1674 -1790 405 0
-404 1674 1790 405 0
404 -405 0
404 -1674 1790 0
404 1674 -1790 0
-405 -1636 -1740 406 0
-405 1636 1740 406 0
405 -406 0
405 -1636 1740 0
405 1636 -1740 0
-406 -1701 -1783 407 0
-406 1701 1783 407 0
406 -407 0
406 -1701 1783 0
406 1701 -1783 0
-407 -1622 1665 -1702 1736 0
-407 1622 -1665 1702 -1736 0
-407 1622 1665 1702 1736 0
-407 -1622 -1665 -1702 -1736 0
407 -1622 1702 0
407 1622 -1702 0
407 1665 -1736 0
407 -1665 1736 0
-408 -1635 -1713 0
-408 1635 1713 0
408 1635 -1713 0
408 -1635 1713 0
-409 1669 1673 410 414 0
-409 -1669 -1673 410 414 0
409 -414 0
409 -1669 1673 0
409 -410 0
409 1669 -1673 0
-410 -1780 -1790 411 0
-410 1780 1790 411 0
410 -411 0
410 -1780 1790 0
410 1780 -1790 0
-411 -1732 -1740 412 0
-411 1732 1740 412 0
411 -412 0
411 -1732 1740 0
411 1732 -1740 0
-412 -1697 -1701 413 0
-412 1697 1701 413 0
412 -413 0
412 -1697 1701 0
412 1697 -1701 0
-413 1618 1622 -1657 -1665 0
-413 -1618 -1622 -1657 -1665 0
-413 1618 1622 1657 1665 0
-413 -1618 -1622 1657 1665 0
413 1618 -1622 0
413 -1618 1622 0
413 1657 -1665 0
413 -1657 1665 0
-414 -1630 -1635 0
-414 1630 1635 0
414 1630 -1635 0
414 -1630 1635 0
-415 1673 1775 416 420 0
-415 -1673 -1775 416 420 0
415 -420 0
415 -1673 1775 0
415 -416 0
415 1673 -1775 0
-416 -1696 -1790 417 0
-416 1696 1790 417 0
416 -417 0
416 -1696 1790 0
416 1696 -1790 0
-417 -1653 -1740 418 0
-417 1653 1740 418 0
417 -418 0
417 -1653 1740 0
417 1653 -1740 0
-418 -1614 -1701 419 0
-418 1614 1701 419 0
418 -419 0
418 -1614 1701 0
418 1614 -1701 0
-419 -1622 1665 -1719 1759 0
-419 1622 -1665 1719 -1759 0
-419 1622 1665 1719 1759 0
-419 -1622 -1665 -1719 -1759 0
419 -1622 1719 0
419 1622 -1719 0
419 1665 -1759 0
419 -1665 1759 0
-420 -1635 -1728 0
-420 1635 1728 0
420 1635 -1728 0
420 -1635 1728 0
-421 1673 1705 422 426 0
-421 -1673 -1705 422 426 0
421 -426 0
421 -1673 1705 0
421 -422 0
421 1673 -1705 0
-422 -1790 -1794 423 0
-422 1790 1794 423 0
422 -423 0
422 -1790 1794 0
422 1790 -1794 0
-423 -1640 -1740 424 0
-423 1640 1740 424 0
423 -424 0
423 -1640 1740 0
423 1640 -1740 0
-424 -1682 -1701 425 0
-424 1682 1701 425 0
424 -425 0
424 -1682 1701 0
424 1682 -1701 0
-425 -1622 1665 1716 -1757 0
-425 -1622 -1665 -1716 -1757 0
-425 1622 1665 1716 1757 0
-425 1622 -1665 -1716 1757 0
425 1622 -1757 0
425 -1622 1757 0
425 -1665 1716 0
425 1665 -1716 0
-426 -1635 -1742 0
-426 1635 1742 0
426 1635 -1742 0
426 -1635 1742 0
-427 1673 1798 428 432 0
-427 -1673 -1798 428 432 0
427 -432 0
427 -1673 1798 0
427 -428 0
427 1673 -1798 0
-428 -1685 -1790 429 0
-428 1685 1790 429 0
428 -429 0
428 -1685 1790 0
428 1685 -1790 0
-429 -1720 -1740 430 0
-429 1720 1740 430 0
429 -430 0
429 -1720 1740 0
429 1720 -1740 0
-430 -1701 -1761 431 0
-430 1701 1761 431 0
430 -431 0
430 -1701 1761 0
430 1701 -1761 0
-431 -1616 1622 1654 -1665 0
-431 -1616 -1622 -1654 -1665 0
-431 1616 1622 1654 1665 0
-431 1616 -1622 -1654 1665 0
431 1616 -1665 0
431 -1616 1665 0
431 -1622 1654 0
431 1622 -1654 0
-432 -1635 -1643 0
-432 1635 1643 0
432 1635 -1643 0
432 -1635 1643 0
-433 1673 1688 434 438 0
-433 -1673 -1688 434 438 0
433 -438 0
433 -1673 1688 0
433 -434 0
433 1673 -1688 0
-434 -1763 -1790 435 0
-434 1763 1790 435 0
434 -435 0
434 -1763 1790 0
434 1763 -1790 0
-435 -1619 -1740 436 0
-435 1619 1740 436 0
435 -436 0
435 -1619 1740 0
435 1619 -1740 0
-436 -1658 -1701 437 0
-436 1658 1701 437 0
436 -437 0
436 -1658 1701 0
436 1658 -1701 0
-437 -1622 1665 1698 -1731 0
-437 -1622 -1665 -1698 -1731 0
-437 1622 1665 1698 1731 0
-437 1622 -1665 -1698 1731 0
437 1622 -1731 0
437 -1622 1731 0
437 -1665 1698 0
437 1665 -1698 0
-438 -1635 -1723 0
-438 1635 1723 0
438 1635 -1723 0
438 -1635 1723 0
-439 1673 1769 440 444 0
-439 -1673 -1769 440 444 0
439 -444 0
439 -1673 1769 0
439 -440 0
439 1673 -1769 0
-440 -1659 -1790 441 0
-440 1659 1790 441 0
440 -441 0
440 -1659 1790 0
440 1659 -1790 0
-441 -1703 -1740 442 0
-441 1703 1740 442 0
441 -442 0
441 -1703 1740 0
441 1703 -1740 0
-442 -1701 -1735 443 0
-442 1701 1735 443 0
442 -443 0
442 -1701 1735 0
442 1701 -1735 0
-443 1622 1637 -1665 -1782 0
-443 -1622 -1637 -1665 -1782 0
-443 1622 1637 1665 1782 0
-443 -1622 -1637 1665 1782 0
443 1622 -1637 0
443 -1622 1637 0
443 1665 -1782 0
443 -1665 1782 0
-444 -1623 -1635 0
-444 1623 1635 0
444 1623 -1635 0
444 -1623 1635 0
-445 -1712 -1725 0
-445 1712 1725 0
445 1712 -1725 0
445 -1712 1725 0
446 -17 -435 -441 -447 0
-446 447 0
-446 441 0
-446 17 0
-446 435 0
447 -417 -423 -429 -448 0
-447 448 0
-447 429 0
-447 417 0
-447 423 0
448 -399 -405 -411 -449 0
-448 449 0
-448 411 0
-448 399 0
-448 405 0
449 -381 -387 -393 -450 0
-449 450 0
-449 393 0
-449 381 0
-449 387 0
450 -363 -369 -375 -451 0
-450 451 0
-450 375 0
-450 363 0
-450 369 0
451 -345 -351 -357 -452 0
-451 452 0
-451 357 0
-451 345 0
-451 351 0
452 -327 -333 -339 -453 0
-452 453 0
-452 339 0
-452 327 0
-452 333 0
453 -309 -315 -321 -454 0
-453 454 0
-453 321 0
-453 309 0
-453 315 0
454 -291 -297 -303 -455 0
-454 455 0
-454 303 0
-454 291 0
-454 297 0
455 -273 -279 -285 -456 0
-455 456 0
-455 285 0
-455 273 0
-455 279 0
456 -255 -261 -267 -457 0
-456 457 0
-456 267 0
-456 255 0
-456 261 0
457 -237 -243 -249 -458 0
-457 458 0
-457 249 0
-457 237 0
-457 243 0
458 -219 -225 -231 -459 0
-458 459 0
-458 231 0
-458 219 0
-458 225 0
459 -201 -207 -213 -460 0
-459 460 0
-459 213 0
-459 201 0
-459 207 0
460 -182 -188 -195 0
-460 182 0
-460 195 0
-460 188 0
461 -1751 462 -500 0
461 -1751 462 499 0
-461 1751 0
-461 -462 0
-461 -499 500 0
-462 468 -485 0
-462 463 468 0
-462 465 468 0
462 -468 0
462 -463 -465 485 0
463 1713 1750 1802 -464 0
-463 464 0
-463 -1802 0
-463 -1713 0
-463 -1750 0
464 1636 1674 1783 -79 0
-464 79 0
-464 -1783 0
-464 -1636 0
-464 -1674 0
465 1628 1728 1775 -466 0
-465 466 0
-465 -1775 0
-465 -1628 0
-465 -1728 0
466 1614 1653 1696 -467 0
-466 467 0
-466 -1696 0
-466 -1614 0
-466 -1653 0
467 -1719 -1759 0
-467 1719 0
-467 1759 0
468 -463 -469 478 0
468 -463 -469 471 0
-468 463 0
-468 469 0
-468 -471 -478 0
469 1630 1669 1706 -470 0
-469 470 0
-469 -1706 0
-469 -1630 0
-469 -1669 0
470 1732 1780 -102 0
-470 102 0
-470 -1780 0
-470 -1732 0
471 465 -472 0
471 1628 -1764 465 0
471 -1628 1764 465 0
-471 -465 0
-471 1628 1764 472 0
-471 -1628 -1764 472 0
-472 1724 1775 473 477 0
-472 -1724 -1775 473 477 0
472 -477 0
472 -1724 1775 0
472 -473 0
472 1724 -1775 0
-473 1646 1696 474 476 0
-473 -1646 -1696 474 476 0
473 -476 0
473 -1646 1696 0
473 -474 0
473 1646 -1696 0
-474 -1614 -1749 475 0
-474 1614 1749 475 0
474 -475 0
474 -1614 1749 0
474 1614 -1749 0
-475 -1676 1708 -1719 1759 0
-475 1676 -1708 1719 -1759 0
-475 1676 1708 1719 1759 0
-475 -1676 -1708 -1719 -1759 0
475 -1676 1719 0
475 1676 -1719 0
475 1708 -1759 0
475 -1708 1759 0
-476 -1653 -1801 0
-476 1653 1801 0
476 1653 -1801 0
476 -1653 1801 0
-477 -1689 -1728 0
-477 1689 1728 0
477 1689 -1728 0
477 -1689 1728 0
-478 1628 1655 479 484 0
-478 -1628 -1655 479 484 0
478 -484 0
478 -1628 1655 0
478 -479 0
478 1628 -1655 0
-479 1728 1760 480 483 0
-479 -1728 -1760 480 483 0
479 -483 0
479 -1728 1760 0
479 -480 0
479 1728 -1760 0
-480 1653 1683 481 482 0
-480 -1653 -1683 481 482 0
480 -482 0
480 -1653 1683 0
480 -481 0
480 1653 -1683 0
-481 1719 1746 -1759 -1796 0
-481 -1719 -1746 -1759 -1796 0
-481 1719 1746 1759 1796 0
-481 -1719 -1746 1759 1796 0
481 1719 -1746 0
481 -1719 1746 0
481 1759 -1796 0
481 -1759 1796 0
-482 -1614 -1644 0
-482 1614 1644 0
482 1614 -1644 0
482 -1614 1644 0
-483 -1696 -1721 0
-483 1696 1721 0
483 1696 -1721 0
483 -1696 1721 0
-484 -1613 -1775 0
-484 1613 1775 0
484 1613 -1775 0
484 -1613 1775 0
485 -486 -493 0
485 1655 -1706 -486 0
485 -1655 1706 -486 0
-485 486 0
-485 -1655 -1706 493 0
-485 1655 1706 493 0
486 469 -487 0
486 1706 -1764 469 0
486 -1706 1764 469 0
-486 -469 0
-486 1706 1764 487 0
-486 -1706 -1764 487 0
-487 1669 1724 488 492 0
-487 -1669 -1724 488 492 0
487 -492 0
487 -1669 1724 0
487 -488 0
487 1669 -1724 0
-488 1646 1780 489 491 0
-488 -1646 -1780 489 491 0
488 -491 0
488 -1646 1780 0
488 -489 0
488 1646 -1780 0
-489 -1697 -1749 490 0
-489 1697 1749 490 0
489 -490 0
489 -1697 1749 0
489 1697 -1749 0
-490 -1618 1657 -1676 1708 0
-490 1618 -1657 1676 -1708 0
-490 1618 1657 1676 1708 0
-490 -1618 -1657 -1676 -1708 0
490 -1618 1676 0
490 1618 -1676 0
490 1657 -1708 0
490 -1657 1708 0
-491 -1732 -1801 0
-491 1732 1801 0
491 1732 -1801 0
491 -1732 1801 0
-492 -1630 -1689 0
-492 1630 1689 0
492 1630 -1689 0
492 -1630 1689 0
-493 1613 1669 494 498 0
-493 -1613 -1669 494 498 0
493 -498 0
493 -1613 1669 0
493 -494 0
493 1613 -1669 0
-494 1721 1780 495 497 0
-494 -1721 -1780 495 497 0
494 -497 0
494 -1721 1780 0
494 -495 0
494 1721 -1780 0
-495 -1644 -1697 496 0
-495 1644 1697 496 0
495 -496 0
495 -1644 1697 0
495 1644 -1697 0
-496 -1618 1657 -1746 1796 0
-496 1618 -1657 1746 -1796 0
-496 1618 1657 1746 1796 0
-496 -1618 -1657 -1746 -1796 0
496 -1618 1746 0
496 1618 -1746 0
496 1657 -1796 0
496 -1657 1796 0
-497 -1683 -1732 0
-497 1683 1732 0
497 1683 -1732 0
497 -1683 1732 0
-498 -1630 -1760 0
-498 1630 1760 0
498 1630 -1760 0
498 -1630 1760 0
499 -469 -465 0
-499 469 0
-499 465 0
500 -501 -508 0
500 1655 -1802 -501 0
500 -1655 1802 -501 0
-500 501 0
-500 -1655 -1802 508 0
-500 1655 1802 508 0
501 463 -502 0
501 1764 -1802 463 0
501 -1764 1802 463 0
-501 -463 0
-501 1764 1802 502 0
-501 -1764 -1802 502 0
-502 1724 1750 503 507 0
-502 -1724 -1750 503 507 0
502 -507 0
502 -1724 1750 0
502 -503 0
502 1724 -1750 0
-503 1646 1674 504 506 0
-503 -1646 -1674 504 506 0
503 -506 0
503 -1646 1674 0
503 -504 0
503 1646 -1674 0
-504 -1749 -1783 505 0
-504 1749 1783 505 0
504 -505 0
504 -1749 1783 0
504 1749 -1783 0
-505 1676 1702 -1708 -1736 0
-505 -1676 -1702 -1708 -1736 0
-505 1676 1702 1708 1736 0
-505 -1676 -1702 1708 1736 0
505 1676 -1702 0
505 -1676 1702 0
505 1708 -1736 0
505 -1708 1736 0
-506 -1636 -1801 0
-506 1636 1801 0
506 1636 -1801 0
506 -1636 1801 0
-507 -1689 -1713 0
-507 1689 1713 0
507 1689 -1713 0
507 -1689 1713 0
-508 1613 1750 509 513 0
-508 -1613 -1750 509 513 0
508 -513 0
508 -1613 1750 0
508 -509 0
508 1613 -1750 0
-509 1674 1721 510 512 0
-509 -1674 -1721 510 512 0
509 -512 0
509 -1674 1721 0
509 -510 0
509 1674 -1721 0
-510 -1644 -1783 511 0
-510 1644 1783 511 0
510 -511 0
510 -1644 1783 0
510 1644 -1783 0
-511 -1702 1736 -1746 1796 0
-511 1702 -1736 1746 -1796 0
-511 1702 1736 1746 1796 0
-511 -1702 -1736 -1746 -1796 0
511 -1702 1746 0
511 1702 -1746 0
511 1736 -1796 0
511 -1736 1796 0
-512 -1636 -1683 0
-512 1636 1683 0
512 1636 -1683 0
512 -1636 1683 0
-513 -1713 -1760 0
-513 1713 1760 0
513 1713 -1760 0
513 -1713 1760 0
514 -19 -436 -442 -515 0
-514 515 0
-514 442 0
-514 19 0
-514 436 0
515 -418 -424 -430 -516 0
-515 516 0
-515 430 0
-515 418 0
-515 424 0
516 -400 -406 -412 -517 0
-516 517 0
-516 412 0
-516 400 0
-516 406 0
517 -382 -388 -394 -518 0
-517 518 0
-517 394 0
-517 382 0
-517 388 0
518 -364 -370 -376 -519 0
-518 519 0
-518 376 0
-518 364 0
-518 370 0
519 -346 -352 -358 -520 0
-519 520 0
-519 358 0
-519 346 0
-519 352 0
520 -328 -334 -340 -521 0
-520 521 0
-520 340 0
-520 328 0
-520 334 0
521 -310 -316 -322 -522 0
-521 522 0
-521 322 0
-521 310 0
-521 316 0
522 -292 -298 -304 -523 0
-522 523 0
-522 304 0
-522 292 0
-522 298 0
523 -274 -280 -286 -524 0
-523 524 0
-523 286 0
-523 274 0
-523 280 0
524 -256 -262 -268 -525 0
-524 525 0
-524 268 0
-524 256 0
-524 262 0
525 -238 -244 -250 -526 0
-525 526 0
-525 250 0
-525 238 0
-525 244 0
526 -220 -226 -232 -527 0
-526 527 0
-526 232 0
-526 220 0
-526 226 0
527 -202 -208 -214 -528 0
-527 528 0
-527 214 0
-527 202 0
-527 208 0
528 -183 -189 -196 0
-528 183 0
-528 196 0
-528 189 0
-529 1613 530 0
-529 1613 531 0
-529 -530 -531 534 0
529 -1613 530 0
529 -1613 531 0
529 -530 -531 -534 0
-530 1679 7 0
530 -1679 0
530 -7 0
531 532 -533 0
-531 -532 0
-531 533 0
-532 1626 1663 1773 0
532 -1626 0
532 -1773 0
532 -1663 0
533 -1633 1679 -1786 0
-533 1633 0
-533 -1679 0
-533 1786 0
534 -1613 -75 0
534 -1613 -535 0
534 75 535 -536 0
-534 1613 -535 0
-534 75 535 536 0
-534 1613 -75 0
535 -1633 1679 1786 0
-535 1633 0
-535 -1786 0
-535 -1679 0
536 -1613 -532 0
536 -1611 532 -537 0
536 -1613 537 0
-536 1613 537 0
-536 1613 -532 0
-536 1611 532 -537 0
537 -1633 1679 -1786 0
-537 1633 0
-537 -1679 0
-537 1786 0
-538 1614 539 0
-538 -530 -539 549 0
-538 1614 530 0
538 -1614 530 0
538 -1614 539 0
538 -530 -539 -549 0
-539 540 546 0
-539 540 544 547 0
539 -540 0
539 -544 -546 0
539 -546 -547 0
540 -1679 -541 -542 -543 0
-540 542 0
-540 543 0
-540 1679 0
-540 541 0
541 -1626 1663 -1773 0
-541 1626 0
-541 -1663 0
-541 1773 0
542 -1679 7 0
-542 1679 0
-542 -7 0
-543 1711 1754 1804 0
543 -1711 0
543 -1804 0
543 -1754 0
544 -1679 -545 541 -542 0
-544 542 0
-544 -541 0
-544 1679 0
-544 545 0
-545 -1626 0
-545 1663 0
545 1626 -1663 0
-546 1634 1672 1791 0
546 -1634 0
546 -1791 0
546 -1672 0
547 545 532 -548 0
-547 -545 0
-547 -532 0
-547 548 0
548 -1679 541 -542 0
-548 1679 0
-548 -541 0
-548 542 0
549 -1614 -75 0
549 -1614 -535 0
549 75 535 -550 0
-549 1614 -535 0
-549 75 535 550 0
-549 1614 -75 0
550 -1614 -537 0
550 -1614 542 0
550 537 -542 -551 0
-550 1614 -537 0
-550 1614 542 0
-550 537 -542 551 0
551 541 -552 0
551 -541 -557 0
-551 -541 557 0
-551 541 552 0
552 545 -553 0
552 -545 -556 0
-552 -545 556 0
-552 545 553 0
553 -1614 546 0
553 -1614 -532 0
553 532 -546 -554 0
-553 1614 546 0
-553 532 -546 554 0
-553 1614 -532 0
554 -1644 -555 0
554 -1614 555 0
-554 1614 555 0
-554 1644 -555 0
555 -1634 -1672 1791 0
-555 1634 0
-555 1672 0
-555 -1791 0
556 -1614 546 0
556 -1614 555 0
556 -1749 -546 -555 0
-556 1614 546 0
-556 1749 -546 -555 0
-556 1614 555 0
557 -1614 543 0
557 -1614 558 0
557 -1749 -543 -558 0
-557 1614 543 0
-557 1749 -543 -558 0
-557 1614 558 0
558 1711 -1754 -1804 0
-558 1804 0
-558 1754 0
-558 -1711 0
559 -1648 -1687 -93 -560 0
-559 560 0
-559 1648 0
-559 1687 0
-559 93 0
560 -541 -75 -561 -562 0
-560 562 0
-560 541 0
-560 561 0
-560 75 0
561 1693 1727 -1741 0
-561 1741 0
-561 -1727 0
-561 -1693 0
562 1711 1754 -1804 0
-562 1804 0
-562 -1754 0
-562 -1711 0
-563 1616 539 0
-563 -530 -539 564 0
-563 1616 530 0
563 -1616 530 0
563 -1616 539 0
563 -530 -539 -564 0
564 -1616 -75 0
564 -1616 -535 0
564 75 535 -565 0
-564 1616 -535 0
-564 75 535 565 0
-564 1616 -75 0
565 -1616 -537 0
565 -1616 542 0
565 537 -542 -566 0
-565 1616 -537 0
-565 1616 542 0
-565 537 -542 566 0
566 541 -567 0
566 -541 -572 0
-566 -541 572 0
-566 541 567 0
567 545 -568 0
567 -545 -571 0
-567 -545 571 0
-567 545 568 0
568 -1616 546 0
568 -1616 -532 0
568 532 -546 -569 0
-568 1616 546 0
-568 532 -546 569 0
-568 1616 -532 0
569 -1796 -570 0
569 -1616 570 0
-569 1616 570 0
-569 1796 -570 0
570 1634 -1672 -1791 0
-570 1791 0
-570 1672 0
-570 -1634 0
571 -1616 546 0
571 -1616 570 0
571 -1708 -546 -570 0
-571 1616 546 0
-571 1708 -546 -570 0
-571 1616 570 0
572 -1616 543 0
572 -1616 573 0
572 -1708 -543 -573 0
-572 1616 543 0
-572 1708 -543 -573 0
-572 1616 573 0
573 -1711 1754 -1804 0
-573 1711 0
-573 -1754 0
-573 1804 0
574 -128 -542 0
-574 128 0
-574 542 0
-575 1618 539 0
-575 -530 -539 576 0
-575 1618 530 0
575 -1618 530 0
575 -1618 539 0
575 -530 -539 -576 0
576 -1618 -75 0
576 -1618 -535 0
576 75 535 -577 0
-576 1618 -535 0
-576 75 535 577 0
-576 1618 -75 0
577 -1618 -537 0
577 -1618 542 0
577 537 -542 -578 0
-577 1618 -537 0
-577 1618 542 0
-577 537 -542 578 0
578 541 -579 0
578 -541 -584 0
-578 -541 584 0
-578 541 579 0
579 545 -580 0
579 -545 -583 0
-579 -545 583 0
-579 545 580 0
580 -1618 546 0
580 -1618 -532 0
580 532 -546 -581 0
-580 1618 546 0
-580 532 -546 581 0
-580 1618 -532 0
581 -1746 -582 0
581 -1618 582 0
-581 1618 582 0
-581 1746 -582 0
582 -1634 1672 1791 0
-582 1634 0
-582 -1791 0
-582 -1672 0
583 -1618 546 0
583 -1618 582 0
583 -1676 -546 -582 0
-583 1618 546 0
-583 1676 -546 -582 0
-583 1618 582 0
584 -1618 543 0
584 -1618 585 0
584 -1676 -543 -585 0
-584 1618 543 0
-584 1676 -543 -585 0
-584 1618 585 0
585 1711 -1754 1804 0
-585 -1711 0
-585 1754 0
-585 -1804 0
-586 1619 539 0
-586 -530 -539 587 0
-586 1619 530 0
586 -1619 530 0
586 -1619 539 0
586 -530 -539 -587 0
587 -1619 -75 0
587 -1619 -535 0
587 75 535 -588 0
-587 1619 -535 0
-587 75 535 588 0
-587 1619 -75 0
588 -1619 -537 0
588 -1619 542 0
588 537 -542 -589 0
-588 1619 -537 0
-588 1619 542 0
-588 537 -542 589 0
589 541 -590 0
589 -541 -595 0
-589 -541 595 0
-589 541 590 0
590 545 -591 0
590 -545 -594 0
-590 -545 594 0
-590 545 591 0
591 -1619 546 0
591 -1619 -532 0
591 532 -546 -592 0
-591 1619 546 0
-591 532 -546 592 0
-591 1619 -532 0
592 -1683 -593 0
592 -1619 593 0
-592 1619 593 0
-592 1683 -593 0
593 -1634 1672 -1791 0
-593 1634 0
-593 -1672 0
-593 1791 0
594 -1619 546 0
594 -1619 593 0
594 -1801 -546 -593 0
-594 1619 546 0
-594 1801 -546 -593 0
-594 1619 593 0
595 -1619 543 0
595 -1619 596 0
595 -1801 -543 -596 0
-595 1619 543 0
-595 1801 -543 -596 0
-595 1619 596 0
596 -1711 -1754 1804 0
-596 1711 0
-596 1754 0
-596 -1804 0
-597 1622 530 0
-597 1622 598 0
-597 -530 -598 599 0
597 -1622 530 0
597 -1622 598 0
597 -530 -598 -599 0
598 -7 -75 0
-598 7 0
-598 75 0
599 -1622 75 0
599 -75 -610 0
599 -75 -600 0
-599 1622 75 0
-599 -75 600 610 0
-600 1672 601 609 0
-600 -1672 601 608 0
600 -601 0
600 1672 -609 0
600 -1672 -608 0
-601 1672 602 607 0
-601 -1672 602 606 0
601 -602 0
601 1672 -607 0
601 -1672 -606 0
-602 -1672 604 0
-602 1672 603 605 0
602 1672 -605 0
602 -1672 -604 0
602 1672 -603 0
603 1634 1791 -1793 0
-603 1793 0
-603 -1791 0
-603 -1634 0
604 1634 -1702 1791 0
-604 -1634 0
-604 1702 0
-604 -1791 0
605 -1618 -1634 1791 0
-605 1618 0
-605 1634 0
-605 -1791 0
606 -1634 -1719 1791 0
-606 1634 0
-606 1719 0
-606 -1791 0
607 1634 -1757 -1791 0
-607 1791 0
-607 1757 0
-607 -1634 0
608 1634 -1654 -1791 0
-608 1791 0
-608 1654 0
-608 -1634 0
609 -1634 -1731 -1791 0
-609 1634 0
-609 1731 0
-609 1791 0
610 -1634 -1637 -1672 -1791 0
-610 1791 0
-610 1634 0
-610 1672 0
-610 1637 0
-611 1623 539 0
-611 -530 -539 612 0
-611 1623 530 0
611 -1623 530 0
611 -1623 539 0
611 -530 -539 -612 0
612 -1623 -75 0
612 -1623 -535 0
612 75 535 -613 0
-612 1623 -535 0
-612 75 535 613 0
-612 1623 -75 0
613 -1623 -537 0
613 -1623 542 0
613 537 -542 -614 0
-613 1623 -537 0
-613 1623 542 0
-613 537 -542 614 0
614 541 -615 0
614 -541 -620 0
-614 -541 620 0
-614 541 615 0
615 545 -616 0
615 -545 -619 0
-615 -545 619 0
-615 545 616 0
616 -1623 546 0
616 -1623 -532 0
616 532 -546 -617 0
-616 1623 546 0
-616 532 -546 617 0
-616 1623 -532 0
617 -1760 -618 0
617 -1623 618 0
-617 1623 618 0
-617 1760 -618 0
618 -1634 -1672 -1791 0
-618 1634 0
-618 1672 0
-618 1791 0
619 -1623 546 0
619 -1623 618 0
619 -1689 -546 -618 0
-619 1623 546 0
-619 1689 -546 -618 0
-619 1623 618 0
620 -1623 543 0
620 -1623 621 0
620 -1689 -543 -621 0
-620 1623 543 0
-620 1689 -543 -621 0
-620 1623 621 0
621 -1711 -1754 -1804 0
-621 1711 0
-621 1754 0
-621 1804 0
-622 1624 530 0
-622 1624 598 0
-622 -530 -598 623 0
622 -1624 530 0
622 -1624 598 0
622 -530 -598 -623 0
623 -1624 75 0
623 -75 -634 0
623 -75 -624 0
-623 1624 75 0
-623 -75 624 634 0
-624 1741 625 633 0
-624 -1741 625 632 0
624 -625 0
624 1741 -633 0
624 -1741 -632 0
-625 1741 626 631 0
-625 -1741 626 630 0
625 -626 0
625 1741 -631 0
625 -1741 -630 0
-626 -1741 628 0
-626 1741 627 629 0
626 1741 -629 0
626 -1741 -628 0
626 1741 -627 0
627 -1650 1693 1727 0
-627 1650 0
-627 -1727 0
-627 -1693 0
628 1693 1727 -1750 0
-628 1750 0
-628 -1727 0
-628 -1693 0
629 -1669 -1693 1727 0
-629 1669 0
-629 1693 0
-629 -1727 0
630 -1693 1727 -1775 0
-630 1693 0
-630 -1727 0
-630 1775 0
631 1693 -1705 -1727 0
-631 1727 0
-631 1705 0
-631 -1693 0
632 1693 -1727 -1798 0
-632 1798 0
-632 1727 0
-632 -1693 0
633 -1688 -1693 -1727 0
-633 1688 0
-633 1693 0
-633 1727 0
634 -1693 -1727 -1741 -1769 0
-634 1769 0
-634 1693 0
-634 1741 0
-634 1727 0
-635 1626 -530 0
-635 1603 530 0
635 -1626 -530 0
635 -1603 530 0
-636 1628 539 0
-636 -530 -539 637 0
-636 1628 530 0
636 -1628 530 0
636 -1628 539 0
636 -530 -539 -637 0
637 -1628 -75 0
637 -1628 -535 0
637 75 535 -638 0
-637 1628 -535 0
-637 75 535 638 0
-637 1628 -75 0
638 -1628 -537 0
638 -1628 542 0
638 537 -542 -639 0
-638 1628 -537 0
-638 1628 542 0
-638 537 -542 639 0
639 541 -640 0
639 -541 -644 0
-639 -541 644 0
-639 541 640 0
640 545 -641 0
640 -545 -643 0
-640 -545 643 0
-640 545 641 0
641 -1628 546 0
641 -1628 -532 0
641 532 -546 -642 0
-641 1628 546 0
-641 532 -546 642 0
-641 1628 -532 0
642 -1655 -555 0
642 -1628 555 0
-642 1628 555 0
-642 1655 -555 0
643 -1628 546 0
643 -1628 555 0
643 -1764 -546 -555 0
-643 1628 546 0
-643 1764 -546 -555 0
-643 1628 555 0
644 -1628 543 0
644 -1628 558 0
644 -1764 -543 -558 0
-644 1628 543 0
-644 1764 -543 -558 0
-644 1628 558 0
-645 1630 539 0
-645 -530 -539 646 0
-645 1630 530 0
645 -1630 530 0
645 -1630 539 0
645 -530 -539 -646 0
646 -1630 -75 0
646 -1630 -535 0
646 75 535 -647 0
-646 1630 -535 0
-646 75 535 647 0
-646 1630 -75 0
647 -1630 -537 0
647 -1630 542 0
647 537 -542 -648 0
-647 1630 -537 0
-647 1630 542 0
-647 537 -542 648 0
648 541 -649 0
648 -541 -653 0
-648 -541 653 0
-648 541 649 0
649 545 -650 0
649 -545 -652 0
-649 -545 652 0
-649 545 650 0
650 -1630 546 0
650 -1630 -532 0
650 532 -546 -651 0
-650 1630 546 0
-650 532 -546 651 0
-650 1630 -532 0
651 -1760 -582 0
651 -1630 582 0
-651 1630 582 0
-651 1760 -582 0
652 -1630 546 0
652 -1630 582 0
652 -1689 -546 -582 0
-652 1630 546 0
-652 1689 -546 -582 0
-652 1630 582 0
653 -1630 543 0
653 -1630 585 0
653 -1689 -543 -585 0
-653 1630 543 0
-653 1689 -543 -585 0
-653 1630 585 0
-654 1632 530 0
-654 1632 533 0
-654 -530 -533 655 0
654 -1632 530 0
654 -1632 533 0
654 -530 -533 -655 0
655 -1632 -75 0
655 -1632 -535 0
655 75 535 -656 0
-655 1632 -535 0
-655 75 535 656 0
-655 1632 -75 0
656 -537 -657 0
656 -1632 537 0
-656 -537 657 0
-656 1632 537 0
657 1768 -1789 0
657 -1789 24 0
657 -1768 -1801 -24 0
-657 1789 24 0
-657 1768 1789 0
-657 -1768 1801 -24 0
658 1633 -1786 0
658 -1633 1786 0
-658 -1633 -1786 0
-658 1633 1786 0
-659 1634 -530 0
-659 1597 530 0
659 -1634 -530 0
659 -1597 530 0
-660 1635 530 0
-660 1635 598 0
-660 -530 -598 661 0
660 -1635 530 0
660 -1635 598 0
660 -530 -598 -661 0
661 -1635 75 0
661 -75 -672 0
661 -75 -662 0
-661 1635 75 0
-661 -75 662 672 0
-662 1672 663 671 0
-662 -1672 663 670 0
662 -663 0
662 1672 -671 0
662 -1672 -670 0
-663 1672 664 669 0
-663 -1672 664 668 0
663 -664 0
663 1672 -669 0
663 -1672 -668 0
-664 -1672 666 0
-664 1672 665 667 0
664 1672 -667 0
664 -1672 -666 0
664 1672 -665 0
665 1634 1791 -1805 0
-665 1805 0
-665 -1791 0
-665 -1634 0
666 1634 -1713 1791 0
-666 -1634 0
-666 1713 0
-666 -1791 0
667 -1630 -1634 1791 0
-667 1630 0
-667 1634 0
-667 -1791 0
668 -1634 -1728 1791 0
-668 1634 0
-668 1728 0
-668 -1791 0
669 1634 -1742 -1791 0
-669 1791 0
-669 1742 0
-669 -1634 0
670 1634 -1643 -1791 0
-670 1791 0
-670 1643 0
-670 -1634 0
671 -1634 -1723 -1791 0
-671 1634 0
-671 1723 0
-671 1791 0
672 -1623 -1634 -1672 -1791 0
-672 1791 0
-672 1623 0
-672 1672 0
-672 1634 0
-673 1636 539 0
-673 -530 -539 674 0
-673 1636 530 0
673 -1636 530 0
673 -1636 539 0
673 -530 -539 -674 0
674 -1636 -75 0
674 -1636 -535 0
674 75 535 -675 0
-674 1636 -535 0
-674 75 535 675 0
-674 1636 -75 0
675 -1636 -537 0
675 -1636 542 0
675 537 -542 -676 0
-675 1636 -537 0
-675 1636 542 0
-675 537 -542 676 0
676 541 -677 0
676 -541 -682 0
-676 -541 682 0
-676 541 677 0
677 545 -678 0
677 -545 -681 0
-677 -545 681 0
-677 545 678 0
678 -1636 546 0
678 -1636 -532 0
678 532 -546 -679 0
-678 1636 546 0
-678 532 -546 679 0
-678 1636 -532 0
679 -1683 -680 0
679 -1636 680 0
-679 1636 680 0
-679 1683 -680 0
680 1634 -1672 1791 0
-680 -1634 0
-680 1672 0
-680 -1791 0
681 -1636 546 0
681 -1636 680 0
681 -1801 -546 -680 0
-681 1636 546 0
-681 1801 -546 -680 0
-681 1636 680 0
682 -1636 543 0
682 -1636 562 0
682 -1801 -543 -562 0
-682 1636 543 0
-682 1801 -543 -562 0
-682 1636 562 0
-683 1637 539 0
-683 -530 -539 684 0
-683 1637 530 0
683 -1637 530 0
683 -1637 539 0
683 -530 -539 -684 0
684 -1637 -75 0
684 -1637 -535 0
684 75 535 -685 0
-684 1637 -535 0
-684 75 535 685 0
-684 1637 -75 0
685 -1637 -537 0
685 -1637 542 0
685 537 -542 -686 0
-685 1637 -537 0
-685 1637 542 0
-685 537 -542 686 0
686 541 -687 0
686 -541 -691 0
-686 -541 691 0
-686 541 687 0
687 545 -688 0
687 -545 -690 0
-687 -545 690 0
-687 545 688 0
688 -1637 546 0
688 -1637 -532 0
688 532 -546 -689 0
-688 1637 546 0
-688 532 -546 689 0
-688 1637 -532 0
689 -1746 -618 0
689 -1637 618 0
-689 1637 618 0
-689 1746 -618 0
690 -1637 546 0
690 -1637 618 0
690 -1676 -546 -618 0
-690 1637 546 0
-690 1676 -546 -618 0
-690 1637 618 0
691 -1637 543 0
691 -1637 621 0
691 -1676 -543 -621 0
-691 1637 543 0
-691 1676 -543 -621 0
-691 1637 621 0
-692 1638 -530 0
-692 1678 530 693 0
-692 -1678 530 -693 0
692 -1638 -530 0
692 1678 530 -693 0
692 -1678 530 693 0
693 -1632 -1738 -1788 0
-693 1632 0
-693 1738 0
-693 1788 0
694 -561 -562 -680 -695 0
-694 695 0
-694 561 0
-694 680 0
-694 562 0
695 -541 696 0
-695 541 0
-695 -696 0
-696 1648 1687 1722 0
696 -1648 0
696 -1722 0
696 -1687 0
-697 1640 539 0
-697 -530 -539 698 0
-697 1640 530 0
697 -1640 530 0
697 -1640 539 0
697 -530 -539 -698 0
698 -1640 -75 0
698 -1640 -535 0
698 75 535 -699 0
-698 1640 -535 0
-698 75 535 699 0
-698 1640 -75 0
699 -1640 -537 0
699 -1640 542 0
699 537 -542 -700 0
-699 1640 -537 0
-699 1640 542 0
-699 537 -542 700 0
700 541 -701 0
700 -541 -706 0
-700 -541 706 0
-700 541 701 0
701 545 -702 0
701 -545 -705 0
-701 -545 705 0
-701 545 702 0
702 -1640 546 0
702 -1640 -532 0
702 532 -546 -703 0
-702 1640 546 0
-702 532 -546 703 0
-702 1640 -532 0
703 -1683 -704 0
703 -1640 704 0
-703 1640 704 0
-703 1683 -704 0
704 1634 1672 -1791 0
-704 1791 0
-704 -1672 0
-704 -1634 0
705 -1640 546 0
705 -1640 704 0
705 -1801 -546 -704 0
-705 1640 546 0
-705 1801 -546 -704 0
-705 1640 704 0
706 -1640 543 0
706 -1640 707 0
706 -1801 -543 -707 0
-706 1640 543 0
-706 1801 -543 -707 0
-706 1640 707 0
707 -1711 1754 1804 0
-707 1711 0
-707 -1804 0
-707 -1754 0
-708 1641 0
708 -1641 0
-709 1643 539 0
-709 -530 -539 710 0
-709 1643 530 0
709 -1643 530 0
709 -1643 539 0
709 -530 -539 -710 0
710 -1643 -75 0
710 -1643 -535 0
710 75 535 -711 0
-710 1643 -535 0
-710 75 535 711 0
-710 1643 -75 0
711 -1643 -537 0
711 -1643 542 0
711 537 -542 -712 0
-711 1643 -537 0
-711 1643 542 0
-711 537 -542 712 0
712 541 -713 0
712 -541 -717 0
-712 -541 717 0
-712 541 713 0
713 545 -714 0
713 -545 -716 0
-713 -545 716 0
-713 545 714 0
714 -1643 546 0
714 -1643 -532 0
714 532 -546 -715 0
-714 1643 546 0
-714 532 -546 715 0
-714 1643 -532 0
715 -1760 -570 0
715 -1643 570 0
-715 1643 570 0
-715 1760 -570 0
716 -1643 546 0
716 -1643 570 0
716 -1689 -546 -570 0
-716 1643 546 0
-716 1689 -546 -570 0
-716 1643 570 0
717 -1643 543 0
717 -1643 573 0
717 -1689 -543 -573 0
-717 1643 543 0
-717 1689 -543 -573 0
-717 1643 573 0
-718 1644 530 0
-718 1644 531 0
-718 -530 -531 719 0
718 -1644 530 0
718 -1644 531 0
718 -530 -531 -719 0
719 -1644 -75 0
719 -1644 -535 0
719 75 535 -720 0
-719 1644 -535 0
-719 75 535 720 0
-719 1644 -75 0
720 -1644 -532 0
720 -1607 532 -537 0
720 -1644 537 0
-720 1644 537 0
-720 1644 -532 0
-720 1607 532 -537 0
-721 1646 722 0
-721 -530 -722 745 0
-721 1646 530 0
721 -1646 530 0
721 -1646 722 0
721 -530 -722 -745 0
-722 723 744 0
722 -723 0
722 -744 0
-723 726 743 0
-723 724 725 726 0
723 -726 0
723 -725 -743 0
723 -724 -743 0
724 1626 -1663 1773 0
-724 -1626 0
-724 1663 0
-724 -1773 0
725 1626 -1663 -1773 0
-725 1773 0
-725 1663 0
-725 -1626 0
-726 728 740 0
-726 727 728 742 0
726 -728 0
726 -727 -740 0
726 -740 -742 0
727 -1648 -1687 -1722 0
-727 1648 0
-727 1687 0
-727 1722 0
-728 729 738 0
-728 29 729 739 0
728 -729 0
728 -29 -738 0
728 -738 -739 0
-729 730 737 0
-729 49 56 730 0
729 -730 0
729 -56 -737 0
729 -49 -737 0
-730 63 731 0
-730 731 734 0
730 -731 0
730 -63 -734 0
-731 733 0
-731 -732 541 0
-731 -732 -696 0
731 732 -733 0
731 -541 696 -733 0
732 -1626 0
732 -1663 0
-732 1626 1663 0
733 75 -530 -535 0
-733 535 0
-733 530 0
-733 -75 0
734 -696 -735 0
-734 696 0
-734 735 0
735 -541 -736 0
-735 541 0
-735 736 0
736 -732 75 -530 -535 0
-736 535 0
-736 530 0
-736 732 0
-736 -75 0
737 63 -734 0
-737 -63 0
-737 734 0
738 -1648 -735 0
-738 1648 0
-738 735 0
739 -1648 1687 -1722 0
-739 1648 0
-739 -1687 0
-739 1722 0
740 -741 739 0
-740 741 0
-740 -739 0
741 29 -738 0
-741 -29 0
-741 738 0
742 -1648 -1687 1722 0
-742 1648 0
-742 1687 0
-742 -1722 0
743 541 -736 0
-743 -541 0
-743 736 0
744 -24 545 -743 0
-744 24 0
-744 -545 0
-744 743 0
745 -1646 -75 0
745 -1646 535 0
745 75 -535 -746 0
-745 1646 -75 0
-745 1646 535 0
-745 75 -535 746 0
746 -732 -753 0
746 732 -747 0
-746 732 747 0
-746 -732 753 0
-747 748 749 0
-747 -748 -749 0
747 -748 749 0
747 748 -749 0
-748 -1726 -1754 0
-748 1726 1754 0
748 1726 -1754 0
748 -1726 1754 0
-749 1804 750 0
-749 1692 1804 0
-749 1692 750 0
749 -1692 -1804 0
749 -1804 -750 0
749 -1692 -750 0
-750 1652 751 0
-750 1648 1652 0
-750 1648 751 0
750 -1648 -1652 0
750 -1652 -751 0
750 -1648 -751 0
-751 1687 752 0
-751 1807 752 0
-751 1687 1807 0
751 -1687 -1807 0
751 -1807 -752 0
751 -1687 -752 0
752 -1722 -1758 0
-752 1722 0
-752 1758 0
753 541 -754 0
753 -541 -766 0
-753 -541 766 0
-753 541 754 0
754 545 -755 0
754 -545 -760 0
-754 -545 760 0
-754 545 755 0
755 -1646 24 0
755 -24 -756 757 0
755 -24 756 -757 0
-755 1646 24 0
-755 -24 756 757 0
-755 -24 -756 -757 0
-756 -1638 -1804 0
-756 1638 1804 0
756 1638 -1804 0
756 -1638 1804 0
-757 1789 758 0
-757 1648 1789 0
-757 1648 758 0
757 -1648 -1789 0
757 -1789 -758 0
757 -1648 -758 0
-758 1687 759 0
-758 1739 759 0
-758 1687 1739 0
758 -1687 -1739 0
758 -1739 -759 0
758 -1687 -759 0
759 -1704 -1722 0
-759 1704 0
-759 1722 0
760 724 -761 0
760 -724 -747 0
-760 -724 747 0
-760 724 761 0
761 -1646 725 0
761 -725 -748 762 0
761 -725 748 -762 0
-761 1646 725 0
-761 -725 748 762 0
-761 -725 -748 -762 0
-762 -1692 763 0
-762 -1692 1804 0
-762 1804 763 0
762 -1804 -763 0
762 1692 -763 0
762 1692 -1804 0
-763 1648 -1652 0
-763 -1652 764 0
-763 1648 764 0
763 1652 -764 0
763 -1648 1652 0
763 -1648 -764 0
-764 -1807 765 0
-764 1687 765 0
-764 1687 -1807 0
764 -1687 -765 0
764 -1687 1807 0
764 1807 -765 0
765 -1722 1758 0
-765 1722 0
-765 -1758 0
766 -696 -767 0
766 -16 696 778 0
766 16 696 -778 0
-766 -696 767 0
-766 16 696 778 0
-766 -16 696 -778 0
767 63 -768 0
767 -16 -63 774 0
767 16 -63 -774 0
-767 63 768 0
-767 16 -63 774 0
-767 -16 -63 -774 0
768 -49 -769 0
768 49 -770 0
-768 49 770 0
-768 -49 769 0
769 -1726 -1790 0
-769 1726 0
-769 1790 0
770 56 -771 0
770 -1726 -56 0
770 -1790 -56 0
-770 56 771 0
-770 1726 1790 -56 0
771 -16 -29 0
771 29 -772 0
-771 16 -29 0
-771 29 772 0
772 1726 -739 0
772 739 -773 0
-772 -1726 -739 0
-772 739 773 0
773 -1771 -727 0
773 -1771 -742 0
773 -1646 727 742 0
-773 1771 -742 0
-773 1771 -727 0
-773 1646 727 742 0
-774 -1692 775 0
-774 -1692 1740 0
-774 1740 775 0
774 -1740 -775 0
774 1692 -775 0
774 1692 -1740 0
-775 -1652 776 0
-775 -1652 1701 0
-775 1701 776 0
775 -1701 -776 0
775 1652 -776 0
775 1652 -1701 0
-776 -1807 777 0
-776 1665 777 0
-776 1665 -1807 0
776 -1665 -777 0
776 -1665 1807 0
776 1807 -777 0
777 -1622 1758 0
-777 1622 0
-777 -1758 0
-778 1740 779 0
-778 1692 1740 0
-778 1692 779 0
778 -1692 -1740 0
778 -1740 -779 0
778 -1692 -779 0
-779 1701 780 0
-779 1652 1701 0
-779 1652 780 0
779 -1652 -1701 0
779 -1701 -780 0
779 -1652 -780 0
-780 1665 781 0
-780 1807 781 0
-780 1665 1807 0
780 -1665 -1807 0
780 -1807 -781 0
780 -1665 -781 0
781 -1622 -1758 0
-781 1622 0
-781 1758 0
-782 1648 -530 0
-782 1592 530 0
782 -1648 -530 0
782 -1592 530 0
-783 1649 539 0
-783 -530 -539 784 0
-783 1649 530 0
783 -1649 530 0
783 -1649 539 0
783 -530 -539 -784 0
784 -1649 -75 0
784 -1649 -535 0
784 75 535 -785 0
-784 1649 -535 0
-784 75 535 785 0
-784 1649 -75 0
785 -1649 -537 0
785 -1649 542 0
785 537 -542 -786 0
-785 1649 -537 0
-785 1649 542 0
-785 537 -542 786 0
786 541 -787 0
786 -541 -791 0
-786 -541 791 0
-786 541 787 0
787 545 -788 0
787 -545 -790 0
-787 -545 790 0
-787 545 788 0
788 -1649 546 0
788 -1649 -532 0
788 532 -546 -789 0
-788 1649 546 0
-788 532 -546 789 0
-788 1649 -532 0
789 -1655 -593 0
789 -1649 593 0
-789 1649 593 0
-789 1655 -593 0
790 -1649 546 0
790 -1649 593 0
790 -1764 -546 -593 0
-790 1649 546 0
-790 1764 -546 -593 0
-790 1649 593 0
791 -1649 543 0
791 -1649 596 0
791 -1764 -543 -596 0
-791 1649 543 0
-791 1764 -543 -596 0
-791 1649 596 0
-792 1650 0
792 -1650 0
-793 1652 530 0
-793 1652 598 0
-793 -530 -598 794 0
793 -1652 530 0
793 -1652 598 0
793 -530 -598 -794 0
794 -1652 75 0
794 -75 -805 0
794 -75 -795 0
-794 1652 75 0
-794 -75 795 805 0
-795 1741 796 804 0
-795 -1741 796 803 0
795 -796 0
795 1741 -804 0
795 -1741 -803 0
-796 1741 797 802 0
-796 -1741 797 801 0
796 -797 0
796 1741 -802 0
796 -1741 -801 0
-797 -1741 799 0
-797 1741 798 800 0
797 1741 -800 0
797 -1741 -799 0
797 1741 -798 0
798 -1681 1693 1727 0
-798 1681 0
-798 -1727 0
-798 -1693 0
799 1693 1727 -1783 0
-799 1783 0
-799 -1727 0
-799 -1693 0
800 -1693 -1697 1727 0
-800 1693 0
-800 1697 0
-800 -1727 0
801 -1614 -1693 1727 0
-801 1614 0
-801 1693 0
-801 -1727 0
802 -1682 1693 -1727 0
-802 1682 0
-802 -1693 0
-802 1727 0
803 1693 -1727 -1761 0
-803 1761 0
-803 1727 0
-803 -1693 0
804 -1658 -1693 -1727 0
-804 1658 0
-804 1693 0
-804 1727 0
805 -1693 -1727 -1735 -1741 0
-805 1741 0
-805 1693 0
-805 1735 0
-805 1727 0
-806 1653 539 0
-806 -530 -539 807 0
-806 1653 530 0
806 -1653 530 0
806 -1653 539 0
806 -530 -539 -807 0
807 -1653 -75 0
807 -1653 -535 0
807 75 535 -808 0
-807 1653 -535 0
-807 75 535 808 0
-807 1653 -75 0
808 -1653 -537 0
808 -1653 542 0
808 537 -542 -809 0
-808 1653 -537 0
-808 1653 542 0
-808 537 -542 809 0
809 541 -810 0
809 -541 -814 0
-809 -541 814 0
-809 541 810 0
810 545 -811 0
810 -545 -813 0
-810 -545 813 0
-810 545 811 0
811 -1653 546 0
811 -1653 -532 0
811 532 -546 -812 0
-811 1653 546 0
-811 532 -546 812 0
-811 1653 -532 0
812 -1683 -555 0
812 -1653 555 0
-812 1653 555 0
-812 1683 -555 0
813 -1653 546 0
813 -1653 555 0
813 -1801 -546 -555 0
-813 1653 546 0
-813 1801 -546 -555 0
-813 1653 555 0
814 -1653 543 0
814 -1653 558 0
814 -1801 -543 -558 0
-814 1653 543 0
-814 1801 -543 -558 0
-814 1653 558 0
-815 1654 539 0
-815 -530 -539 816 0
-815 1654 530 0
815 -1654 530 0
815 -1654 539 0
815 -530 -539 -816 0
816 -1654 -75 0
816 -1654 -535 0
816 75 535 -817 0
-816 1654 -535 0
-816 75 535 817 0
-816 1654 -75 0
817 -1654 -537 0
817 -1654 542 0
817 537 -542 -818 0
-817 1654 -537 0
-817 1654 542 0
-817 537 -542 818 0
818 541 -819 0
818 -541 -823 0
-818 -541 823 0
-818 541 819 0
819 545 -820 0
819 -545 -822 0
-819 -545 822 0
-819 545 820 0
820 -1654 546 0
820 -1654 -532 0
820 532 -546 -821 0
-820 1654 546 0
-820 532 -546 821 0
-820 1654 -532 0
821 -1746 -570 0
821 -1654 570 0
-821 1654 570 0
-821 1746 -570 0
822 -1654 546 0
822 -1654 570 0
822 -1676 -546 -570 0
-822 1654 546 0
-822 1676 -546 -570 0
-822 1654 570 0
823 -1654 543 0
823 -1654 573 0
823 -1676 -543 -573 0
-823 1654 543 0
-823 1676 -543 -573 0
-823 1654 573 0
-824 1655 530 0
-824 1655 531 0
-824 -530 -531 825 0
824 -1655 530 0
824 -1655 531 0
824 -530 -531 -825 0
825 -1655 -75 0
825 -1655 -535 0
825 75 535 -826 0
-825 1655 -535 0
-825 75 535 826 0
-825 1655 -75 0
826 -1655 -532 0
826 -1612 532 -537 0
826 -1655 537 0
-826 1655 537 0
-826 1655 -532 0
-826 1612 532 -537 0
-827 1657 539 0
-827 -530 -539 828 0
-827 1657 530 0
827 -1657 530 0
827 -1657 539 0
827 -530 -539 -828 0
828 -1657 -75 0
828 -1657 -535 0
828 75 535 -829 0
-828 1657 -535 0
-828 75 535 829 0
-828 1657 -75 0
829 -1657 -537 0
829 -1657 542 0
829 537 -542 -830 0
-829 1657 -537 0
-829 1657 542 0
-829 537 -542 830 0
830 541 -831 0
830 -541 -835 0
-830 -541 835 0
-830 541 831 0
831 545 -832 0
831 -545 -834 0
-831 -545 834 0
-831 545 832 0
832 -1657 546 0
832 -1657 -532 0
832 532 -546 -833 0
-832 1657 546 0
-832 532 -546 833 0
-832 1657 -532 0
833 -1796 -582 0
833 -1657 582 0
-833 1657 582 0
-833 1796 -582 0
834 -1657 546 0
834 -1657 582 0
834 -1708 -546 -582 0
-834 1657 546 0
-834 1708 -546 -582 0
-834 1657 582 0
835 -1657 543 0
835 -1657 585 0
835 -1708 -543 -585 0
-835 1657 543 0
-835 1708 -543 -585 0
-835 1657 585 0
-836 1658 539 0
-836 -530 -539 837 0
-836 1658 530 0
836 -1658 530 0
836 -1658 539 0
836 -530 -539 -837 0
837 -1658 -75 0
837 -1658 -535 0
837 75 535 -838 0
-837 1658 -535 0
-837 75 535 838 0
-837 1658 -75 0
838 -1658 -537 0
838 -1658 542 0
838 537 -542 -839 0
-838 1658 -537 0
-838 1658 542 0
-838 537 -542 839 0
839 541 -840 0
839 -541 -844 0
-839 -541 844 0
-839 541 840 0
840 545 -841 0
840 -545 -843 0
-840 -545 843 0
-840 545 841 0
841 -1658 546 0
841 -1658 -532 0
841 532 -546 -842 0
-841 1658 546 0
-841 532 -546 842 0
-841 1658 -532 0
842 -1658 593 0
842 -1644 -593 0
-842 1658 593 0
-842 1644 -593 0
843 -1658 546 0
843 -1658 593 0
843 -1749 -546 -593 0
-843 1658 546 0
-843 1749 -546 -593 0
-843 1658 593 0
844 -1658 543 0
844 -1658 596 0
844 -1749 -543 -596 0
-844 1658 543 0
-844 1749 -543 -596 0
-844 1658 596 0
-845 1659 539 0
-845 -530 -539 846 0
-845 1659 530 0
845 -1659 530 0
845 -1659 539 0
845 -530 -539 -846 0
846 -1659 -75 0
846 -1659 -535 0
846 75 535 -847 0
-846 1659 -535 0
-846 75 535 847 0
-846 1659 -75 0
847 -1659 -537 0
847 -1659 542 0
847 537 -542 -848 0
-847 1659 -537 0
-847 1659 542 0
-847 537 -542 848 0
848 541 -849 0
848 -541 -853 0
-848 -541 853 0
-848 541 849 0
849 545 -850 0
849 -545 -852 0
-849 -545 852 0
-849 545 850 0
850 -1659 546 0
850 -1659 -532 0
850 532 -546 -851 0
-850 1659 546 0
-850 532 -546 851 0
-850 1659 -532 0
851 -1721 -618 0
851 -1659 618 0
-851 1659 618 0
-851 1721 -618 0
852 -1659 546 0
852 -1659 618 0
852 -1646 -546 -618 0
-852 1659 618 0
-852 1659 546 0
-852 1646 -546 -618 0
853 -1659 543 0
853 -1659 621 0
853 -1646 -543 -621 0
-853 1659 621 0
-853 1659 543 0
-853 1646 -543 -621 0
-854 1660 -530 0
-854 1700 530 0
854 -1700 530 0
854 -1660 -530 0
-855 1661 530 0
-855 1661 598 0
-855 -530 -598 856 0
855 -1661 530 0
855 -1661 598 0
855 -530 -598 -856 0
856 -1661 75 0
856 -75 -867 0
856 -75 -857 0
-856 1661 75 0
-856 -75 857 867 0
-857 1741 858 866 0
-857 -1741 858 865 0
857 -858 0
857 1741 -866 0
857 -1741 -865 0
-858 1741 859 864 0
-858 -1741 859 863 0
858 -859 0
858 1741 -864 0
858 -1741 -863 0
-859 -1741 861 0
-859 1741 860 862 0
859 1741 -862 0
859 -1741 -861 0
859 1741 -860 0
860 -1691 1693 1727 0
-860 1691 0
-860 -1727 0
-860 -1693 0
861 1693 1727 -1802 0
-861 1802 0
-861 -1727 0
-861 -1693 0
862 -1693 -1706 1727 0
-862 1693 0
-862 1706 0
-862 -1727 0
863 -1628 -1693 1727 0
-863 1628 0
-863 1693 0
-863 -1727 0
864 -1667 1693 -1727 0
-864 1667 0
-864 -1693 0
-864 1727 0
865 1693 -1727 -1745 0
-865 1745 0
-865 1727 0
-865 -1693 0
866 -1649 -1693 -1727 0
-866 1649 0
-866 1693 0
-866 1727 0
867 -1693 -1725 -1727 -1741 0
-867 1741 0
-867 1693 0
-867 1727 0
-867 1725 0
-868 1663 -530 0
-868 1604 530 0
868 -1663 -530 0
868 -1604 530 0
869 -75 -104 0
-869 75 0
-869 104 0
-870 1665 530 0
-870 1665 598 0
-870 -530 -598 871 0
870 -1665 530 0
870 -1665 598 0
870 -530 -598 -871 0
871 -1665 75 0
871 -75 -882 0
871 -75 -872 0
-871 1665 75 0
-871 -75 872 882 0
-872 1672 873 881 0
-872 -1672 873 880 0
872 -873 0
872 1672 -881 0
872 -1672 -880 0
-873 1672 874 879 0
-873 -1672 874 878 0
873 -874 0
873 1672 -879 0
873 -1672 -878 0
-874 -1672 876 0
-874 1672 875 877 0
874 1672 -877 0
874 -1672 -876 0
874 1672 -875 0
875 1634 -1641 1791 0
-875 -1634 0
-875 1641 0
-875 -1791 0
876 1634 -1736 1791 0
-876 -1634 0
-876 1736 0
-876 -1791 0
877 -1634 -1657 1791 0
-877 1634 0
-877 1657 0
-877 -1791 0
878 -1634 -1759 1791 0
-878 1634 0
-878 1759 0
-878 -1791 0
879 1634 -1716 -1791 0
-879 1791 0
-879 1716 0
-879 -1634 0
880 -1616 1634 -1791 0
-880 1616 0
-880 -1634 0
-880 1791 0
881 -1634 -1698 -1791 0
-881 1634 0
-881 1698 0
-881 1791 0
882 -1634 -1672 -1782 -1791 0
-882 1791 0
-882 1634 0
-882 1782 0
-882 1672 0
-883 1667 539 0
-883 -530 -539 884 0
-883 1667 530 0
883 -1667 530 0
883 -1667 539 0
883 -530 -539 -884 0
884 -1667 -75 0
884 -1667 -535 0
884 75 535 -885 0
-884 1667 -535 0
-884 75 535 885 0
-884 1667 -75 0
885 -1667 -537 0
885 -1667 542 0
885 537 -542 -886 0
-885 1667 -537 0
-885 1667 542 0
-885 537 -542 886 0
886 541 -887 0
886 -541 -891 0
-886 -541 891 0
-886 541 887 0
887 545 -888 0
887 -545 -890 0
-887 -545 890 0
-887 545 888 0
888 -1667 546 0
888 -1667 -532 0
888 532 -546 -889 0
-888 1667 546 0
-888 532 -546 889 0
-888 1667 -532 0
889 -1667 704 0
889 -1655 -704 0
-889 1667 704 0
-889 1655 -704 0
890 -1667 546 0
890 -1667 704 0
890 -1764 -546 -704 0
-890 1667 546 0
-890 1764 -546 -704 0
-890 1667 704 0
891 -1667 543 0
891 -1667 707 0
891 -1764 -543 -707 0
-891 1667 543 0
-891 1764 -543 -707 0
-891 1667 707 0
-892 1669 539 0
-892 -530 -539 893 0
-892 1669 530 0
892 -1669 530 0
892 -1669 539 0
892 -530 -539 -893 0
893 -1669 -75 0
893 -1669 -535 0
893 75 535 -894 0
-893 1669 -535 0
-893 75 535 894 0
-893 1669 -75 0
894 -1669 -537 0
894 -1669 542 0
894 537 -542 -895 0
-894 1669 -537 0
-894 1669 542 0
-894 537 -542 895 0
895 541 -896 0
895 -541 -900 0
-895 -541 900 0
-895 541 896 0
896 545 -897 0
896 -545 -899 0
-896 -545 899 0
-896 545 897 0
897 -1669 546 0
897 -1669 -532 0
897 532 -546 -898 0
-897 1669 546 0
-897 532 -546 898 0
-897 1669 -532 0
898 -1669 582 0
898 -1613 -582 0
-898 1669 582 0
-898 1613 -582 0
899 -1669 546 0
899 -1669 582 0
899 -1724 -546 -582 0
-899 1669 546 0
-899 1724 -546 -582 0
-899 1669 582 0
900 -1669 543 0
900 -1669 585 0
900 -1724 -543 -585 0
-900 1669 543 0
-900 1724 -543 -585 0
-900 1669 585 0
-901 1672 -530 0
-901 1596 530 0
901 -1672 -530 0
901 -1596 530 0
-902 1673 530 0
-902 1673 598 0
-902 -530 -598 903 0
902 -1673 530 0
902 -1673 598 0
902 -530 -598 -903 0
903 -1673 75 0
903 -75 -914 0
903 -75 -904 0
-903 1673 75 0
-903 -75 904 914 0
-904 1672 905 913 0
-904 -1672 905 912 0
904 -905 0
904 1672 -913 0
904 -1672 -912 0
-905 1672 906 911 0
-905 -1672 906 910 0
905 -906 0
905 1672 -911 0
905 -1672 -910 0
-906 -1672 908 0
-906 1672 907 909 0
906 1672 -909 0
906 -1672 -908 0
906 1672 -907 0
907 1634 -1650 1791 0
-907 -1634 0
-907 1650 0
-907 -1791 0
908 1634 -1750 1791 0
-908 -1634 0
-908 1750 0
-908 -1791 0
909 -1634 -1669 1791 0
-909 1634 0
-909 1669 0
-909 -1791 0
910 -1634 -1775 1791 0
-910 1634 0
-910 1775 0
-910 -1791 0
911 1634 -1705 -1791 0
-911 1791 0
-911 1705 0
-911 -1634 0
912 1634 -1791 -1798 0
-912 1798 0
-912 1791 0
-912 -1634 0
913 -1634 -1688 -1791 0
-913 1634 0
-913 1688 0
-913 1791 0
914 -1634 -1672 -1769 -1791 0
-914 1791 0
-914 1634 0
-914 1769 0
-914 1672 0
-915 1674 539 0
-915 -530 -539 916 0
-915 1674 530 0
915 -1674 530 0
915 -1674 539 0
915 -530 -539 -916 0
916 -1674 -75 0
916 -1674 -535 0
916 75 535 -917 0
-916 1674 -535 0
-916 75 535 917 0
-916 1674 -75 0
917 -1674 -537 0
917 -1674 542 0
917 537 -542 -918 0
-917 1674 -537 0
-917 1674 542 0
-917 537 -542 918 0
918 541 -919 0
918 -541 -923 0
-918 -541 923 0
-918 541 919 0
919 545 -920 0
919 -545 -922 0
-919 -545 922 0
-919 545 920 0
920 -1674 546 0
920 -1674 -532 0
920 532 -546 -921 0
-920 1674 546 0
-920 532 -546 921 0
-920 1674 -532 0
921 -1721 -680 0
921 -1674 680 0
-921 1674 680 0
-921 1721 -680 0
922 -1674 546 0
922 -1674 680 0
922 -1646 -546 -680 0
-922 1674 680 0
-922 1674 546 0
-922 1646 -546 -680 0
923 -1674 543 0
923 -1674 562 0
923 -1646 -543 -562 0
-923 1674 562 0
-923 1674 543 0
-923 1646 -543 -562 0
-924 1675 -530 0
-924 1678 530 0
-924 530 693 0
924 -1675 -530 0
924 -1678 530 -693 0
-925 1676 722 0
-925 -530 -722 926 0
-925 1676 530 0
925 -1676 530 0
925 -1676 722 0
925 -530 -722 -926 0
926 -1676 -75 0
926 -1676 535 0
926 75 -535 -927 0
-926 1676 -75 0
-926 1676 535 0
-926 75 -535 927 0
927 -732 -928 0
927 1722 -1758 732 0
927 -1722 1758 732 0
-927 -732 928 0
-927 -1722 -1758 732 0
-927 1722 1758 732 0
928 -541 -932 0
928 541 -929 930 0
-928 541 929 0
-928 -541 932 0
-928 541 -930 0
-929 1676 24 545 0
-929 1660 -24 545 0
929 -545 0
929 -1676 24 0
929 -1660 -24 0
930 -725 931 0
930 -724 931 0
-930 -931 0
-930 724 725 0
-931 -1722 -1758 0
-931 1722 1758 0
931 1722 -1758 0
931 -1722 1758 0
932 -21 696 0
932 -696 -933 938 0
-932 21 696 0
-932 -696 -938 0
-932 -696 933 0
-933 -49 781 63 0
-933 49 63 934 0
933 -63 0
933 49 -934 0
933 -49 -781 0
934 56 -935 0
934 -1622 -56 0
934 -1758 -56 0
-934 56 935 0
-934 1622 1758 -56 0
935 29 -936 0
935 1622 -1758 -29 0
935 -1622 1758 -29 0
-935 29 936 0
-935 -1622 -1758 -29 0
-935 1622 1758 -29 0
936 1758 -739 0
936 739 -937 0
-936 -1758 -739 0
-936 739 937 0
937 -1807 -727 0
937 -1807 -742 0
937 -1676 727 742 0
-937 1807 -742 0
-937 1807 -727 0
-937 1676 727 742 0
938 21 -63 0
-938 -21 0
-938 63 0
-939 1678 530 0
-939 1678 533 0
-939 -530 -533 940 0
939 -1678 530 0
939 -1678 533 0
939 -530 -533 -940 0
940 -1678 -75 0
940 -1678 -535 0
940 75 535 -941 0
-940 1678 -535 0
-940 75 535 941 0
-940 1678 -75 0
941 -537 -942 0
941 -1678 537 0
-941 -537 942 0
-941 1678 537 0
942 -1638 24 0
942 -1646 -1768 -24 0
942 -1638 1768 0
-942 1638 24 0
-942 1646 -1768 -24 0
-942 1638 1768 0
943 1679 -944 542 0
943 -1679 944 542 0
-943 -542 0
-943 1679 944 0
-943 -1679 -944 0
944 -1633 -1786 0
-944 1633 0
-944 1786 0
-945 1681 0
945 -1681 0
-946 1682 539 0
-946 -530 -539 947 0
-946 1682 530 0
946 -1682 530 0
946 -1682 539 0
946 -530 -539 -947 0
947 -1682 -75 0
947 -1682 -535 0
947 75 535 -948 0
-947 1682 -535 0
-947 75 535 948 0
-947 1682 -75 0
948 -1682 -537 0
948 -1682 542 0
948 537 -542 -949 0
-948 1682 -537 0
-948 1682 542 0
-948 537 -542 949 0
949 541 -950 0
949 -541 -954 0
-949 -541 954 0
-949 541 950 0
950 545 -951 0
950 -545 -953 0
-950 -545 953 0
-950 545 951 0
951 -1682 546 0
951 -1682 -532 0
951 532 -546 -952 0
-951 1682 546 0
-951 532 -546 952 0
-951 1682 -532 0
952 -1682 704 0
952 -1644 -704 0
-952 1682 704 0
-952 1644 -704 0
953 -1682 546 0
953 -1682 704 0
953 -1749 -546 -704 0
-953 1682 546 0
-953 1749 -546 -704 0
-953 1682 704 0
954 -1682 543 0
954 -1682 707 0
954 -1749 -543 -707 0
-954 1682 543 0
-954 1749 -543 -707 0
-954 1682 707 0
-955 1683 530 0
-955 1683 531 0
-955 -530 -531 956 0
955 -1683 530 0
955 -1683 531 0
955 -530 -531 -956 0
956 -1683 -75 0
956 -1683 -535 0
956 75 535 -957 0
-956 1683 -535 0
-956 75 535 957 0
-956 1683 -75 0
957 -1683 -532 0
957 -1608 532 -537 0
957 -1683 537 0
-957 1683 537 0
-957 1683 -532 0
-957 1608 532 -537 0
-958 1685 539 0
-958 -530 -539 959 0
-958 1685 530 0
958 -1685 530 0
958 -1685 539 0
958 -530 -539 -959 0
959 -1685 -75 0
959 -1685 -535 0
959 75 535 -960 0
-959 1685 -535 0
-959 75 535 960 0
-959 1685 -75 0
960 -1685 -537 0
960 -1685 542 0
960 537 -542 -961 0
-960 1685 -537 0
-960 1685 542 0
-960 537 -542 961 0
961 541 -962 0
961 -541 -966 0
-961 -541 966 0
-961 541 962 0
962 545 -963 0
962 -545 -965 0
-962 -545 965 0
-962 545 963 0
963 -1685 546 0
963 -1685 -532 0
963 532 -546 -964 0
-963 1685 546 0
-963 532 -546 964 0
-963 1685 -532 0
964 -1721 -570 0
964 -1685 570 0
-964 1685 570 0
-964 1721 -570 0
965 -1685 546 0
965 -1685 570 0
965 -1646 -546 -570 0
-965 1685 570 0
-965 1685 546 0
-965 1646 -546 -570 0
966 -1685 543 0
966 -1685 573 0
966 -1646 -543 -573 0
-966 1685 573 0
-966 1685 543 0
-966 1646 -543 -573 0
-967 1687 -530 0
-967 1591 530 0
967 -1687 -530 0
967 -1591 530 0
-968 1688 539 0
-968 -530 -539 969 0
-968 1688 530 0
968 -1688 530 0
968 -1688 539 0
968 -530 -539 -969 0
969 -1688 -75 0
969 -1688 -535 0
969 75 535 -970 0
-969 1688 -535 0
-969 75 535 970 0
-969 1688 -75 0
970 -1688 -537 0
970 -1688 542 0
970 537 -542 -971 0
-970 1688 -537 0
-970 1688 542 0
-970 537 -542 971 0
971 541 -972 0
971 -541 -976 0
-971 -541 976 0
-971 541 972 0
972 545 -973 0
972 -545 -975 0
-972 -545 975 0
-972 545 973 0
973 -1688 546 0
973 -1688 -532 0
973 532 -546 -974 0
-973 1688 546 0
-973 532 -546 974 0
-973 1688 -532 0
974 -1688 593 0
974 -1613 -593 0
-974 1688 593 0
-974 1613 -593 0
975 -1688 546 0
975 -1688 593 0
975 -1724 -546 -593 0
-975 1688 546 0
-975 1724 -546 -593 0
-975 1688 593 0
976 -1688 543 0
976 -1688 596 0
976 -1724 -543 -596 0
-976 1688 543 0
-976 1724 -543 -596 0
-976 1688 596 0
-977 1689 722 0
-977 -530 -722 978 0
-977 1689 530 0
977 -1689 530 0
977 -1689 722 0
977 -530 -722 -978 0
978 -1689 -75 0
978 -1689 535 0
978 75 -535 -979 0
-978 1689 -75 0
-978 1689 535 0
-978 75 -535 979 0
979 732 -980 0
979 -732 -983 990 0
-979 732 980 0
-979 -732 -990 0
-979 -732 983 0
-980 981 982 0
-980 -981 -982 0
980 -981 982 0
980 981 -982 0
-981 -1711 -1771 0
-981 1711 1771 0
981 1711 -1771 0
981 -1711 1771 0
-982 1754 749 0
-982 1726 1754 0
-982 1726 749 0
982 -1726 -1754 0
982 -1754 -749 0
982 -1726 -749 0
-983 -545 541 987 0
-983 545 541 984 0
983 -541 0
983 -545 -987 0
983 545 -984 0
984 -1689 24 0
984 -24 -985 986 0
984 -24 985 -986 0
-984 1689 24 0
-984 -24 985 986 0
-984 -24 -985 -986 0
-985 -1675 -1754 0
-985 1675 1754 0
985 1675 -1754 0
985 -1675 1754 0
-986 1804 757 0
-986 1638 1804 0
-986 1638 757 0
986 -1638 -1804 0
986 -1804 -757 0
986 -1638 -757 0
987 724 -988 0
987 -724 -980 0
-987 -724 980 0
-987 724 988 0
988 -1689 725 0
988 -725 -981 989 0
988 -725 981 -989 0
-988 1689 725 0
-988 -725 981 989 0
-988 -725 -981 -989 0
-989 -1726 762 0
-989 -1726 1754 0
-989 1754 762 0
989 -1754 -762 0
989 1726 -762 0
989 1726 -1754 0
990 -541 696 999 0
990 -541 -696 991 0
-990 541 0
-990 696 -999 0
-990 -696 -991 0
991 63 -992 0
991 -14 -63 998 0
991 14 -63 -998 0
-991 63 992 0
-991 14 -63 998 0
-991 -14 -63 -998 0
992 49 -993 0
992 -49 -997 0
-992 -49 997 0
-992 49 993 0
993 56 -994 0
993 -1635 -56 0
993 -1771 -56 0
-993 56 994 0
-993 1635 1771 -56 0
994 -14 -29 0
994 29 -995 0
-994 14 -29 0
-994 29 995 0
995 1771 -739 0
995 739 -996 0
-995 -1771 -739 0
-995 739 996 0
996 -1624 -727 0
996 -1689 727 742 0
996 -1624 -742 0
-996 1624 -727 0
-996 1689 727 742 0
-996 1624 -742 0
997 -1635 -1771 0
-997 1635 0
-997 1771 0
-998 -1726 774 0
-998 -1726 1790 0
-998 1790 774 0
998 -1790 -774 0
998 1726 -774 0
998 1726 -1790 0
-999 14 1000 0
-999 -14 -1000 0
999 -14 1000 0
999 14 -1000 0
-1000 1790 778 0
-1000 1726 1790 0
-1000 1726 778 0
1000 -1726 -1790 0
1000 -1790 -778 0
1000 -1726 -778 0
1001 -75 -109 0
-1001 75 0
-1001 109 0
-1002 1691 0
1002 -1691 0
-1003 1692 530 0
-1003 1692 598 0
-1003 -530 -598 1004 0
1003 -1692 530 0
1003 -1692 598 0
1003 -530 -598 -1004 0
1004 -1692 75 0
1004 -75 -1015 0
1004 -75 -1005 0
-1004 1692 75 0
-1004 -75 1005 1015 0
-1005 1741 1006 1014 0
-1005 -1741 1006 1013 0
1005 -1006 0
1005 1741 -1014 0
1005 -1741 -1013 0
-1006 1741 1007 1012 0
-1006 -1741 1007 1011 0
1006 -1007 0
1006 1741 -1012 0
1006 -1741 -1011 0
-1007 -1741 1009 0
-1007 1741 1008 1010 0
1007 1741 -1010 0
1007 -1741 -1009 0
1007 1741 -1008 0
1008 1693 -1717 1727 0
-1008 -1693 0
-1008 1717 0
-1008 -1727 0
1009 -1636 1693 1727 0
-1009 1636 0
-1009 -1727 0
-1009 -1693 0
1010 -1693 1727 -1732 0
-1010 1693 0
-1010 -1727 0
-1010 1732 0
1011 -1653 -1693 1727 0
-1011 1653 0
-1011 1693 0
-1011 -1727 0
1012 -1640 1693 -1727 0
-1012 1640 0
-1012 -1693 0
-1012 1727 0
1013 1693 -1720 -1727 0
-1013 1727 0
-1013 1720 0
-1013 -1693 0
1014 -1619 -1693 -1727 0
-1014 1619 0
-1014 1693 0
-1014 1727 0
1015 -1693 -1703 -1727 -1741 0
-1015 1741 0
-1015 1693 0
-1015 1727 0
-1015 1703 0
-1016 1693 -530 0
-1016 1600 530 0
1016 -1693 -530 0
1016 -1600 530 0
-1017 1696 539 0
-1017 -530 -539 1018 0
-1017 1696 530 0
1017 -1696 530 0
1017 -1696 539 0
1017 -530 -539 -1018 0
1018 -1696 -75 0
1018 -1696 -535 0
1018 75 535 -1019 0
-1018 1696 -535 0
-1018 75 535 1019 0
-1018 1696 -75 0
1019 -1696 -537 0
1019 -1696 542 0
1019 537 -542 -1020 0
-1019 1696 -537 0
-1019 1696 542 0
-1019 537 -542 1020 0
1020 541 -1021 0
1020 -541 -1025 0
-1020 -541 1025 0
-1020 541 1021 0
1021 545 -1022 0
1021 -545 -1024 0
-1021 -545 1024 0
-1021 545 1022 0
1022 -1696 546 0
1022 -1696 -532 0
1022 532 -546 -1023 0
-1022 1696 546 0
-1022 532 -546 1023 0
-1022 1696 -532 0
1023 -1721 -555 0
1023 -1696 555 0
-1023 1696 555 0
-1023 1721 -555 0
1024 -1696 546 0
1024 -1696 555 0
1024 -1646 -546 -555 0
-1024 1696 555 0
-1024 1696 546 0
-1024 1646 -546 -555 0
1025 -1696 543 0
1025 -1696 558 0
1025 -1646 -543 -558 0
-1025 1696 558 0
-1025 1696 543 0
-1025 1646 -543 -558 0
-1026 1697 539 0
-1026 -530 -539 1027 0
-1026 1697 530 0
1026 -1697 530 0
1026 -1697 539 0
1026 -530 -539 -1027 0
1027 -1697 -75 0
1027 -1697 -535 0
1027 75 535 -1028 0
-1027 1697 -535 0
-1027 75 535 1028 0
-1027 1697 -75 0
1028 -1697 -537 0
1028 -1697 542 0
1028 537 -542 -1029 0
-1028 1697 -537 0
-1028 1697 542 0
-1028 537 -542 1029 0
1029 541 -1030 0
1029 -541 -1034 0
-1029 -541 1034 0
-1029 541 1030 0
1030 545 -1031 0
1030 -545 -1033 0
-1030 -545 1033 0
-1030 545 1031 0
1031 -1697 546 0
1031 -1697 -532 0
1031 532 -546 -1032 0
-1031 1697 546 0
-1031 532 -546 1032 0
-1031 1697 -532 0
1032 -1697 582 0
1032 -1644 -582 0
-1032 1697 582 0
-1032 1644 -582 0
1033 -1697 546 0
1033 -1697 582 0
1033 -1749 -546 -582 0
-1033 1697 546 0
-1033 1749 -546 -582 0
-1033 1697 582 0
1034 -1697 543 0
1034 -1697 585 0
1034 -1749 -543 -585 0
-1034 1697 543 0
-1034 1749 -543 -585 0
-1034 1697 585 0
-1035 1698 539 0
-1035 -530 -539 1036 0
-1035 1698 530 0
1035 -1698 530 0
1035 -1698 539 0
1035 -530 -539 -1036 0
1036 -1698 -75 0
1036 -1698 -535 0
1036 75 535 -1037 0
-1036 1698 -535 0
-1036 75 535 1037 0
-1036 1698 -75 0
1037 -1698 -537 0
1037 -1698 542 0
1037 537 -542 -1038 0
-1037 1698 -537 0
-1037 1698 542 0
-1037 537 -542 1038 0
1038 541 -1039 0
1038 -541 -1043 0
-1038 -541 1043 0
-1038 541 1039 0
1039 545 -1040 0
1039 -545 -1042 0
-1039 -545 1042 0
-1039 545 1040 0
1040 -1698 546 0
1040 -1698 -532 0
1040 532 -546 -1041 0
-1040 1698 546 0
-1040 532 -546 1041 0
-1040 1698 -532 0
1041 -1796 -593 0
1041 -1698 593 0
-1041 1698 593 0
-1041 1796 -593 0
1042 -1698 546 0
1042 -1698 593 0
1042 -1708 -546 -593 0
-1042 1698 546 0
-1042 1708 -546 -593 0
-1042 1698 593 0
1043 -1698 543 0
1043 -1698 596 0
1043 -1708 -543 -596 0
-1043 1698 543 0
-1043 1708 -543 -596 0
-1043 1698 596 0
-1044 1700 530 0
-1044 1700 533 0
-1044 -530 -533 1045 0
1044 -1700 530 0
1044 -1700 533 0
1044 -530 -533 -1045 0
1045 -1700 -75 0
1045 -1700 -535 0
1045 75 535 -1046 0
-1045 1700 -535 0
-1045 75 535 1046 0
-1045 1700 -75 0
1046 -537 -1047 0
1046 -1700 537 0
-1046 -537 1047 0
-1046 1700 537 0
1047 -1660 24 0
1047 -1676 -1768 -24 0
1047 -1660 1768 0
-1047 1660 24 0
-1047 1676 -1768 -24 0
-1047 1660 1768 0
-1048 1701 530 0
-1048 1701 598 0
-1048 -530 -598 1049 0
1048 -1701 530 0
1048 -1701 598 0
1048 -530 -598 -1049 0
1049 -1701 75 0
1049 -75 -1060 0
1049 -75 -1050 0
-1049 1701 75 0
-1049 -75 1050 1060 0
-1050 1672 1051 1059 0
-1050 -1672 1051 1058 0
1050 -1051 0
1050 1672 -1059 0
1050 -1672 -1058 0
-1051 1672 1052 1057 0
-1051 -1672 1052 1056 0
1051 -1052 0
1051 1672 -1057 0
1051 -1672 -1056 0
-1052 -1672 1054 0
-1052 1672 1053 1055 0
1052 1672 -1055 0
1052 -1672 -1054 0
1052 1672 -1053 0
1053 1634 -1681 1791 0
-1053 -1634 0
-1053 1681 0
-1053 -1791 0
1054 1634 -1783 1791 0
-1054 -1634 0
-1054 1783 0
-1054 -1791 0
1055 -1634 -1697 1791 0
-1055 1634 0
-1055 1697 0
-1055 -1791 0
1056 -1614 -1634 1791 0
-1056 1614 0
-1056 1634 0
-1056 -1791 0
1057 1634 -1682 -1791 0
-1057 1791 0
-1057 1682 0
-1057 -1634 0
1058 1634 -1761 -1791 0
-1058 1791 0
-1058 1761 0
-1058 -1634 0
1059 -1634 -1658 -1791 0
-1059 1634 0
-1059 1658 0
-1059 1791 0
1060 -1634 -1672 -1735 -1791 0
-1060 1791 0
-1060 1634 0
-1060 1735 0
-1060 1672 0
-1061 1702 539 0
-1061 -530 -539 1062 0
-1061 1702 530 0
1061 -1702 530 0
1061 -1702 539 0
1061 -530 -539 -1062 0
1062 -1702 -75 0
1062 -1702 -535 0
1062 75 535 -1063 0
-1062 1702 -535 0
-1062 75 535 1063 0
-1062 1702 -75 0
1063 -1702 -537 0
1063 -1702 542 0
1063 537 -542 -1064 0
-1063 1702 -537 0
-1063 1702 542 0
-1063 537 -542 1064 0
1064 541 -1065 0
1064 -541 -1069 0
-1064 -541 1069 0
-1064 541 1065 0
1065 545 -1066 0
1065 -545 -1068 0
-1065 -545 1068 0
-1065 545 1066 0
1066 -1702 546 0
1066 -1702 -532 0
1066 532 -546 -1067 0
-1066 1702 546 0
-1066 532 -546 1067 0
-1066 1702 -532 0
1067 -1746 -680 0
1067 -1702 680 0
-1067 1702 680 0
-1067 1746 -680 0
1068 -1702 546 0
1068 -1702 680 0
1068 -1676 -546 -680 0
-1068 1702 680 0
-1068 1702 546 0
-1068 1676 -546 -680 0
1069 -1702 543 0
1069 -1702 562 0
1069 -1676 -543 -562 0
-1069 1702 562 0
-1069 1702 543 0
-1069 1676 -543 -562 0
-1070 1703 539 0
-1070 -530 -539 1071 0
-1070 1703 530 0
1070 -1703 530 0
1070 -1703 539 0
1070 -530 -539 -1071 0
1071 -1703 -75 0
1071 -1703 -535 0
1071 75 535 -1072 0
-1071 1703 -535 0
-1071 75 535 1072 0
-1071 1703 -75 0
1072 -1703 -537 0
1072 -1703 542 0
1072 537 -542 -1073 0
-1072 1703 -537 0
-1072 1703 542 0
-1072 537 -542 1073 0
1073 541 -1074 0
1073 -541 -1078 0
-1073 -541 1078 0
-1073 541 1074 0
1074 545 -1075 0
1074 -545 -1077 0
-1074 -545 1077 0
-1074 545 1075 0
1075 -1703 546 0
1075 -1703 -532 0
1075 532 -546 -1076 0
-1075 1703 546 0
-1075 532 -546 1076 0
-1075 1703 -532 0
1076 -1703 618 0
1076 -1683 -618 0
-1076 1703 618 0
-1076 1683 -618 0
1077 -1703 546 0
1077 -1703 618 0
1077 -1801 -546 -618 0
-1077 1703 546 0
-1077 1801 -546 -618 0
-1077 1703 618 0
1078 -1703 543 0
1078 -1703 621 0
1078 -1801 -543 -621 0
-1078 1703 543 0
-1078 1801 -543 -621 0
-1078 1703 621 0
1079 -1738 530 0
1079 1704 -530 0
-1079 -1704 -530 0
-1079 1738 530 0
-1080 1705 539 0
-1080 -530 -539 1081 0
-1080 1705 530 0
1080 -1705 530 0
1080 -1705 539 0
1080 -530 -539 -1081 0
1081 -1705 -75 0
1081 -1705 -535 0
1081 75 535 -1082 0
-1081 1705 -535 0
-1081 75 535 1082 0
-1081 1705 -75 0
1082 -1705 -537 0
1082 -1705 542 0
1082 537 -542 -1083 0
-1082 1705 -537 0
-1082 1705 542 0
-1082 537 -542 1083 0
1083 541 -1084 0
1083 -541 -1088 0
-1083 -541 1088 0
-1083 541 1084 0
1084 545 -1085 0
1084 -545 -1087 0
-1084 -545 1087 0
-1084 545 1085 0
1085 -1705 546 0
1085 -1705 -532 0
1085 532 -546 -1086 0
-1085 1705 546 0
-1085 532 -546 1086 0
-1085 1705 -532 0
1086 -1705 704 0
1086 -1613 -704 0
-1086 1705 704 0
-1086 1613 -704 0
1087 -1705 546 0
1087 -1705 704 0
1087 -1724 -546 -704 0
-1087 1705 546 0
-1087 1724 -546 -704 0
-1087 1705 704 0
1088 -1705 543 0
1088 -1705 707 0
1088 -1724 -543 -707 0
-1088 1705 543 0
-1088 1724 -543 -707 0
-1088 1705 707 0
-1089 1706 539 0
-1089 -530 -539 1090 0
-1089 1706 530 0
1089 -1706 530 0
1089 -1706 539 0
1089 -530 -539 -1090 0
1090 -1706 -75 0
1090 -1706 -535 0
1090 75 535 -1091 0
-1090 1706 -535 0
-1090 75 535 1091 0
-1090 1706 -75 0
1091 -1706 -537 0
1091 -1706 542 0
1091 537 -542 -1092 0
-1091 1706 -537 0
-1091 1706 542 0
-1091 537 -542 1092 0
1092 541 -1093 0
1092 -541 -1097 0
-1092 -541 1097 0
-1092 541 1093 0
1093 545 -1094 0
1093 -545 -1096 0
-1093 -545 1096 0
-1093 545 1094 0
1094 -1706 546 0
1094 -1706 -532 0
1094 532 -546 -1095 0
-1094 1706 546 0
-1094 532 -546 1095 0
-1094 1706 -532 0
1095 -1706 582 0
1095 -1655 -582 0
-1095 1706 582 0
-1095 1655 -582 0
1096 -1706 546 0
1096 -1706 582 0
1096 -1764 -546 -582 0
-1096 1706 546 0
-1096 1764 -546 -582 0
-1096 1706 582 0
1097 -1706 543 0
1097 -1706 585 0
1097 -1764 -543 -585 0
-1097 1706 543 0
-1097 1764 -543 -585 0
-1097 1706 585 0
1098 -112 -115 -535 0
-1098 112 0
-1098 115 0
-1098 535 0
-1099 1708 722 0
-1099 -530 -722 1100 0
-1099 1708 530 0
1099 -1708 530 0
1099 -1708 722 0
1099 -530 -722 -1100 0
1100 -1708 -75 0
1100 -1708 535 0
1100 75 -535 -1101 0
-1100 1708 -75 0
-1100 1708 535 0
-1100 75 -535 1101 0
1101 -732 -1104 0
1101 732 -1102 0
-1101 732 1102 0
-1101 -732 1104 0
-1102 752 1103 0
-1102 -752 -1103 0
1102 -752 1103 0
1102 752 -1103 0
-1103 -1687 -1807 0
-1103 1687 1807 0
1103 1687 -1807 0
1103 -1687 1807 0
1104 541 -1105 0
1104 -541 -1109 0
-1104 -541 1109 0
-1104 541 1105 0
1105 545 -1106 0
1105 -545 -1107 0
-1105 -545 1107 0
-1105 545 1106 0
1106 -1708 24 0
1106 -1704 1722 -24 0
1106 1704 -1722 -24 0
-1106 1708 24 0
-1106 1704 1722 -24 0
-1106 -1704 -1722 -24 0
1107 724 -1108 0
1107 -724 -1102 0
-1107 -724 1102 0
-1107 724 1108 0
1108 -1708 725 0
1108 -725 -765 1103 0
1108 -725 765 -1103 0
-1108 1708 725 0
-1108 -725 765 1103 0
-1108 -725 -765 -1103 0
1109 -696 -1110 0
1109 22 -781 696 0
1109 -22 781 696 0
-1109 -696 1110 0
-1109 -22 -781 696 0
-1109 22 781 696 0
1110 63 -1111 0
1110 -777 22 -63 0
1110 777 -22 -63 0
-1110 63 1111 0
-1110 777 22 -63 0
-1110 -777 -22 -63 0
1111 -49 -1112 0
1111 49 -1113 0
-1111 49 1113 0
-1111 -49 1112 0
1112 -1665 -1807 0
-1112 1665 0
-1112 1807 0
1113 56 -1114 0
1113 -1665 -56 0
1113 -1807 -56 0
-1113 56 1114 0
-1113 1665 1807 -56 0
1114 -22 -29 0
1114 29 -1115 0
-1114 22 -29 0
-1114 29 1115 0
1115 1807 -739 0
1115 739 -1116 0
-1115 -1807 -739 0
-1115 739 1116 0
1116 -1652 -727 0
1116 -1708 727 742 0
1116 -1652 -742 0
-1116 1652 -727 0
-1116 1708 727 742 0
-1116 1652 -742 0
-1117 1710 530 0
-1117 1710 533 0
-1117 -530 -533 1118 0
1117 -1710 530 0
1117 -1710 533 0
1117 -530 -533 -1118 0
1118 -1710 -75 0
1118 -1710 -535 0
1118 75 535 -1119 0
-1118 1710 -535 0
-1118 75 535 1119 0
-1118 1710 -75 0
1119 -537 -1120 0
1119 -1710 537 0
-1119 -537 1120 0
-1119 1710 537 0
1120 -1675 24 0
1120 -1689 -1768 -24 0
1120 -1675 1768 0
-1120 1675 24 0
-1120 1689 -1768 -24 0
-1120 1675 1768 0
-1121 1711 -530 0
-1121 1595 530 0
1121 -1711 -530 0
1121 -1595 530 0
-1122 1712 530 0
-1122 1712 598 0
-1122 -530 -598 1123 0
1122 -1712 530 0
1122 -1712 598 0
1122 -530 -598 -1123 0
1123 -1712 75 0
1123 -75 -1134 0
1123 -75 -1124 0
-1123 1712 75 0
-1123 -75 1124 1134 0
-1124 1672 1125 1133 0
-1124 -1672 1125 1132 0
1124 -1125 0
1124 1672 -1133 0
1124 -1672 -1132 0
-1125 1672 1126 1131 0
-1125 -1672 1126 1130 0
1125 -1126 0
1125 1672 -1131 0
1125 -1672 -1130 0
-1126 1672 1127 1129 0
-1126 -1672 1128 1129 0
1126 -1129 0
1126 1672 -1127 0
1126 -1672 -1128 0
1127 1634 -1691 1791 0
-1127 -1634 0
-1127 1691 0
-1127 -1791 0
1128 1634 1791 -1802 0
-1128 1802 0
-1128 -1791 0
-1128 -1634 0
1129 -1634 1672 -1706 1791 0
-1129 1706 0
-1129 -1791 0
-1129 1634 0
-1129 -1672 0
1130 -1628 -1634 1791 0
-1130 1628 0
-1130 1634 0
-1130 -1791 0
1131 1634 -1667 -1791 0
-1131 1791 0
-1131 1667 0
-1131 -1634 0
1132 1634 -1745 -1791 0
-1132 1791 0
-1132 1745 0
-1132 -1634 0
1133 -1634 -1649 -1791 0
-1133 1634 0
-1133 1649 0
-1133 1791 0
1134 -1634 -1672 -1725 -1791 0
-1134 1791 0
-1134 1634 0
-1134 1725 0
-1134 1672 0
-1135 1713 539 0
-1135 -530 -539 1136 0
-1135 1713 530 0
1135 -1713 530 0
1135 -1713 539 0
1135 -530 -539 -1136 0
1136 -1713 -75 0
1136 -1713 -535 0
1136 75 535 -1137 0
-1136 1713 -535 0
-1136 75 535 1137 0
-1136 1713 -75 0
1137 -1713 -537 0
1137 -1713 542 0
1137 537 -542 -1138 0
-1137 1713 -537 0
-1137 1713 542 0
-1137 537 -542 1138 0
1138 541 -1139 0
1138 -541 -1143 0
-1138 -541 1143 0
-1138 541 1139 0
1139 545 -1140 0
1139 -545 -1142 0
-1139 -545 1142 0
-1139 545 1140 0
1140 -1713 546 0
1140 -1713 -532 0
1140 532 -546 -1141 0
-1140 1713 546 0
-1140 532 -546 1141 0
-1140 1713 -532 0
1141 -1760 -680 0
1141 -1713 680 0
-1141 1713 680 0
-1141 1760 -680 0
1142 -1713 546 0
1142 -1713 680 0
1142 -1689 -546 -680 0
-1142 1713 680 0
-1142 1713 546 0
-1142 1689 -546 -680 0
1143 -1713 543 0
1143 -1713 562 0
1143 -1689 -543 -562 0
-1143 1713 562 0
-1143 1713 543 0
-1143 1689 -543 -562 0
1144 -1714 -530 0
-1144 1714 0
-1144 530 0
-1145 1716 539 0
-1145 -530 -539 1146 0
-1145 1716 530 0
1145 -1716 530 0
1145 -1716 539 0
1145 -530 -539 -1146 0
1146 -1716 -75 0
1146 -1716 -535 0
1146 75 535 -1147 0
-1146 1716 -535 0
-1146 75 535 1147 0
-1146 1716 -75 0
1147 -1716 -537 0
1147 -1716 542 0
1147 537 -542 -1148 0
-1147 1716 -537 0
-1147 1716 542 0
-1147 537 -542 1148 0
1148 541 -1149 0
1148 -541 -1153 0
-1148 -541 1153 0
-1148 541 1149 0
1149 545 -1150 0
1149 -545 -1152 0
-1149 -545 1152 0
-1149 545 1150 0
1150 -1716 546 0
1150 -1716 -532 0
1150 532 -546 -1151 0
-1150 1716 546 0
-1150 532 -546 1151 0
-1150 1716 -532 0
1151 -1796 -704 0
1151 -1716 704 0
-1151 1716 704 0
-1151 1796 -704 0
1152 -1716 546 0
1152 -1716 704 0
1152 -1708 -546 -704 0
-1152 1716 704 0
-1152 1716 546 0
-1152 1708 -546 -704 0
1153 -1716 543 0
1153 -1716 707 0
1153 -1708 -543 -707 0
-1153 1716 707 0
-1153 1716 543 0
-1153 1708 -543 -707 0
-1154 1717 0
1154 -1717 0
-1155 1719 539 0
-1155 -530 -539 1156 0
-1155 1719 530 0
1155 -1719 530 0
1155 -1719 539 0
1155 -530 -539 -1156 0
1156 -1719 -75 0
1156 -1719 -535 0
1156 75 535 -1157 0
-1156 1719 -535 0
-1156 75 535 1157 0
-1156 1719 -75 0
1157 -1719 -537 0
1157 -1719 542 0
1157 537 -542 -1158 0
-1157 1719 -537 0
-1157 1719 542 0
-1157 537 -542 1158 0
1158 541 -1159 0
1158 -541 -1163 0
-1158 -541 1163 0
-1158 541 1159 0
1159 545 -1160 0
1159 -545 -1162 0
-1159 -545 1162 0
-1159 545 1160 0
1160 -1719 546 0
1160 -1719 -532 0
1160 532 -546 -1161 0
-1160 1719 546 0
-1160 532 -546 1161 0
-1160 1719 -532 0
1161 -1746 -555 0
1161 -1719 555 0
-1161 1719 555 0
-1161 1746 -555 0
1162 -1719 546 0
1162 -1719 555 0
1162 -1676 -546 -555 0
-1162 1719 555 0
-1162 1719 546 0
-1162 1676 -546 -555 0
1163 -1719 543 0
1163 -1719 558 0
1163 -1676 -543 -558 0
-1163 1719 558 0
-1163 1719 543 0
-1163 1676 -543 -558 0
-1164 1720 539 0
-1164 -530 -539 1165 0
-1164 1720 530 0
1164 -1720 530 0
1164 -1720 539 0
1164 -530 -539 -1165 0
1165 -1720 -75 0
1165 -1720 -535 0
1165 75 535 -1166 0
-1165 1720 -535 0
-1165 75 535 1166 0
-1165 1720 -75 0
1166 -1720 -537 0
1166 -1720 542 0
1166 537 -542 -1167 0
-1166 1720 -537 0
-1166 1720 542 0
-1166 537 -542 1167 0
1167 541 -1168 0
1167 -541 -1172 0
-1167 -541 1172 0
-1167 541 1168 0
1168 545 -1169 0
1168 -545 -1171 0
-1168 -545 1171 0
-1168 545 1169 0
1169 -1720 546 0
1169 -1720 -532 0
1169 532 -546 -1170 0
-1169 1720 546 0
-1169 532 -546 1170 0
-1169 1720 -532 0
1170 -1720 570 0
1170 -1683 -570 0
-1170 1720 570 0
-1170 1683 -570 0
1171 -1720 546 0
1171 -1720 570 0
1171 -1801 -546 -570 0
-1171 1720 546 0
-1171 1801 -546 -570 0
-1171 1720 570 0
1172 -1720 543 0
1172 -1720 573 0
1172 -1801 -543 -573 0
-1172 1720 543 0
-1172 1801 -543 -573 0
-1172 1720 573 0
-1173 1721 530 0
-1173 1721 531 0
-1173 -530 -531 1174 0
1173 -1721 530 0
1173 -1721 531 0
1173 -530 -531 -1174 0
1174 -1721 -75 0
1174 -1721 -535 0
1174 75 535 -1175 0
-1174 1721 -535 0
-1174 75 535 1175 0
-1174 1721 -75 0
1175 -1721 -532 0
1175 -1609 532 -537 0
1175 -1721 537 0
-1175 1721 537 0
-1175 1721 -532 0
-1175 1609 532 -537 0
-1176 1722 -530 0
-1176 1590 530 0
1176 -1722 -530 0
1176 -1590 530 0
-1177 1723 539 0
-1177 -530 -539 1178 0
-1177 1723 530 0
1177 -1723 530 0
1177 -1723 539 0
1177 -530 -539 -1178 0
1178 -1723 -75 0
1178 -1723 -535 0
1178 75 535 -1179 0
-1178 1723 -535 0
-1178 75 535 1179 0
-1178 1723 -75 0
1179 -1723 -537 0
1179 -1723 542 0
1179 537 -542 -1180 0
-1179 1723 -537 0
-1179 1723 542 0
-1179 537 -542 1180 0
1180 541 -1181 0
1180 -541 -1185 0
-1180 -541 1185 0
-1180 541 1181 0
1181 545 -1182 0
1181 -545 -1184 0
-1181 -545 1184 0
-1181 545 1182 0
1182 -1723 546 0
1182 -1723 -532 0
1182 532 -546 -1183 0
-1182 1723 546 0
-1182 532 -546 1183 0
-1182 1723 -532 0
1183 -1760 -593 0
1183 -1723 593 0
-1183 1723 593 0
-1183 1760 -593 0
1184 -1723 546 0
1184 -1723 593 0
1184 -1689 -546 -593 0
-1184 1723 593 0
-1184 1723 546 0
-1184 1689 -546 -593 0
1185 -1723 543 0
1185 -1723 596 0
1185 -1689 -543 -596 0
-1185 1723 596 0
-1185 1723 543 0
-1185 1689 -543 -596 0
-1186 1724 722 0
-1186 -530 -722 1187 0
-1186 1724 530 0
1186 -1724 530 0
1186 -1724 722 0
1186 -530 -722 -1187 0
1187 -1724 -75 0
1187 -1724 535 0
1187 75 -535 -1188 0
-1187 1724 -75 0
-1187 1724 535 0
-1187 75 -535 1188 0
1188 -732 -1192 0
1188 732 -1189 0
-1188 732 1189 0
-1188 -732 1192 0
-1189 1190 1191 0
-1189 -1190 -1191 0
1189 -1190 1191 0
1189 1190 -1191 0
-1190 -1624 -1672 0
-1190 1624 1672 0
1190 1624 -1672 0
1190 -1624 1672 0
-1191 1771 982 0
-1191 1711 1771 0
-1191 1711 982 0
1191 -1711 -1771 0
1191 -1771 -982 0
1191 -1711 -982 0
1192 541 -1193 0
1192 -541 -1200 0
-1192 -541 1200 0
-1192 541 1193 0
1193 545 -1194 0
1193 -545 -1197 0
-1193 -545 1197 0
-1193 545 1194 0
1194 -1724 24 0
1194 -24 -1195 1196 0
1194 -24 1195 -1196 0
-1194 1724 24 0
-1194 -24 1195 1196 0
-1194 -24 -1195 -1196 0
-1195 -1711 -1714 0
-1195 1711 1714 0
1195 1711 -1714 0
1195 -1711 1714 0
-1196 1754 986 0
-1196 1675 1754 0
-1196 1675 986 0
1196 -1675 -1754 0
1196 -1754 -986 0
1196 -1675 -986 0
1197 724 -1198 0
1197 -724 -1189 0
-1197 -724 1189 0
-1197 724 1198 0
1198 -1724 725 0
1198 -725 -1190 1199 0
1198 -725 1190 -1199 0
-1198 1724 725 0
-1198 -725 1190 1199 0
-1198 -725 -1190 -1199 0
-1199 1711 -1771 0
-1199 -1771 989 0
-1199 1711 989 0
1199 1771 -989 0
1199 -1711 1771 0
1199 -1711 -989 0
1200 -696 -1201 0
1200 -13 696 1209 0
1200 13 696 -1209 0
-1200 -696 1201 0
-1200 13 696 1209 0
-1200 -13 696 -1209 0
1201 63 -1202 0
1201 -13 -63 1208 0
1201 13 -63 -1208 0
-1201 63 1202 0
-1201 13 -63 1208 0
-1201 -13 -63 -1208 0
1202 49 -1203 0
1202 -49 -1207 0
-1202 -49 1207 0
-1202 49 1203 0
1203 56 -1204 0
1203 -1624 -56 0
1203 -1673 -56 0
-1203 56 1204 0
-1203 1624 1673 -56 0
1204 -13 -29 0
1204 29 -1205 0
-1204 13 -29 0
-1204 29 1205 0
1205 1624 -739 0
1205 739 -1206 0
-1205 -1624 -739 0
-1205 739 1206 0
1206 -1661 -727 0
1206 -1724 727 742 0
1206 -1661 -742 0
-1206 1661 -727 0
-1206 1724 727 742 0
-1206 1661 -742 0
1207 -1624 -1673 0
-1207 1624 0
-1207 1673 0
-1208 1635 -1771 0
-1208 -1771 998 0
-1208 1635 998 0
1208 1771 -998 0
1208 -1635 1771 0
1208 -1635 -998 0
-1209 1771 1000 0
-1209 1635 1771 0
-1209 1635 1000 0
1209 -1635 -1771 0
1209 -1771 -1000 0
1209 -1635 -1000 0
-1210 1725 539 0
-1210 -530 -539 1211 0
-1210 1725 530 0
1210 -1725 530 0
1210 -1725 539 0
1210 -530 -539 -1211 0
1211 -1725 -75 0
1211 -1725 -535 0
1211 75 535 -1212 0
-1211 1725 -535 0
-1211 75 535 1212 0
-1211 1725 -75 0
1212 -1725 -537 0
1212 -1725 542 0
1212 537 -542 -1213 0
-1212 1725 -537 0
-1212 1725 542 0
-1212 537 -542 1213 0
1213 541 -1214 0
1213 -541 -1218 0
-1213 -541 1218 0
-1213 541 1214 0
1214 545 -1215 0
1214 -545 -1217 0
-1214 -545 1217 0
-1214 545 1215 0
1215 -1725 546 0
1215 -1725 -532 0
1215 532 -546 -1216 0
-1215 1725 546 0
-1215 532 -546 1216 0
-1215 1725 -532 0
1216 -1725 618 0
1216 -1655 -618 0
-1216 1725 618 0
-1216 1655 -618 0
1217 -1725 546 0
1217 -1725 618 0
1217 -1764 -546 -618 0
-1217 1725 546 0
-1217 1764 -546 -618 0
-1217 1725 618 0
1218 -1725 543 0
1218 -1725 621 0
1218 -1764 -543 -621 0
-1218 1725 543 0
-1218 1764 -543 -621 0
-1218 1725 621 0
-1219 1726 530 0
-1219 1726 598 0
-1219 -530 -598 1220 0
1219 -1726 530 0
1219 -1726 598 0
1219 -530 -598 -1220 0
1220 -1726 75 0
1220 -75 -1231 0
1220 -75 -1221 0
-1220 1726 75 0
-1220 -75 1221 1231 0
-1221 1741 1222 1230 0
-1221 -1741 1222 1229 0
1221 -1222 0
1221 1741 -1230 0
1221 -1741 -1229 0
-1222 1741 1223 1228 0
-1222 -1741 1223 1227 0
1222 -1223 0
1222 1741 -1228 0
1222 -1741 -1227 0
-1223 -1741 1225 0
-1223 1741 1224 1226 0
1223 1741 -1226 0
1223 -1741 -1225 0
1223 1741 -1224 0
1224 1693 1727 -1756 0
-1224 1756 0
-1224 -1727 0
-1224 -1693 0
1225 -1674 1693 1727 0
-1225 1674 0
-1225 -1727 0
-1225 -1693 0
1226 -1693 1727 -1780 0
-1226 1693 0
-1226 -1727 0
-1226 1780 0
1227 -1693 -1696 1727 0
-1227 1693 0
-1227 1696 0
-1227 -1727 0
1228 1693 -1727 -1794 0
-1228 1794 0
-1228 1727 0
-1228 -1693 0
1229 -1685 1693 -1727 0
-1229 1685 0
-1229 -1693 0
-1229 1727 0
1230 -1693 -1727 -1763 0
-1230 1693 0
-1230 1727 0
-1230 1763 0
1231 -1659 -1693 -1727 -1741 0
-1231 1741 0
-1231 1659 0
-1231 1727 0
-1231 1693 0
-1232 1727 -530 0
-1232 1601 530 0
1232 -1727 -530 0
1232 -1601 530 0
-1233 1728 539 0
-1233 -530 -539 1234 0
-1233 1728 530 0
1233 -1728 530 0
1233 -1728 539 0
1233 -530 -539 -1234 0
1234 -1728 -75 0
1234 -1728 -535 0
1234 75 535 -1235 0
-1234 1728 -535 0
-1234 75 535 1235 0
-1234 1728 -75 0
1235 -1728 -537 0
1235 -1728 542 0
1235 537 -542 -1236 0
-1235 1728 -537 0
-1235 1728 542 0
-1235 537 -542 1236 0
1236 541 -1237 0
1236 -541 -1241 0
-1236 -541 1241 0
-1236 541 1237 0
1237 545 -1238 0
1237 -545 -1240 0
-1237 -545 1240 0
-1237 545 1238 0
1238 -1728 546 0
1238 -1728 -532 0
1238 532 -546 -1239 0
-1238 1728 546 0
-1238 532 -546 1239 0
-1238 1728 -532 0
1239 -1760 -555 0
1239 -1728 555 0
-1239 1728 555 0
-1239 1760 -555 0
1240 -1728 546 0
1240 -1728 555 0
1240 -1689 -546 -555 0
-1240 1728 555 0
-1240 1728 546 0
-1240 1689 -546 -555 0
1241 -1728 543 0
1241 -1728 558 0
1241 -1689 -543 -558 0
-1241 1728 558 0
-1241 1728 543 0
-1241 1689 -543 -558 0
1242 -119 -537 0
-1242 119 0
-1242 537 0
1243 -463 -469 -465 530 0
-1243 -530 0
-1243 463 0
-1243 465 0
-1243 469 0
-1244 1731 539 0
-1244 -530 -539 1245 0
-1244 1731 530 0
1244 -1731 530 0
1244 -1731 539 0
1244 -530 -539 -1245 0
1245 -1731 -75 0
1245 -1731 -535 0
1245 75 535 -1246 0
-1245 1731 -535 0
-1245 75 535 1246 0
-1245 1731 -75 0
1246 -1731 -537 0
1246 -1731 542 0
1246 537 -542 -1247 0
-1246 1731 -537 0
-1246 1731 542 0
-1246 537 -542 1247 0
1247 541 -1248 0
1247 -541 -1252 0
-1247 -541 1252 0
-1247 541 1248 0
1248 545 -1249 0
1248 -545 -1251 0
-1248 -545 1251 0
-1248 545 1249 0
1249 -1731 546 0
1249 -1731 -532 0
1249 532 -546 -1250 0
-1249 1731 546 0
-1249 532 -546 1250 0
-1249 1731 -532 0
1250 -1746 -593 0
1250 -1731 593 0
-1250 1731 593 0
-1250 1746 -593 0
1251 -1731 546 0
1251 -1731 593 0
1251 -1676 -546 -593 0
-1251 1731 593 0
-1251 1731 546 0
-1251 1676 -546 -593 0
1252 -1731 543 0
1252 -1731 596 0
1252 -1676 -543 -596 0
-1252 1731 596 0
-1252 1731 543 0
-1252 1676 -543 -596 0
-1253 1732 539 0
-1253 -530 -539 1254 0
-1253 1732 530 0
1253 -1732 530 0
1253 -1732 539 0
1253 -530 -539 -1254 0
1254 -1732 -75 0
1254 -1732 -535 0
1254 75 535 -1255 0
-1254 1732 -535 0
-1254 75 535 1255 0
-1254 1732 -75 0
1255 -1732 -537 0
1255 -1732 542 0
1255 537 -542 -1256 0
-1255 1732 -537 0
-1255 1732 542 0
-1255 537 -542 1256 0
1256 541 -1257 0
1256 -541 -1261 0
-1256 -541 1261 0
-1256 541 1257 0
1257 545 -1258 0
1257 -545 -1260 0
-1257 -545 1260 0
-1257 545 1258 0
1258 -1732 546 0
1258 -1732 -532 0
1258 532 -546 -1259 0
-1258 1732 546 0
-1258 532 -546 1259 0
-1258 1732 -532 0
1259 -1732 582 0
1259 -1683 -582 0
-1259 1732 582 0
-1259 1683 -582 0
1260 -1732 546 0
1260 -1732 582 0
1260 -1801 -546 -582 0
-1260 1732 546 0
-1260 1801 -546 -582 0
-1260 1732 582 0
1261 -1732 543 0
1261 -1732 585 0
1261 -1801 -543 -585 0
-1261 1732 543 0
-1261 1801 -543 -585 0
-1261 1732 585 0
-1262 1735 539 0
-1262 -530 -539 1263 0
-1262 1735 530 0
1262 -1735 530 0
1262 -1735 539 0
1262 -530 -539 -1263 0
1263 -1735 -75 0
1263 -1735 -535 0
1263 75 535 -1264 0
-1263 1735 -535 0
-1263 75 535 1264 0
-1263 1735 -75 0
1264 -1735 -537 0
1264 -1735 542 0
1264 537 -542 -1265 0
-1264 1735 -537 0
-1264 1735 542 0
-1264 537 -542 1265 0
1265 541 -1266 0
1265 -541 -1270 0
-1265 -541 1270 0
-1265 541 1266 0
1266 545 -1267 0
1266 -545 -1269 0
-1266 -545 1269 0
-1266 545 1267 0
1267 -1735 546 0
1267 -1735 -532 0
1267 532 -546 -1268 0
-1267 1735 546 0
-1267 532 -546 1268 0
-1267 1735 -532 0
1268 -1735 618 0
1268 -1644 -618 0
-1268 1735 618 0
-1268 1644 -618 0
1269 -1735 546 0
1269 -1735 618 0
1269 -1749 -546 -618 0
-1269 1735 546 0
-1269 1749 -546 -618 0
-1269 1735 618 0
1270 -1735 543 0
1270 -1735 621 0
1270 -1749 -543 -621 0
-1270 1735 543 0
-1270 1749 -543 -621 0
-1270 1735 621 0
-1271 1736 539 0
-1271 -530 -539 1272 0
-1271 1736 530 0
1271 -1736 530 0
1271 -1736 539 0
1271 -530 -539 -1272 0
1272 -1736 -75 0
1272 -1736 -535 0
1272 75 535 -1273 0
-1272 1736 -535 0
-1272 75 535 1273 0
-1272 1736 -75 0
1273 -1736 -537 0
1273 -1736 542 0
1273 537 -542 -1274 0
-1273 1736 -537 0
-1273 1736 542 0
-1273 537 -542 1274 0
1274 541 -1275 0
1274 -541 -1279 0
-1274 -541 1279 0
-1274 541 1275 0
1275 545 -1276 0
1275 -545 -1278 0
-1275 -545 1278 0
-1275 545 1276 0
1276 -1736 546 0
1276 -1736 -532 0
1276 532 -546 -1277 0
-1276 1736 546 0
-1276 532 -546 1277 0
-1276 1736 -532 0
1277 -1796 -680 0
1277 -1736 680 0
-1277 1736 680 0
-1277 1796 -680 0
1278 -1736 546 0
1278 -1736 680 0
1278 -1708 -546 -680 0
-1278 1736 680 0
-1278 1736 546 0
-1278 1708 -546 -680 0
1279 -1736 543 0
1279 -1736 562 0
1279 -1708 -543 -562 0
-1279 1736 562 0
-1279 1736 543 0
-1279 1708 -543 -562 0
-1280 1738 530 0
-1280 1738 533 0
-1280 -530 -533 1281 0
1280 -1738 530 0
1280 -1738 533 0
1280 -530 -533 -1281 0
1281 -1738 -75 0
1281 -1738 -535 0
1281 75 535 -1282 0
-1281 1738 -535 0
-1281 75 535 1282 0
-1281 1738 -75 0
1282 -537 -1283 0
1282 -1738 537 0
-1282 -537 1283 0
-1282 1738 537 0
1283 -1704 24 0
1283 -1708 -1768 -24 0
1283 -1704 1768 0
-1283 1704 24 0
-1283 1708 -1768 -24 0
-1283 1704 1768 0
-1284 1739 -530 0
-1284 1738 1788 530 0
-1284 -1738 -1788 530 0
1284 -1739 -530 0
1284 -1738 1788 530 0
1284 1738 -1788 530 0
-1285 1740 530 0
-1285 1740 598 0
-1285 -530 -598 1286 0
1285 -1740 530 0
1285 -1740 598 0
1285 -530 -598 -1286 0
1286 -1740 75 0
1286 -75 -1297 0
1286 -75 -1287 0
-1286 1740 75 0
-1286 -75 1287 1297 0
-1287 1672 1288 1296 0
-1287 -1672 1288 1295 0
1287 -1288 0
1287 1672 -1296 0
1287 -1672 -1295 0
-1288 1672 1289 1294 0
-1288 -1672 1289 1293 0
1288 -1289 0
1288 1672 -1294 0
1288 -1672 -1293 0
-1289 -1672 1291 0
-1289 1672 1290 1292 0
1289 1672 -1292 0
1289 -1672 -1291 0
1289 1672 -1290 0
1290 1634 -1717 1791 0
-1290 -1634 0
-1290 1717 0
-1290 -1791 0
1291 1634 -1636 1791 0
-1291 -1634 0
-1291 1636 0
-1291 -1791 0
1292 -1634 -1732 1791 0
-1292 1634 0
-1292 1732 0
-1292 -1791 0
1293 -1634 -1653 1791 0
-1293 1634 0
-1293 1653 0
-1293 -1791 0
1294 1634 -1640 -1791 0
-1294 1791 0
-1294 1640 0
-1294 -1634 0
1295 1634 -1720 -1791 0
-1295 1791 0
-1295 1720 0
-1295 -1634 0
1296 -1619 -1634 -1791 0
-1296 1619 0
-1296 1634 0
-1296 1791 0
1297 -1634 -1672 -1703 -1791 0
-1297 1791 0
-1297 1634 0
-1297 1703 0
-1297 1672 0
-1298 1741 -530 0
-1298 1599 530 0
1298 -1741 -530 0
1298 -1599 530 0
-1299 1742 539 0
-1299 -530 -539 1300 0
-1299 1742 530 0
1299 -1742 530 0
1299 -1742 539 0
1299 -530 -539 -1300 0
1300 -1742 -75 0
1300 -1742 -535 0
1300 75 535 -1301 0
-1300 1742 -535 0
-1300 75 535 1301 0
-1300 1742 -75 0
1301 -1742 -537 0
1301 -1742 542 0
1301 537 -542 -1302 0
-1301 1742 -537 0
-1301 1742 542 0
-1301 537 -542 1302 0
1302 541 -1303 0
1302 -541 -1307 0
-1302 -541 1307 0
-1302 541 1303 0
1303 545 -1304 0
1303 -545 -1306 0
-1303 -545 1306 0
-1303 545 1304 0
1304 -1742 546 0
1304 -1742 -532 0
1304 532 -546 -1305 0
-1304 1742 546 0
-1304 532 -546 1305 0
-1304 1742 -532 0
1305 -1760 -704 0
1305 -1742 704 0
-1305 1742 704 0
-1305 1760 -704 0
1306 -1742 546 0
1306 -1742 704 0
1306 -1689 -546 -704 0
-1306 1742 704 0
-1306 1742 546 0
-1306 1689 -546 -704 0
1307 -1742 543 0
1307 -1742 707 0
1307 -1689 -543 -707 0
-1307 1742 707 0
-1307 1742 543 0
-1307 1689 -543 -707 0
-1308 1745 539 0
-1308 -530 -539 1309 0
-1308 1745 530 0
1308 -1745 530 0
1308 -1745 539 0
1308 -530 -539 -1309 0
1309 -1745 -75 0
1309 -1745 -535 0
1309 75 535 -1310 0
-1309 1745 -535 0
-1309 75 535 1310 0
-1309 1745 -75 0
1310 -1745 -537 0
1310 -1745 542 0
1310 537 -542 -1311 0
-1310 1745 -537 0
-1310 1745 542 0
-1310 537 -542 1311 0
1311 541 -1312 0
1311 -541 -1316 0
-1311 -541 1316 0
-1311 541 1312 0
1312 545 -1313 0
1312 -545 -1315 0
-1312 -545 1315 0
-1312 545 1313 0
1313 -1745 546 0
1313 -1745 -532 0
1313 532 -546 -1314 0
-1313 1745 546 0
-1313 532 -546 1314 0
-1313 1745 -532 0
1314 -1745 570 0
1314 -1655 -570 0
-1314 1745 570 0
-1314 1655 -570 0
1315 -1745 546 0
1315 -1745 570 0
1315 -1764 -546 -570 0
-1315 1745 546 0
-1315 1764 -546 -570 0
-1315 1745 570 0
1316 -1745 543 0
1316 -1745 573 0
1316 -1764 -543 -573 0
-1316 1745 543 0
-1316 1764 -543 -573 0
-1316 1745 573 0
-1317 1746 530 0
-1317 1746 531 0
-1317 -530 -531 1318 0
1317 -1746 530 0
1317 -1746 531 0
1317 -530 -531 -1318 0
1318 -1746 -75 0
1318 -1746 -535 0
1318 75 535 -1319 0
-1318 1746 -535 0
-1318 75 535 1319 0
-1318 1746 -75 0
1319 -1746 -532 0
1319 -1605 532 -537 0
1319 -1746 537 0
-1319 1746 537 0
-1319 1746 -532 0
-1319 1605 532 -537 0
1320 1727 -24 -542 1321 0
-1320 -1727 0
-1320 -1321 0
-1320 542 0
-1320 24 0
-1321 1693 1741 0
1321 -1693 0
1321 -1741 0
-1322 1749 722 0
-1322 -530 -722 1323 0
-1322 1749 530 0
1322 -1749 530 0
1322 -1749 722 0
1322 -530 -722 -1323 0
1323 -1749 -75 0
1323 -1749 535 0
1323 75 -535 -1324 0
-1323 1749 -75 0
-1323 1749 535 0
-1323 75 -535 1324 0
1324 -732 -1327 0
1324 732 -1325 0
-1324 732 1325 0
-1324 -732 1327 0
-1325 751 1326 0
-1325 -751 -1326 0
1325 -751 1326 0
1325 751 -1326 0
-1326 -1648 -1652 0
-1326 1648 1652 0
1326 1648 -1652 0
1326 -1648 1652 0
1327 541 -1328 0
1327 -541 -1333 0
-1327 -541 1333 0
-1327 541 1328 0
1328 545 -1329 0
1328 -545 -1331 0
-1328 -545 1331 0
-1328 545 1329 0
1329 -1749 24 0
1329 -24 -759 1330 0
1329 -24 759 -1330 0
-1329 1749 24 0
-1329 -24 759 1330 0
-1329 -24 -759 -1330 0
-1330 -1687 -1739 0
-1330 1687 1739 0
1330 1687 -1739 0
1330 -1687 1739 0
1331 724 -1332 0
1331 -724 -1325 0
-1331 -724 1325 0
-1331 724 1332 0
1332 -1749 725 0
1332 -725 -764 1326 0
1332 -725 764 -1326 0
-1332 1749 725 0
-1332 -725 764 1326 0
-1332 -725 -764 -1326 0
1333 -696 -1334 0
1333 -20 696 780 0
1333 20 696 -780 0
-1333 -696 1334 0
-1333 -20 696 -780 0
-1333 20 696 780 0
1334 63 -1335 0
1334 -20 -63 776 0
1334 20 -63 -776 0
-1334 63 1335 0
-1334 -20 -63 -776 0
-1334 20 -63 776 0
1335 -49 -1336 0
1335 49 -1337 0
-1335 49 1337 0
-1335 -49 1336 0
1336 -1652 -1701 0
-1336 1652 0
-1336 1701 0
1337 56 -1338 0
1337 -1652 -56 0
1337 -1701 -56 0
-1337 56 1338 0
-1337 1652 1701 -56 0
1338 -20 -29 0
1338 29 -1339 0
-1338 20 -29 0
-1338 29 1339 0
1339 1652 -739 0
1339 739 -1340 0
-1339 -1652 -739 0
-1339 739 1340 0
1340 -1692 -727 0
1340 -1749 727 742 0
1340 -1692 -742 0
-1340 1692 -727 0
-1340 1749 727 742 0
-1340 1692 -742 0
-1341 1750 539 0
-1341 -530 -539 1342 0
-1341 1750 530 0
1341 -1750 530 0
1341 -1750 539 0
1341 -530 -539 -1342 0
1342 -1750 -75 0
1342 -1750 -535 0
1342 75 535 -1343 0
-1342 1750 -535 0
-1342 75 535 1343 0
-1342 1750 -75 0
1343 -1750 -537 0
1343 -1750 542 0
1343 537 -542 -1344 0
-1343 1750 -537 0
-1343 1750 542 0
-1343 537 -542 1344 0
1344 541 -1345 0
1344 -541 -1349 0
-1344 -541 1349 0
-1344 541 1345 0
1345 545 -1346 0
1345 -545 -1348 0
-1345 -545 1348 0
-1345 545 1346 0
1346 -1750 546 0
1346 -1750 -532 0
1346 532 -546 -1347 0
-1346 1750 546 0
-1346 532 -546 1347 0
-1346 1750 -532 0
1347 -1750 680 0
1347 -1613 -680 0
-1347 1750 680 0
-1347 1613 -680 0
1348 -1750 546 0
1348 -1750 680 0
1348 -1724 -546 -680 0
-1348 1750 680 0
-1348 1750 546 0
-1348 1724 -546 -680 0
1349 -1750 543 0
1349 -1750 562 0
1349 -1724 -543 -562 0
-1349 1750 562 0
-1349 1750 543 0
-1349 1724 -543 -562 0
-1350 1752 530 0
-1350 1752 533 0
-1350 -530 -533 1351 0
1350 -1752 530 0
1350 -1752 533 0
1350 -530 -533 -1351 0
1351 -1752 -75 0
1351 -1752 -535 0
1351 75 535 -1352 0
-1351 1752 -535 0
-1351 75 535 1352 0
-1351 1752 -75 0
1352 -537 -1353 0
1352 -1752 537 0
-1352 -537 1353 0
-1352 1752 537 0
1353 -1714 24 0
1353 -1724 -1768 -24 0
1353 -1714 1768 0
-1353 1714 24 0
-1353 1724 -1768 -24 0
-1353 1714 1768 0
1354 -1753 -530 0
-1354 1753 0
-1354 530 0
-1355 1754 -530 0
-1355 1594 530 0
1355 -1754 -530 0
1355 -1594 530 0
1356 -1768 -537 0
-1356 1768 0
-1356 537 0
-1357 1756 0
1357 -1756 0
-1358 1757 539 0
-1358 -530 -539 1359 0
-1358 1757 530 0
1358 -1757 530 0
1358 -1757 539 0
1358 -530 -539 -1359 0
1359 -1757 -75 0
1359 -1757 -535 0
1359 75 535 -1360 0
-1359 1757 -535 0
-1359 75 535 1360 0
-1359 1757 -75 0
1360 -1757 -537 0
1360 -1757 542 0
1360 537 -542 -1361 0
-1360 1757 -537 0
-1360 1757 542 0
-1360 537 -542 1361 0
1361 541 -1362 0
1361 -541 -1366 0
-1361 -541 1366 0
-1361 541 1362 0
1362 545 -1363 0
1362 -545 -1365 0
-1362 -545 1365 0
-1362 545 1363 0
1363 -1757 546 0
1363 -1757 -532 0
1363 532 -546 -1364 0
-1363 1757 546 0
-1363 532 -546 1364 0
-1363 1757 -532 0
1364 -1757 704 0
1364 -1746 -704 0
-1364 1757 704 0
-1364 1746 -704 0
1365 -1757 546 0
1365 -1757 704 0
1365 -1676 -546 -704 0
-1365 1757 704 0
-1365 1757 546 0
-1365 1676 -546 -704 0
1366 -1757 543 0
1366 -1757 707 0
1366 -1676 -543 -707 0
-1366 1757 707 0
-1366 1757 543 0
-1366 1676 -543 -707 0
-1367 1758 530 0
-1367 1758 598 0
-1367 -530 -598 1368 0
1367 -1758 530 0
1367 -1758 598 0
1367 -530 -598 -1368 0
1368 -1758 75 0
1368 -75 -1379 0
1368 -75 -1369 0
-1368 1758 75 0
-1368 -75 1369 1379 0
-1369 1741 1370 1378 0
-1369 -1741 1370 1377 0
1369 -1370 0
1369 1741 -1378 0
1369 -1741 -1377 0
-1370 1741 1371 1376 0
-1370 -1741 1371 1375 0
1370 -1371 0
1370 1741 -1376 0
1370 -1741 -1375 0
-1371 -1741 1373 0
-1371 1741 1372 1374 0
1371 1741 -1374 0
1371 -1741 -1373 0
1371 1741 -1372 0
1372 1693 1727 -1793 0
-1372 1793 0
-1372 -1727 0
-1372 -1693 0
1373 1693 -1702 1727 0
-1373 -1693 0
-1373 1702 0
-1373 -1727 0
1374 -1618 -1693 1727 0
-1374 1618 0
-1374 1693 0
-1374 -1727 0
1375 -1693 -1719 1727 0
-1375 1693 0
-1375 1719 0
-1375 -1727 0
1376 1693 -1727 -1757 0
-1376 1757 0
-1376 1727 0
-1376 -1693 0
1377 -1654 1693 -1727 0
-1377 1654 0
-1377 -1693 0
-1377 1727 0
1378 -1693 -1727 -1731 0
-1378 1693 0
-1378 1727 0
-1378 1731 0
1379 -1637 -1693 -1727 -1741 0
-1379 1741 0
-1379 1637 0
-1379 1727 0
-1379 1693 0
-1380 1759 539 0
-1380 -530 -539 1381 0
-1380 1759 530 0
1380 -1759 530 0
1380 -1759 539 0
1380 -530 -539 -1381 0
1381 -1759 -75 0
1381 -1759 -535 0
1381 75 535 -1382 0
-1381 1759 -535 0
-1381 75 535 1382 0
-1381 1759 -75 0
1382 -1759 -537 0
1382 -1759 542 0
1382 537 -542 -1383 0
-1382 1759 -537 0
-1382 1759 542 0
-1382 537 -542 1383 0
1383 541 -1384 0
1383 -541 -1388 0
-1383 -541 1388 0
-1383 541 1384 0
1384 545 -1385 0
1384 -545 -1387 0
-1384 -545 1387 0
-1384 545 1385 0
1385 -1759 546 0
1385 -1759 -532 0
1385 532 -546 -1386 0
-1385 1759 546 0
-1385 532 -546 1386 0
-1385 1759 -532 0
1386 -1796 -555 0
1386 -1759 555 0
-1386 1759 555 0
-1386 1796 -555 0
1387 -1759 546 0
1387 -1759 555 0
1387 -1708 -546 -555 0
-1387 1759 555 0
-1387 1759 546 0
-1387 1708 -546 -555 0
1388 -1759 543 0
1388 -1759 558 0
1388 -1708 -543 -558 0
-1388 1759 558 0
-1388 1759 543 0
-1388 1708 -543 -558 0
-1389 1760 530 0
-1389 1760 531 0
-1389 -530 -531 1390 0
1389 -1760 530 0
1389 -1760 531 0
1389 -530 -531 -1390 0
1390 -1760 -75 0
1390 -1760 -535 0
1390 75 535 -1391 0
-1390 1760 -535 0
-1390 75 535 1391 0
-1390 1760 -75 0
1391 -1760 -532 0
1391 -1610 532 -537 0
1391 -1760 537 0
-1391 1760 537 0
-1391 1760 -532 0
-1391 1610 532 -537 0
-1392 1761 539 0
-1392 -530 -539 1393 0
-1392 1761 530 0
1392 -1761 530 0
1392 -1761 539 0
1392 -530 -539 -1393 0
1393 -1761 -75 0
1393 -1761 -535 0
1393 75 535 -1394 0
-1393 1761 -535 0
-1393 75 535 1394 0
-1393 1761 -75 0
1394 -1761 -537 0
1394 -1761 542 0
1394 537 -542 -1395 0
-1394 1761 -537 0
-1394 1761 542 0
-1394 537 -542 1395 0
1395 541 -1396 0
1395 -541 -1400 0
-1395 -541 1400 0
-1395 541 1396 0
1396 545 -1397 0
1396 -545 -1399 0
-1396 -545 1399 0
-1396 545 1397 0
1397 -1761 546 0
1397 -1761 -532 0
1397 532 -546 -1398 0
-1397 1761 546 0
-1397 532 -546 1398 0
-1397 1761 -532 0
1398 -1761 570 0
1398 -1644 -570 0
-1398 1761 570 0
-1398 1644 -570 0
1399 -1761 546 0
1399 -1761 570 0
1399 -1749 -546 -570 0
-1399 1761 570 0
-1399 1761 546 0
-1399 1749 -546 -570 0
1400 -1761 543 0
1400 -1761 573 0
1400 -1749 -543 -573 0
-1400 1761 573 0
-1400 1761 543 0
-1400 1749 -543 -573 0
-1401 1763 539 0
-1401 -530 -539 1402 0
-1401 1763 530 0
1401 -1763 530 0
1401 -1763 539 0
1401 -530 -539 -1402 0
1402 -1763 -75 0
1402 -1763 -535 0
1402 75 535 -1403 0
-1402 1763 -535 0
-1402 75 535 1403 0
-1402 1763 -75 0
1403 -1763 -537 0
1403 -1763 542 0
1403 537 -542 -1404 0
-1403 1763 -537 0
-1403 1763 542 0
-1403 537 -542 1404 0
1404 541 -1405 0
1404 -541 -1409 0
-1404 -541 1409 0
-1404 541 1405 0
1405 545 -1406 0
1405 -545 -1408 0
-1405 -545 1408 0
-1405 545 1406 0
1406 -1763 546 0
1406 -1763 -532 0
1406 532 -546 -1407 0
-1406 1763 546 0
-1406 532 -546 1407 0
-1406 1763 -532 0
1407 -1763 593 0
1407 -1721 -593 0
-1407 1763 593 0
-1407 1721 -593 0
1408 -1763 546 0
1408 -1763 593 0
1408 -1646 -546 -593 0
-1408 1763 593 0
-1408 1763 546 0
-1408 1646 -546 -593 0
1409 -1763 543 0
1409 -1763 596 0
1409 -1646 -543 -596 0
-1409 1763 596 0
-1409 1763 543 0
-1409 1646 -543 -596 0
-1410 1764 722 0
-1410 -530 -722 1411 0
-1410 1764 530 0
1410 -1764 530 0
1410 -1764 722 0
1410 -530 -722 -1411 0
1411 -1764 -75 0
1411 -1764 535 0
1411 75 -535 -1412 0
-1411 1764 -75 0
-1411 1764 535 0
-1411 75 -535 1412 0
1412 -732 -1416 0
1412 732 -1413 0
-1412 732 1413 0
-1412 -732 1416 0
-1413 1414 1415 0
-1413 -1414 -1415 0
1413 -1414 1415 0
1413 1414 -1415 0
-1414 -1634 -1661 0
-1414 1634 1661 0
1414 1634 -1661 0
1414 -1634 1661 0
-1415 1672 1191 0
-1415 1624 1672 0
-1415 1624 1191 0
1415 -1624 -1672 0
1415 -1672 -1191 0
1415 -1624 -1191 0
1416 541 -1417 0
1416 -541 -1424 0
-1416 -541 1424 0
-1416 541 1417 0
1417 545 -1418 0
1417 -545 -1421 0
-1417 -545 1421 0
-1417 545 1418 0
1418 -1764 24 0
1418 -24 -1419 1420 0
1418 -24 1419 -1420 0
-1418 1764 24 0
-1418 -24 1419 1420 0
-1418 -24 -1419 -1420 0
-1419 -1672 -1753 0
-1419 1672 1753 0
1419 1672 -1753 0
1419 -1672 1753 0
-1420 1714 1196 0
-1420 1711 1714 0
-1420 1711 1196 0
1420 -1711 -1714 0
1420 -1714 -1196 0
1420 -1711 -1196 0
1421 724 -1422 0
1421 -724 -1413 0
-1421 -724 1413 0
-1421 724 1422 0
1422 -1764 725 0
1422 -725 -1414 1423 0
1422 -725 1414 -1423 0
-1422 1764 725 0
-1422 -725 1414 1423 0
-1422 -725 -1414 -1423 0
-1423 -1624 1199 0
-1423 -1624 1672 0
-1423 1672 1199 0
1423 -1672 -1199 0
1423 1624 -1199 0
1423 1624 -1672 0
1424 -696 -1425 0
1424 -12 696 1432 0
1424 12 696 -1432 0
-1424 -696 1425 0
-1424 12 696 1432 0
-1424 -12 696 -1432 0
1425 63 -1426 0
1425 -12 -63 1431 0
1425 12 -63 -1431 0
-1425 63 1426 0
-1425 12 -63 1431 0
-1425 -12 -63 -1431 0
1426 49 -1427 0
1426 -1661 -1712 -49 0
-1426 49 1427 0
-1426 1712 -49 0
-1426 1661 -49 0
1427 56 -1428 0
1427 -1661 -56 0
1427 -1712 -56 0
-1427 56 1428 0
-1427 1661 1712 -56 0
1428 -12 -29 0
1428 29 -1429 0
-1428 12 -29 0
-1428 29 1429 0
1429 1661 -739 0
1429 739 742 -1430 0
-1429 739 1430 0
-1429 -1661 -739 0
-1429 739 -742 0
1430 -1764 727 0
1430 -1661 -727 0
-1430 1764 727 0
-1430 1661 -727 0
-1431 -1624 1208 0
-1431 -1624 1673 0
-1431 1673 1208 0
1431 -1673 -1208 0
1431 1624 -1208 0
1431 1624 -1673 0
-1432 1673 1209 0
-1432 1624 1673 0
-1432 1624 1209 0
1432 -1624 -1673 0
1432 -1673 -1209 0
1432 -1624 -1209 0
1433 -75 -77 -80 -100 0
-1433 100 0
-1433 75 0
-1433 80 0
-1433 77 0
1434 -65 -75 -1435 0
-1434 65 0
-1434 75 0
-1434 1435 0
-1435 1672 541 0
-1435 1804 -541 0
1435 -1804 -541 0
1435 -1672 541 0
1436 -1768 530 0
1436 -1768 744 0
1436 -530 -744 -1437 0
-1436 1768 530 0
-1436 1768 744 0
-1436 -530 -744 1437 0
1437 -1768 -75 0
1437 -1768 535 0
1437 75 -535 -1438 0
-1437 1768 -75 0
-1437 1768 535 0
-1437 75 -535 1438 0
1438 -1768 -541 0
1438 -1768 732 0
1438 -732 541 -1439 0
-1438 1768 -541 0
-1438 -732 541 1439 0
-1438 1768 732 0
1439 -1768 -545 0
1439 -1768 24 0
1439 -24 25 545 0
-1439 1768 -545 0
-1439 -24 -25 545 0
-1439 1768 24 0
-1440 1769 539 0
-1440 -530 -539 1441 0
-1440 1769 530 0
1440 -1769 530 0
1440 -1769 539 0
1440 -530 -539 -1441 0
1441 -1769 -75 0
1441 -1769 -535 0
1441 75 535 -1442 0
-1441 1769 -535 0
-1441 75 535 1442 0
-1441 1769 -75 0
1442 -1769 -537 0
1442 -1769 542 0
1442 537 -542 -1443 0
-1442 1769 -537 0
-1442 1769 542 0
-1442 537 -542 1443 0
1443 541 -1444 0
1443 -541 -1448 0
-1443 -541 1448 0
-1443 541 1444 0
1444 545 -1445 0
1444 -545 -1447 0
-1444 -545 1447 0
-1444 545 1445 0
1445 -1769 546 0
1445 -1769 -532 0
1445 532 -546 -1446 0
-1445 1769 546 0
-1445 532 -546 1446 0
-1445 1769 -532 0
1446 -1769 618 0
1446 -1613 -618 0
-1446 1769 618 0
-1446 1613 -618 0
1447 -1769 546 0
1447 -1769 618 0
1447 -1724 -546 -618 0
-1447 1769 618 0
-1447 1769 546 0
-1447 1724 -546 -618 0
1448 -1769 543 0
1448 -1769 621 0
1448 -1724 -543 -621 0
-1448 1769 621 0
-1448 1769 543 0
-1448 1724 -543 -621 0
-1449 1771 530 0
-1449 1771 598 0
-1449 -530 -598 1450 0
1449 -1771 530 0
1449 -1771 598 0
1449 -530 -598 -1450 0
1450 -1771 75 0
1450 -75 -1461 0
1450 -75 -1451 0
-1450 1771 75 0
-1450 -75 1451 1461 0
-1451 1741 1452 1460 0
-1451 -1741 1452 1459 0
1451 -1452 0
1451 1741 -1460 0
1451 -1741 -1459 0
-1452 1741 1453 1458 0
-1452 -1741 1453 1457 0
1452 -1453 0
1452 1741 -1458 0
1452 -1741 -1457 0
-1453 -1741 1455 0
-1453 1741 1454 1456 0
1453 1741 -1456 0
1453 -1741 -1455 0
1453 1741 -1454 0
1454 1693 1727 -1805 0
-1454 1805 0
-1454 -1727 0
-1454 -1693 0
1455 1693 -1713 1727 0
-1455 -1693 0
-1455 1713 0
-1455 -1727 0
1456 -1630 -1693 1727 0
-1456 1630 0
-1456 1693 0
-1456 -1727 0
1457 -1693 1727 -1728 0
-1457 1693 0
-1457 -1727 0
-1457 1728 0
1458 1693 -1727 -1742 0
-1458 1742 0
-1458 1727 0
-1458 -1693 0
1459 -1643 1693 -1727 0
-1459 1643 0
-1459 -1693 0
-1459 1727 0
1460 -1693 -1723 -1727 0
-1460 1693 0
-1460 1723 0
-1460 1727 0
1461 -1623 -1693 -1727 -1741 0
-1461 1741 0
-1461 1623 0
-1461 1727 0
-1461 1693 0
-1462 1773 -530 0
-1462 1602 530 0
1462 -1773 -530 0
1462 -1602 530 0
-1463 1775 539 0
-1463 -530 -539 1464 0
-1463 1775 530 0
1463 -1775 530 0
1463 -1775 539 0
1463 -530 -539 -1464 0
1464 -1775 -75 0
1464 -1775 -535 0
1464 75 535 -1465 0
-1464 1775 -535 0
-1464 75 535 1465 0
-1464 1775 -75 0
1465 -1775 -537 0
1465 -1775 542 0
1465 537 -542 -1466 0
-1465 1775 -537 0
-1465 1775 542 0
-1465 537 -542 1466 0
1466 541 -1467 0
1466 -541 -1471 0
-1466 -541 1471 0
-1466 541 1467 0
1467 545 -1468 0
1467 -545 -1470 0
-1467 -545 1470 0
-1467 545 1468 0
1468 -1775 546 0
1468 -1775 -532 0
1468 532 -546 -1469 0
-1468 1775 546 0
-1468 532 -546 1469 0
-1468 1775 -532 0
1469 -1775 555 0
1469 -1613 -555 0
-1469 1775 555 0
-1469 1613 -555 0
1470 -1775 546 0
1470 -1775 555 0
1470 -1724 -546 -555 0
-1470 1775 555 0
-1470 1775 546 0
-1470 1724 -546 -555 0
1471 -1775 543 0
1471 -1775 558 0
1471 -1724 -543 -558 0
-1471 1775 558 0
-1471 1775 543 0
-1471 1724 -543 -558 0
-1472 1780 539 0
-1472 -530 -539 1473 0
-1472 1780 530 0
1472 -1780 530 0
1472 -1780 539 0
1472 -530 -539 -1473 0
1473 -1780 -75 0
1473 -1780 -535 0
1473 75 535 -1474 0
-1473 1780 -535 0
-1473 75 535 1474 0
-1473 1780 -75 0
1474 -1780 -537 0
1474 -1780 542 0
1474 537 -542 -1475 0
-1474 1780 -537 0
-1474 1780 542 0
-1474 537 -542 1475 0
1475 541 -1476 0
1475 -541 -1480 0
-1475 -541 1480 0
-1475 541 1476 0
1476 545 -1477 0
1476 -545 -1479 0
-1476 -545 1479 0
-1476 545 1477 0
1477 -1780 546 0
1477 -1780 -532 0
1477 532 -546 -1478 0
-1477 1780 546 0
-1477 532 -546 1478 0
-1477 1780 -532 0
1478 -1780 582 0
1478 -1721 -582 0
-1478 1780 582 0
-1478 1721 -582 0
1479 -1780 546 0
1479 -1780 582 0
1479 -1646 -546 -582 0
-1479 1780 582 0
-1479 1780 546 0
-1479 1646 -546 -582 0
1480 -1780 543 0
1480 -1780 585 0
1480 -1646 -543 -585 0
-1480 1780 585 0
-1480 1780 543 0
-1480 1646 -543 -585 0
-1481 1782 539 0
-1481 -530 -539 1482 0
-1481 1782 530 0
1481 -1782 530 0
1481 -1782 539 0
1481 -530 -539 -1482 0
1482 -1782 -75 0
1482 -1782 -535 0
1482 75 535 -1483 0
-1482 1782 -535 0
-1482 75 535 1483 0
-1482 1782 -75 0
1483 -1782 -537 0
1483 -1782 542 0
1483 537 -542 -1484 0
-1483 1782 -537 0
-1483 1782 542 0
-1483 537 -542 1484 0
1484 541 -1485 0
1484 -541 -1489 0
-1484 -541 1489 0
-1484 541 1485 0
1485 545 -1486 0
1485 -545 -1488 0
-1485 -545 1488 0
-1485 545 1486 0
1486 -1782 546 0
1486 -1782 -532 0
1486 532 -546 -1487 0
-1486 1782 546 0
-1486 532 -546 1487 0
-1486 1782 -532 0
1487 -1796 -618 0
1487 -1782 618 0
-1487 1782 618 0
-1487 1796 -618 0
1488 -1782 546 0
1488 -1782 618 0
1488 -1708 -546 -618 0
-1488 1782 618 0
-1488 1782 546 0
-1488 1708 -546 -618 0
1489 -1782 543 0
1489 -1782 621 0
1489 -1708 -543 -621 0
-1489 1782 621 0
-1489 1782 543 0
-1489 1708 -543 -621 0
-1490 1783 539 0
-1490 -530 -539 1491 0
-1490 1783 530 0
1490 -1783 530 0
1490 -1783 539 0
1490 -530 -539 -1491 0
1491 -1783 -75 0
1491 -1783 -535 0
1491 75 535 -1492 0
-1491 1783 -535 0
-1491 75 535 1492 0
-1491 1783 -75 0
1492 -1783 -537 0
1492 -1783 542 0
1492 537 -542 -1493 0
-1492 1783 -537 0
-1492 1783 542 0
-1492 537 -542 1493 0
1493 541 -1494 0
1493 -541 -1498 0
-1493 -541 1498 0
-1493 541 1494 0
1494 545 -1495 0
1494 -545 -1497 0
-1494 -545 1497 0
-1494 545 1495 0
1495 -1783 546 0
1495 -1783 -532 0
1495 532 -546 -1496 0
-1495 1783 546 0
-1495 532 -546 1496 0
-1495 1783 -532 0
1496 -1783 680 0
1496 -1644 -680 0
-1496 1783 680 0
-1496 1644 -680 0
1497 -1783 546 0
1497 -1783 680 0
1497 -1749 -546 -680 0
-1497 1783 680 0
-1497 1783 546 0
-1497 1749 -546 -680 0
1498 -1783 543 0
1498 -1783 562 0
1498 -1749 -543 -562 0
-1498 1783 562 0
-1498 1783 543 0
-1498 1749 -543 -562 0
1499 -124 -542 0
-1499 124 0
-1499 542 0
-1500 1786 542 0
1500 -1786 0
1500 -542 0
-1501 1788 530 0
-1501 1788 533 0
-1501 -530 -533 1502 0
1501 -1788 530 0
1501 -1788 533 0
1501 -530 -533 -1502 0
1502 -1788 -75 0
1502 -1788 -535 0
1502 75 535 -1503 0
-1502 1788 -535 0
-1502 75 535 1503 0
-1502 1788 -75 0
1503 -537 -1504 0
1503 -1788 537 0
-1503 -537 1504 0
-1503 1788 537 0
1504 -1739 24 0
1504 -1749 -1768 -24 0
1504 -1739 1768 0
-1504 1739 24 0
-1504 1749 -1768 -24 0
-1504 1739 1768 0
-1505 1789 -530 0
-1505 -1632 530 -1506 0
-1505 1632 530 1506 0
1505 -1789 -530 0
1505 -1632 530 1506 0
1505 1632 530 -1506 0
1506 -1738 -1788 0
-1506 1738 0
-1506 1788 0
-1507 1790 530 0
-1507 1790 598 0
-1507 -530 -598 1508 0
1507 -1790 530 0
1507 -1790 598 0
1507 -530 -598 -1508 0
1508 -1790 75 0
1508 -75 -1519 0
1508 -75 -1509 0
-1508 1790 75 0
-1508 -75 1509 1519 0
-1509 1672 1510 1518 0
-1509 -1672 1510 1517 0
1509 -1510 0
1509 1672 -1518 0
1509 -1672 -1517 0
-1510 1672 1511 1516 0
-1510 -1672 1511 1515 0
1510 -1511 0
1510 1672 -1516 0
1510 -1672 -1515 0
-1511 -1672 1513 0
-1511 1672 1512 1514 0
1511 1672 -1514 0
1511 -1672 -1513 0
1511 1672 -1512 0
1512 1634 -1756 1791 0
-1512 -1634 0
-1512 1756 0
-1512 -1791 0
1513 1634 -1674 1791 0
-1513 -1634 0
-1513 1674 0
-1513 -1791 0
1514 -1634 -1780 1791 0
-1514 1634 0
-1514 1780 0
-1514 -1791 0
1515 -1634 -1696 1791 0
-1515 1634 0
-1515 1696 0
-1515 -1791 0
1516 1634 -1791 -1794 0
-1516 1794 0
-1516 1791 0
-1516 -1634 0
1517 1634 -1685 -1791 0
-1517 1791 0
-1517 1685 0
-1517 -1634 0
1518 -1634 -1763 -1791 0
-1518 1634 0
-1518 1763 0
-1518 1791 0
1519 -1634 -1659 -1672 -1791 0
-1519 1791 0
-1519 1634 0
-1519 1672 0
-1519 1659 0
-1520 1791 -530 0
-1520 1598 530 0
1520 -1791 -530 0
1520 -1598 530 0
-1521 1793 0
1521 -1793 0
-1522 1794 539 0
-1522 -530 -539 1523 0
-1522 1794 530 0
1522 -1794 530 0
1522 -1794 539 0
1522 -530 -539 -1523 0
1523 -1794 -75 0
1523 -1794 -535 0
1523 75 535 -1524 0
-1523 1794 -535 0
-1523 75 535 1524 0
-1523 1794 -75 0
1524 -1794 -537 0
1524 -1794 542 0
1524 537 -542 -1525 0
-1524 1794 -537 0
-1524 1794 542 0
-1524 537 -542 1525 0
1525 541 -1526 0
1525 -541 -1530 0
-1525 -541 1530 0
-1525 541 1526 0
1526 545 -1527 0
1526 -545 -1529 0
-1526 -545 1529 0
-1526 545 1527 0
1527 -1794 546 0
1527 -1794 -532 0
1527 532 -546 -1528 0
-1527 1794 546 0
-1527 532 -546 1528 0
-1527 1794 -532 0
1528 -1794 704 0
1528 -1721 -704 0
-1528 1794 704 0
-1528 1721 -704 0
1529 -1794 546 0
1529 -1794 704 0
1529 -1646 -546 -704 0
-1529 1794 704 0
-1529 1794 546 0
-1529 1646 -546 -704 0
1530 -1794 543 0
1530 -1794 707 0
1530 -1646 -543 -707 0
-1530 1794 707 0
-1530 1794 543 0
-1530 1646 -543 -707 0
-1531 1796 530 0
-1531 1796 531 0
-1531 -530 -531 1532 0
1531 -1796 530 0
1531 -1796 531 0
1531 -530 -531 -1532 0
1532 -1796 -75 0
1532 -1796 -535 0
1532 75 535 -1533 0
-1532 1796 -535 0
-1532 75 535 1533 0
-1532 1796 -75 0
1533 -1796 -532 0
1533 -1606 532 -537 0
1533 -1796 537 0
-1533 1796 537 0
-1533 1796 -532 0
-1533 1606 532 -537 0
-1534 1798 539 0
-1534 -530 -539 1535 0
-1534 1798 530 0
1534 -1798 530 0
1534 -1798 539 0
1534 -530 -539 -1535 0
1535 -1798 -75 0
1535 -1798 -535 0
1535 75 535 -1536 0
-1535 1798 -535 0
-1535 75 535 1536 0
-1535 1798 -75 0
1536 -1798 -537 0
1536 -1798 542 0
1536 537 -542 -1537 0
-1536 1798 -537 0
-1536 1798 542 0
-1536 537 -542 1537 0
1537 541 -1538 0
1537 -541 -1542 0
-1537 -541 1542 0
-1537 541 1538 0
1538 545 -1539 0
1538 -545 -1541 0
-1538 -545 1541 0
-1538 545 1539 0
1539 -1798 546 0
1539 -1798 -532 0
1539 532 -546 -1540 0
-1539 1798 546 0
-1539 532 -546 1540 0
-1539 1798 -532 0
1540 -1798 570 0
1540 -1613 -570 0
-1540 1798 570 0
-1540 1613 -570 0
1541 -1798 546 0
1541 -1798 570 0
1541 -1724 -546 -570 0
-1541 1798 570 0
-1541 1798 546 0
-1541 1724 -546 -570 0
1542 -1798 543 0
1542 -1798 573 0
1542 -1724 -543 -573 0
-1542 1798 573 0
-1542 1798 543 0
-1542 1724 -543 -573 0
-1543 1801 722 0
-1543 -530 -722 1544 0
-1543 1801 530 0
1543 -1801 530 0
1543 -1801 722 0
1543 -530 -722 -1544 0
1544 -1801 -75 0
1544 -1801 535 0
1544 75 -535 -1545 0
-1544 1801 -75 0
-1544 1801 535 0
-1544 75 -535 1545 0
1545 -732 -1548 0
1545 732 -1546 0
-1545 732 1546 0
-1545 -732 1548 0
-1546 750 1547 0
-1546 -750 -1547 0
1546 -750 1547 0
1546 750 -1547 0
-1547 -1692 -1804 0
-1547 1692 1804 0
1547 1692 -1804 0
1547 -1692 1804 0
1548 541 -1549 0
1548 -541 -1554 0
-1548 -541 1554 0
-1548 541 1549 0
1549 545 -1550 0
1549 -545 -1552 0
-1549 -545 1552 0
-1549 545 1550 0
1550 -1801 24 0
1550 -24 -758 1551 0
1550 -24 758 -1551 0
-1550 1801 24 0
-1550 -24 758 1551 0
-1550 -24 -758 -1551 0
-1551 -1648 -1789 0
-1551 1648 1789 0
1551 1648 -1789 0
1551 -1648 1789 0
1552 724 -1553 0
1552 -724 -1546 0
-1552 -724 1546 0
-1552 724 1553 0
1553 -1801 725 0
1553 -725 -763 1547 0
1553 -725 763 -1547 0
-1553 1801 725 0
-1553 -725 763 1547 0
-1553 -725 -763 -1547 0
1554 -696 -1555 0
1554 -18 696 779 0
1554 18 696 -779 0
-1554 -696 1555 0
-1554 -18 696 -779 0
-1554 18 696 779 0
1555 63 -1556 0
1555 -18 -63 775 0
1555 18 -63 -775 0
-1555 63 1556 0
-1555 -18 -63 -775 0
-1555 18 -63 775 0
1556 -49 -1557 0
1556 49 -1558 0
-1556 49 1558 0
-1556 -49 1557 0
1557 -1692 -1740 0
-1557 1692 0
-1557 1740 0
1558 56 -1559 0
1558 -1692 -56 0
1558 -1740 -56 0
-1558 56 1559 0
-1558 1692 1740 -56 0
1559 -18 -29 0
1559 29 -1560 0
-1559 18 -29 0
-1559 29 1560 0
1560 1692 -739 0
1560 739 -1561 0
-1560 -1692 -739 0
-1560 739 1561 0
1561 -1726 -727 0
1561 -1801 727 742 0
1561 -1726 -742 0
-1561 1726 -727 0
-1561 1801 727 742 0
-1561 1726 -742 0
-1562 1802 539 0
-1562 -530 -539 1563 0
-1562 1802 530 0
1562 -1802 530 0
1562 -1802 539 0
1562 -530 -539 -1563 0
1563 -1802 -75 0
1563 -1802 -535 0
1563 75 535 -1564 0
-1563 1802 -535 0
-1563 75 535 1564 0
-1563 1802 -75 0
1564 -1802 -537 0
1564 -1802 542 0
1564 537 -542 -1565 0
-1564 1802 -537 0
-1564 1802 542 0
-1564 537 -542 1565 0
1565 541 -1566 0
1565 -541 -1570 0
-1565 -541 1570 0
-1565 541 1566 0
1566 545 -1567 0
1566 -545 -1569 0
-1566 -545 1569 0
-1566 545 1567 0
1567 -1802 546 0
1567 -1802 -532 0
1567 532 -546 -1568 0
-1567 1802 546 0
-1567 532 -546 1568 0
-1567 1802 -532 0
1568 -1802 680 0
1568 -1655 -680 0
-1568 1802 680 0
-1568 1655 -680 0
1569 -1802 546 0
1569 -1802 680 0
1569 -1764 -546 -680 0
-1569 1802 680 0
-1569 1802 546 0
-1569 1764 -546 -680 0
1570 -1802 543 0
1570 -1802 562 0
1570 -1764 -543 -562 0
-1570 1802 562 0
-1570 1802 543 0
-1570 1764 -543 -562 0
-1571 1803 530 0
-1571 1803 533 0
-1571 -530 -533 1572 0
1571 -1803 530 0
1571 -1803 533 0
1571 -530 -533 -1572 0
1572 -1803 -75 0
1572 -1803 -535 0
1572 75 535 -1573 0
-1572 1803 -535 0
-1572 75 535 1573 0
-1572 1803 -75 0
1573 -537 -1574 0
1573 -1803 537 0
-1573 -537 1574 0
-1573 1803 537 0
1574 -1753 24 0
1574 -1764 -1768 -24 0
1574 -1753 1768 0
-1574 1753 24 0
-1574 1764 -1768 -24 0
-1574 1753 1768 0
-1575 1804 -530 0
-1575 1593 530 0
1575 -1804 -530 0
1575 -1593 530 0
-1576 1805 0
1576 -1805 0
-1577 1807 530 0
-1577 1807 598 0
-1577 -530 -598 1578 0
1577 -1807 530 0
1577 -1807 598 0
1577 -530 -598 -1578 0
1578 -1807 75 0
1578 -75 -1589 0
1578 -75 -1579 0
-1578 1807 75 0
-1578 -75 1579 1589 0
-1579 1741 1580 1588 0
-1579 -1741 1580 1587 0
1579 -1580 0
1579 1741 -1588 0
1579 -1741 -1587 0
-1580 1741 1581 1586 0
-1580 -1741 1581 1585 0
1580 -1581 0
1580 1741 -1586 0
1580 -1741 -1585 0
-1581 1741 1582 1584 0
-1581 -1741 1583 1584 0
1581 -1584 0
1581 1741 -1582 0
1581 -1741 -1583 0
1582 -1641 1693 1727 0
-1582 1641 0
-1582 -1727 0
-1582 -1693 0
1583 1693 1727 -1736 0
-1583 1736 0
-1583 -1727 0
-1583 -1693 0
1584 -1657 -1693 1727 1741 0
-1584 1693 0
-1584 -1741 0
-1584 1657 0
-1584 -1727 0
1585 -1693 1727 -1759 0
-1585 1693 0
-1585 -1727 0
-1585 1759 0
1586 1693 -1716 -1727 0
-1586 1727 0
-1586 1716 0
-1586 -1693 0
1587 -1616 1693 -1727 0
-1587 1616 0
-1587 -1693 0
-1587 1727 0
1588 -1693 -1698 -1727 0
-1588 1693 0
-1588 1698 0
-1588 1727 0
1589 -1693 -1727 -1741 -1782 0
-1589 1782 0
-1589 1693 0
-1589 1741 0
-1589 1727 0
-1808 0
2 0
3 0
6 0
8 0
23 0
28 0
34 0
39 0
48 0
55 0
62 0
64 0
68 0
74 0
83 0
91 0
1808 0
92 0
98 0
99 0
103 0
108 0
111 0
118 0
122 0
123 0
127 0
130 0
1808 0
137 0
446 0
461 0
514 0
529 0
538 0
559 0
563 0
574 0
575 0
586 0
80 0
574 0
597 0
611 0
622 0
65 0
635 0
77 0
636 0
574 0
645 0
574 0
654 0
658 0
659 0
660 0
673 0
683 0
692 0
694 0
697 0
708 0
559 0
709 0
718 0
80 0
721 0
65 0
782 0
783 0
792 0
77 0
793 0
806 0
815 0
824 0
694 0
827 0
836 0
845 0
854 0
855 0
559 0
868 0
869 0
870 0
80 0
883 0
869 0
892 0
869 0
65 0
901 0
902 0
915 0
924 0
925 0
869 0
939 0
943 0
77 0
945 0
946 0
955 0
694 0
958 0
559 0
967 0
968 0
977 0
1001 0
1002 0
1003 0
1016 0
1001 0
1001 0
1017 0
1026 0
1035 0
1001 0
1044 0
1048 0
1061 0
1070 0
-1079 0
1080 0
1089 0
1098 0
1099 0
1098 0
1117 0
1121 0
1122 0
1135 0
1144 0
1098 0
1145 0
1154 0
1098 0
1155 0
1164 0
1173 0
1176 0
1177 0
1186 0
1210 0
1219 0
1232 0
1233 0
1242 0
1243 0
1244 0
1253 0
1242 0
1243 0
1262 0
1271 0
1242 0
1280 0
1284 0
1285 0
1298 0
1299 0
1243 0
1242 0
1308 0
1317 0
1243 0
1320 0
1322 0
1341 0
1243 0
1350 0
1354 0
1355 0
1356 0
1357 0
1358 0
1367 0
1380 0
1389 0
1392 0
1356 0
1401 0
1410 0
1356 0
1433 0
1434 0
1436 0
1440 0
1356 0
1449 0
1433 0
1462 0
1434 0
1463 0
694 0
1433 0
1433 0
1434 0
1472 0
559 0
1481 0
1490 0
1499 0
1434 0
-1500 0
80 0
1501 0
1505 0
1507 0
1520 0
1499 0
1521 0
1522 0
65 0
1531 0
1499 0
1534 0
77 0
1499 0
1543 0
1562 0
1571 0
1575 0
1576 0
694 0
1577 0

