c Result of efficient AIG-to-CNF conversion using package CNF
p cnf 772 3253
-2 671 699 0
2 -671 0
2 -699 0
-3 686 708 734 4 0
3 -4 0
3 -734 0
3 -686 0
3 -708 0
-4 659 762 0
4 -659 0
4 -762 0
5 -684 -6 0
-5 684 0
-5 6 0
-6 654 759 0
6 -654 0
6 -759 0
7 -654 8 -9 0
7 -684 8 -9 0
-7 -8 0
-7 9 0
-7 654 684 0
-8 -655 679 -706 760 0
-8 655 -679 706 -760 0
-8 655 679 706 760 0
-8 -655 -679 -706 -760 0
8 -655 706 0
8 655 -706 0
8 679 -760 0
8 -679 760 0
-9 10 11 12 0
9 -10 0
9 -11 0
9 -12 0
-10 -713 -753 0
-10 713 753 0
10 713 -753 0
10 -713 753 0
-11 -692 -720 0
-11 692 720 0
11 692 -720 0
11 -692 720 0
-12 13 14 15 0
12 -13 0
12 -14 0
12 -15 0
-13 -667 -700 0
-13 667 700 0
13 667 -700 0
13 -667 700 0
-14 -648 -735 0
-14 648 735 0
14 648 -735 0
14 -648 735 0
-15 -674 -771 0
-15 674 771 0
15 674 -771 0
15 -674 771 0
16 -684 743 -17 18 0
16 -684 -743 -17 -18 0
-16 17 0
-16 -743 18 0
-16 684 0
-16 743 -18 0
17 -694 714 719 0
-17 694 0
-17 -719 0
-17 -714 0
-18 667 692 713 19 0
18 -19 0
18 -713 0
18 -667 0
18 -692 0
-19 735 771 0
19 -735 0
19 -771 0
20 8 -21 -22 -23 0
-20 23 0
-20 -8 0
-20 22 0
-20 21 0
21 -665 690 712 0
-21 665 0
-21 -712 0
-21 -690 0
22 -694 714 -719 0
-22 694 0
-22 -714 0
-22 719 0
23 -663 -684 0
23 -684 -768 0
23 -684 -24 0
-23 684 0
-23 663 768 24 0
-24 681 704 732 0
24 -681 0
24 -732 0
24 -704 0
25 -684 -21 -22 -26 0
-25 22 0
-25 26 0
-25 684 0
-25 21 0
-26 704 15 27 29 0
-26 -704 -15 27 29 0
26 -29 0
26 704 -15 0
26 -27 0
26 -704 15 0
-27 732 13 28 0
-27 -732 -13 28 0
27 -28 0
27 732 -13 0
27 -732 13 0
-28 -663 768 -10 11 0
-28 663 768 10 11 0
-28 663 -768 10 -11 0
-28 -663 -768 -10 -11 0
28 -663 10 0
28 663 -10 0
28 768 -11 0
28 -768 11 0
-29 681 14 0
-29 -681 -14 0
29 -681 14 0
29 681 -14 0
30 -684 8 -31 -32 0
-30 31 0
-30 32 0
-30 684 0
-30 -8 0
31 665 -690 -22 0
-31 22 0
-31 690 0
-31 -665 0
-32 692 768 33 35 0
-32 -692 -768 33 35 0
32 -35 0
32 -692 768 0
32 -33 0
32 692 -768 0
-33 -667 -732 34 0
-33 667 732 34 0
33 -34 0
33 -667 732 0
33 667 -732 0
-34 -681 704 -735 771 0
-34 681 -704 735 -771 0
-34 681 704 735 771 0
-34 -681 -704 -735 -771 0
34 -681 735 0
34 681 -735 0
34 704 -771 0
34 -704 771 0
-35 -663 -713 0
-35 663 713 0
35 663 -713 0
35 -663 713 0
36 -684 -22 -37 -38 0
-36 37 0
-36 38 0
-36 684 0
-36 22 0
37 665 -690 712 0
-37 -665 0
-37 690 0
-37 -712 0
-38 681 39 0
-38 -648 -735 39 0
38 -39 0
38 -681 735 0
38 648 -681 0
-39 704 40 0
-39 -674 -771 40 0
39 -40 0
39 -704 771 0
39 674 -704 0
-40 732 41 0
-40 -667 -700 41 0
40 -41 0
40 700 -732 0
40 667 -732 0
-41 768 42 0
-41 -692 -720 42 0
41 -42 0
41 720 -768 0
41 692 -768 0
-42 663 0
-42 -713 -753 0
42 -663 753 0
42 -663 713 0
43 -684 -22 -44 -45 0
-43 44 0
-43 45 0
-43 684 0
-43 22 0
44 665 -690 -712 0
-44 712 0
-44 690 0
-44 -665 0
-45 -681 46 0
-45 648 735 46 0
45 -46 0
45 -648 681 0
45 681 -735 0
-46 -704 47 0
-46 674 771 47 0
46 -47 0
46 -674 704 0
46 704 -771 0
-47 -732 48 0
-47 667 700 48 0
47 -48 0
47 -700 732 0
47 -667 732 0
-48 -768 49 0
-48 692 720 49 0
48 -49 0
48 -720 768 0
48 -692 768 0
-49 -663 0
-49 713 753 0
49 663 -713 0
49 663 -753 0
50 8 -22 -23 -51 0
-50 51 0
-50 -8 0
-50 23 0
-50 22 0
51 665 690 -712 0
-51 712 0
-51 -690 0
-51 -665 0
52 -744 53 0
-52 744 0
-52 -53 0
53 -697 717 -748 -54 0
-53 54 0
-53 697 0
-53 748 0
-53 -717 0
54 -645 670 0
-54 645 0
-54 -670 0
55 -6 -57 0
55 653 -6 -56 0
-55 6 0
-55 -653 57 0
-55 56 57 0
-56 -657 -683 0
-56 657 683 0
56 657 -683 0
56 -657 683 0
-57 -758 59 0
-57 58 56 59 0
57 -59 0
57 758 -56 0
57 758 -58 0
-58 -653 -756 0
-58 653 756 0
58 653 -756 0
58 -653 756 0
59 725 -58 0
59 725 -60 0
59 725 -56 0
-59 -725 0
-59 60 58 56 0
-60 -723 -758 0
-60 723 758 0
60 723 -758 0
60 -723 758 0
61 -62 -63 0
61 -757 -62 66 0
-61 62 0
-61 63 -66 0
-61 757 63 0
62 654 684 -759 0
-62 759 0
-62 -684 0
-62 -654 0
-63 763 766 0
-63 -53 -64 0
-63 763 -64 0
-63 766 -53 0
63 -763 53 0
63 -766 64 0
64 656 -680 -752 -65 0
-64 -656 0
-64 65 0
-64 752 0
-64 680 0
65 -701 721 0
-65 701 0
-65 -721 0
66 -642 668 -696 -67 0
-66 67 0
-66 642 0
-66 696 0
-66 -668 0
67 -710 738 0
-67 710 0
-67 -738 0
68 -743 -69 -70 74 0
-68 -74 0
-68 743 0
-68 69 0
-68 70 0
69 -684 -17 0
-69 684 0
-69 17 0
-70 756 768 71 73 0
-70 -756 -768 71 73 0
70 -73 0
70 -756 768 0
70 -71 0
70 756 -768 0
-71 -723 -732 72 0
-71 723 732 72 0
71 -72 0
71 -723 732 0
71 723 -732 0
-72 671 681 -702 -704 0
-72 -671 -681 -702 -704 0
-72 671 681 702 704 0
-72 -671 -681 702 704 0
72 671 -681 0
72 -671 681 0
72 702 -704 0
72 -702 704 0
-73 -657 -663 0
-73 657 663 0
73 657 -663 0
73 -657 663 0
-74 60 58 56 75 0
74 -75 0
74 -60 0
74 -56 0
74 -58 0
-75 671 699 -702 -725 0
-75 -671 -699 -702 -725 0
-75 671 699 702 725 0
-75 -671 -699 702 725 0
75 671 -699 0
75 -671 699 0
75 702 -725 0
75 -702 725 0
76 -684 743 -74 0
76 -684 17 -74 0
-76 684 0
-76 74 0
-76 -743 -17 0
77 -746 -749 78 0
-77 746 0
-77 749 0
-77 -78 0
-78 656 0
-78 -680 0
-78 79 80 0
78 -656 680 -79 0
78 -656 680 -80 0
79 701 -721 752 0
-79 -701 0
-79 721 0
-79 -752 0
80 -701 -721 752 0
-80 701 0
-80 721 0
-80 -752 0
-81 0
82 -739 83 0
82 -739 64 0
82 -739 66 0
-82 739 0
-82 -64 -66 -83 0
83 -717 748 -84 0
-83 717 0
-83 -748 0
-83 84 0
84 645 -670 697 0
-84 -645 0
-84 670 0
-84 -697 0
85 -682 86 0
-85 682 0
-85 -86 0
86 694 -714 -719 -87 0
-86 -694 0
-86 87 0
-86 719 0
-86 714 0
87 -655 679 760 -88 0
-87 88 0
-87 -760 0
-87 655 0
-87 -679 0
88 -706 730 -769 -37 0
-88 37 0
-88 706 0
-88 769 0
-88 -730 0
89 -698 90 0
-89 698 0
-89 -90 0
90 -657 -723 756 -91 0
-90 91 0
-90 657 0
-90 723 0
-90 -756 0
91 -671 702 0
-91 671 0
-91 -702 0
92 -709 95 0
92 -709 93 0
-92 709 0
-92 -93 -95 0
93 -667 692 -713 -94 0
-93 94 0
-93 667 0
-93 713 0
-93 -692 0
94 -735 771 0
-94 735 0
-94 -771 0
95 700 -720 753 -96 0
-95 720 0
-95 -753 0
-95 -700 0
-95 96 0
96 648 -674 0
-96 -648 0
-96 674 0
97 -726 98 0
-97 726 0
-97 -98 0
98 -663 -732 768 -99 0
-98 99 0
-98 663 0
-98 732 0
-98 -768 0
99 -681 704 0
-99 681 0
-99 -704 0
100 -742 743 0
-100 742 0
-100 -743 0
101 -767 102 0
-101 767 0
-101 -102 0
102 -661 687 -711 -103 0
-102 103 0
-102 661 0
-102 711 0
-102 -687 0
103 -728 764 0
-103 728 0
-103 -764 0
104 -652 105 0
-104 652 0
-104 -105 0
105 653 -683 -758 -106 0
-105 -653 0
-105 106 0
-105 758 0
-105 683 0
106 -699 725 0
-106 699 0
-106 -725 0
107 -733 -108 0
107 663 -683 -733 0
107 -663 683 -733 0
-107 733 0
-107 -663 -683 108 0
-107 663 683 108 0
-108 653 768 109 110 0
-108 -653 -768 109 110 0
108 -110 0
108 -653 768 0
108 -109 0
108 653 -768 0
-109 681 699 -704 -725 0
-109 -681 -699 -704 -725 0
-109 681 699 704 725 0
-109 -681 -699 704 725 0
109 681 -699 0
109 -681 699 0
109 704 -725 0
109 -704 725 0
-110 -732 -758 0
-110 732 758 0
110 732 -758 0
110 -732 758 0
111 -9 -112 -164 0
111 -9 -112 -167 0
-111 9 0
-111 112 0
-111 164 167 0
112 -113 -161 0
112 748 -753 -113 0
112 -748 753 -113 0
-112 113 0
-112 -748 -753 161 0
-112 748 753 161 0
113 -114 -158 0
113 680 -753 -114 0
113 -680 753 -114 0
-113 114 0
-113 -680 -753 158 0
-113 680 753 158 0
114 -115 -155 0
114 734 -753 -115 0
114 -734 753 -115 0
-114 115 0
-114 -734 -753 155 0
-114 734 753 155 0
115 -116 -152 0
115 696 -713 -116 0
115 -696 713 -116 0
-115 116 0
-115 -696 -713 152 0
-115 696 713 152 0
116 -117 -149 0
116 713 -748 -117 0
116 -713 748 -117 0
-116 117 0
-116 -713 -748 149 0
-116 713 748 149 0
117 -118 -146 0
117 680 -713 -118 0
117 -680 713 -118 0
-117 118 0
-117 -680 -713 146 0
-117 680 713 146 0
118 -119 -143 0
118 713 -734 -119 0
118 -713 734 -119 0
-118 119 0
-118 -713 -734 143 0
-118 713 734 143 0
119 -120 -140 0
119 696 -748 -120 0
119 -696 748 -120 0
-119 120 0
-119 -696 -748 140 0
-119 696 748 140 0
120 -121 -137 0
120 680 -696 -121 0
120 -680 696 -121 0
-120 121 0
-120 -680 -696 137 0
-120 680 696 137 0
121 -122 -134 0
121 680 -748 -122 0
121 -680 748 -122 0
-121 122 0
-121 -680 -748 134 0
-121 680 748 134 0
122 -123 -131 0
122 696 -734 -123 0
122 -696 734 -123 0
-122 123 0
-122 -696 -734 131 0
-122 696 734 131 0
123 -124 -127 0
123 -680 734 -127 0
123 680 -734 -127 0
-123 127 0
-123 680 734 124 0
-123 -680 -734 124 0
-124 -656 -708 125 0
-124 656 708 125 0
124 -125 0
124 -656 708 0
124 656 -708 0
-125 -686 -752 126 0
-125 686 752 126 0
125 -126 0
125 -686 752 0
125 686 -752 0
-126 -659 701 -721 762 0
-126 659 -701 721 -762 0
-126 659 701 721 762 0
-126 -659 -701 -721 -762 0
126 -659 721 0
126 659 -721 0
126 701 -762 0
126 -701 762 0
-127 734 748 128 130 0
-127 -734 -748 128 130 0
127 -130 0
127 -734 748 0
127 -128 0
127 734 -748 0
-128 -686 -697 129 0
-128 686 697 129 0
128 -129 0
128 -686 697 0
128 686 -697 0
-129 -645 659 670 -762 0
-129 -645 -659 -670 -762 0
-129 645 659 670 762 0
-129 645 -659 -670 762 0
129 645 -762 0
129 -645 762 0
129 -659 670 0
129 659 -670 0
-130 -708 -717 0
-130 708 717 0
130 708 -717 0
130 -708 717 0
-131 -668 -708 132 0
-131 668 708 132 0
131 -132 0
131 -668 708 0
131 668 -708 0
-132 -642 -686 133 0
-132 642 686 133 0
132 -133 0
132 -642 686 0
132 642 -686 0
-133 -659 710 -738 762 0
-133 659 -710 738 -762 0
-133 659 710 738 762 0
-133 -659 -710 -738 -762 0
133 -659 738 0
133 659 -738 0
133 710 -762 0
133 -710 762 0
-134 -656 -717 135 0
-134 656 717 135 0
134 -135 0
134 -656 717 0
134 656 -717 0
-135 -697 -752 136 0
-135 697 752 136 0
135 -136 0
135 -697 752 0
135 697 -752 0
-136 -645 670 -701 721 0
-136 645 -670 701 -721 0
-136 645 670 701 721 0
-136 -645 -670 -701 -721 0
136 -645 701 0
136 645 -701 0
136 670 -721 0
136 -670 721 0
-137 -656 -668 138 0
-137 656 668 138 0
137 -138 0
137 -656 668 0
137 656 -668 0
-138 -642 -752 139 0
-138 642 752 139 0
138 -139 0
138 -642 752 0
138 642 -752 0
-139 701 710 -721 -738 0
-139 -701 -710 -721 -738 0
-139 701 710 721 738 0
-139 -701 -710 721 738 0
139 701 -710 0
139 -701 710 0
139 721 -738 0
139 -721 738 0
-140 -668 -717 141 0
-140 668 717 141 0
140 -141 0
140 -668 717 0
140 668 -717 0
-141 -642 -697 142 0
-141 642 697 142 0
141 -142 0
141 -642 697 0
141 642 -697 0
-142 -645 670 -710 738 0
-142 645 -670 710 -738 0
-142 645 670 710 738 0
-142 -645 -670 -710 -738 0
142 -645 710 0
142 645 -710 0
142 670 -738 0
142 -670 738 0
-143 -692 -708 144 0
-143 692 708 144 0
143 -144 0
143 -692 708 0
143 692 -708 0
-144 -667 -686 145 0
-144 667 686 145 0
144 -145 0
144 -667 686 0
144 667 -686 0
-145 -659 735 762 -771 0
-145 -659 -735 -762 -771 0
-145 659 735 762 771 0
-145 659 -735 -762 771 0
145 659 -771 0
145 -659 771 0
145 -735 762 0
145 735 -762 0
-146 -656 -692 147 0
-146 656 692 147 0
146 -147 0
146 -656 692 0
146 656 -692 0
-147 -667 -752 148 0
-147 667 752 148 0
147 -148 0
147 -667 752 0
147 667 -752 0
-148 -701 721 -735 771 0
-148 701 -721 735 -771 0
-148 701 721 735 771 0
-148 -701 -721 -735 -771 0
148 -701 735 0
148 701 -735 0
148 721 -771 0
148 -721 771 0
-149 -692 -717 150 0
-149 692 717 150 0
149 -150 0
149 -692 717 0
149 692 -717 0
-150 -667 -697 151 0
-150 667 697 151 0
150 -151 0
150 -667 697 0
150 667 -697 0
-151 -645 670 -735 771 0
-151 645 -670 735 -771 0
-151 645 670 735 771 0
-151 -645 -670 -735 -771 0
151 -645 735 0
151 645 -735 0
151 670 -771 0
151 -670 771 0
-152 -668 -692 153 0
-152 668 692 153 0
152 -153 0
152 -668 692 0
152 668 -692 0
-153 -642 -667 154 0
-153 642 667 154 0
153 -154 0
153 -642 667 0
153 642 -667 0
-154 710 735 -738 -771 0
-154 -710 -735 -738 -771 0
-154 710 735 738 771 0
-154 -710 -735 738 771 0
154 710 -735 0
154 -710 735 0
154 738 -771 0
154 -738 771 0
-155 -708 -720 156 0
-155 708 720 156 0
155 -156 0
155 -708 720 0
155 708 -720 0
-156 -686 -700 157 0
-156 686 700 157 0
156 -157 0
156 -686 700 0
156 686 -700 0
-157 -648 659 674 -762 0
-157 -648 -659 -674 -762 0
-157 648 659 674 762 0
-157 648 -659 -674 762 0
157 648 -762 0
157 -648 762 0
157 -659 674 0
157 659 -674 0
-158 -656 -720 159 0
-158 656 720 159 0
158 -159 0
158 -656 720 0
158 656 -720 0
-159 -700 -752 160 0
-159 700 752 160 0
159 -160 0
159 -700 752 0
159 700 -752 0
-160 -648 674 -701 721 0
-160 648 -674 701 -721 0
-160 648 674 701 721 0
-160 -648 -674 -701 -721 0
160 -648 701 0
160 648 -701 0
160 674 -721 0
160 -674 721 0
-161 -717 -720 162 0
-161 717 720 162 0
161 -162 0
161 -717 720 0
161 717 -720 0
-162 -697 -700 163 0
-162 697 700 163 0
162 -163 0
162 -697 700 0
162 697 -700 0
-163 645 648 -670 -674 0
-163 -645 -648 -670 -674 0
-163 645 648 670 674 0
-163 -645 -648 670 674 0
163 645 -648 0
163 -645 648 0
163 670 -674 0
163 -670 674 0
-164 -668 -720 165 0
-164 668 720 165 0
164 -165 0
164 -668 720 0
164 668 -720 0
-165 -642 -700 166 0
-165 642 700 166 0
165 -166 0
165 -642 700 0
165 642 -700 0
-166 -648 674 -710 738 0
-166 648 -674 710 -738 0
-166 648 674 710 738 0
-166 -648 -674 -710 -738 0
166 -648 710 0
166 648 -710 0
166 674 -738 0
166 -674 738 0
-167 -696 -753 0
-167 696 753 0
167 696 -753 0
167 -696 753 0
168 -731 169 -192 0
168 -731 169 191 0
-168 731 0
-168 -169 0
-168 -191 192 0
-169 173 -183 0
-169 170 173 0
-169 171 173 0
169 -173 0
169 -170 -171 183 0
170 656 680 752 -65 0
-170 65 0
-170 -752 0
-170 -656 0
-170 -680 0
171 642 668 696 -172 0
-171 172 0
-171 -696 0
-171 -642 0
-171 -668 0
172 -710 -738 0
-172 710 0
-172 738 0
173 -170 -174 179 0
173 -170 -174 175 0
-173 170 0
-173 174 0
-173 -175 -179 0
174 717 748 -84 0
-174 84 0
-174 -748 0
-174 -717 0
175 171 -176 0
175 663 -696 171 0
175 -663 696 171 0
-175 -171 0
-175 663 696 176 0
-175 -663 -696 176 0
-176 668 768 177 178 0
-176 -668 -768 177 178 0
176 -178 0
176 -668 768 0
176 -177 0
176 668 -768 0
-177 -681 704 -710 738 0
-177 681 -704 710 -738 0
-177 681 704 710 738 0
-177 -681 -704 -710 -738 0
177 -681 710 0
177 681 -710 0
177 704 -738 0
177 -704 738 0
-178 -642 -732 0
-178 642 732 0
178 642 -732 0
178 -642 732 0
-179 696 711 180 182 0
-179 -696 -711 180 182 0
179 -182 0
179 -696 711 0
179 -180 0
179 696 -711 0
-180 -642 -661 181 0
-180 642 661 181 0
180 -181 0
180 -642 661 0
180 642 -661 0
-181 710 728 -738 -764 0
-181 -710 -728 -738 -764 0
-181 710 728 738 764 0
-181 -710 -728 738 764 0
181 710 -728 0
181 -710 728 0
181 738 -764 0
181 -738 764 0
-182 -668 -687 0
-182 668 687 0
182 668 -687 0
182 -668 687 0
183 -184 -188 0
183 711 -748 -184 0
183 -711 748 -184 0
-183 184 0
-183 -711 -748 188 0
-183 711 748 188 0
184 174 -185 0
184 663 -748 174 0
184 -663 748 174 0
-184 -174 0
-184 663 748 185 0
-184 -663 -748 185 0
-185 717 768 186 187 0
-185 -717 -768 186 187 0
185 -187 0
185 -717 768 0
185 -186 0
185 717 -768 0
-186 -645 670 -681 704 0
-186 645 -670 681 -704 0
-186 645 670 681 704 0
-186 -645 -670 -681 -704 0
186 -645 681 0
186 645 -681 0
186 670 -704 0
186 -670 704 0
-187 -697 -732 0
-187 697 732 0
187 697 -732 0
187 -697 732 0
-188 687 717 189 190 0
-188 -687 -717 189 190 0
188 -190 0
188 -687 717 0
188 -189 0
188 687 -717 0
-189 -645 670 -728 764 0
-189 645 -670 728 -764 0
-189 645 670 728 764 0
-189 -645 -670 -728 -764 0
189 -645 728 0
189 645 -728 0
189 670 -764 0
189 -670 764 0
-190 -661 -697 0
-190 661 697 0
190 661 -697 0
190 -661 697 0
191 -174 -171 0
-191 174 0
-191 171 0
192 -193 -197 0
192 680 -711 -193 0
192 -680 711 -193 0
-192 193 0
-192 -680 -711 197 0
-192 680 711 197 0
193 170 -194 0
193 663 -680 170 0
193 -663 680 170 0
-193 -170 0
-193 663 680 194 0
-193 -663 -680 194 0
-194 656 768 195 196 0
-194 -656 -768 195 196 0
194 -196 0
194 -656 768 0
194 -195 0
194 656 -768 0
-195 681 701 -704 -721 0
-195 -681 -701 -704 -721 0
-195 681 701 704 721 0
-195 -681 -701 704 721 0
195 681 -701 0
195 -681 701 0
195 704 -721 0
195 -704 721 0
-196 -732 -752 0
-196 732 752 0
196 732 -752 0
196 -732 752 0
-197 656 687 198 199 0
-197 -656 -687 198 199 0
197 -199 0
197 -656 687 0
197 -198 0
197 656 -687 0
-198 -701 721 -728 764 0
-198 701 -721 728 -764 0
-198 701 721 728 764 0
-198 -701 -721 -728 -764 0
198 -701 728 0
198 701 -728 0
198 721 -764 0
198 -721 764 0
-199 -661 -752 0
-199 661 752 0
199 661 -752 0
199 -661 752 0
200 -12 -162 -165 -201 0
-200 201 0
-200 165 0
-200 12 0
-200 162 0
201 -153 -156 -159 -202 0
-201 202 0
-201 159 0
-201 153 0
-201 156 0
202 -144 -147 -150 -203 0
-202 203 0
-202 150 0
-202 144 0
-202 147 0
203 -135 -138 -141 -204 0
-203 204 0
-203 141 0
-203 135 0
-203 138 0
204 -125 -128 -132 0
-204 125 0
-204 132 0
-204 128 0
-205 642 207 0
-205 -206 -207 218 0
-205 642 206 0
205 -642 206 0
205 -642 207 0
205 -206 -207 -218 0
-206 684 6 0
206 -684 0
206 -6 0
-207 208 214 0
-207 208 212 215 0
207 -208 0
207 -212 -214 0
207 -214 -215 0
208 -684 -209 -210 -211 0
-208 210 0
-208 211 0
-208 684 0
-208 209 0
209 -694 714 -719 0
-209 694 0
-209 -714 0
-209 719 0
210 -684 6 0
-210 684 0
-210 -6 0
-211 730 769 0
211 -730 0
211 -769 0
212 -684 -213 209 -210 0
-212 210 0
-212 -209 0
-212 684 0
-212 213 0
-213 -694 0
-213 714 0
213 694 -714 0
-214 679 706 0
214 -679 0
214 -706 0
215 213 216 -217 0
-215 -213 0
-215 -216 0
-215 217 0
-216 694 714 719 0
216 -694 0
216 -719 0
216 -714 0
217 -684 209 -210 0
-217 684 0
-217 -209 0
-217 210 0
218 -642 -62 0
218 -642 -219 0
218 62 219 -220 0
-218 642 -219 0
-218 62 219 220 0
-218 642 -62 0
219 -654 684 759 0
-219 654 0
-219 -759 0
-219 -684 0
220 -642 -221 0
220 -642 210 0
220 221 -210 -222 0
-220 642 -221 0
-220 642 210 0
-220 221 -210 222 0
221 -654 684 -759 0
-221 654 0
-221 -684 0
-221 759 0
222 209 -223 0
222 -209 -227 0
-222 -209 227 0
-222 209 223 0
223 213 -224 0
223 -213 -226 0
-223 -213 226 0
-223 213 224 0
224 216 -225 0
224 -642 -216 0
-224 216 225 0
-224 642 -216 0
225 -642 706 0
225 -661 -679 -706 0
225 -642 679 0
-225 642 706 0
-225 661 -679 -706 0
-225 642 679 0
226 -642 679 0
226 -679 -706 -732 0
226 -642 706 0
-226 642 706 0
-226 642 679 0
-226 -679 -706 732 0
227 -642 769 0
227 -642 730 0
227 -730 -732 -769 0
-227 642 769 0
-227 -730 732 -769 0
-227 642 730 0
228 -665 -690 -78 -229 0
-228 229 0
-228 665 0
-228 690 0
-228 78 0
229 -209 -62 -230 -231 0
-229 231 0
-229 209 0
-229 230 0
-229 62 0
230 -655 760 0
-230 655 0
-230 -760 0
231 730 -769 0
-231 -730 0
-231 769 0
232 -105 -210 0
-232 105 0
-232 210 0
-233 645 207 0
-233 -206 -207 234 0
-233 645 206 0
233 -645 206 0
233 -645 207 0
233 -206 -207 -234 0
234 -645 -62 0
234 -645 -219 0
234 62 219 -235 0
-234 645 -219 0
-234 62 219 235 0
-234 645 -62 0
235 -645 -221 0
235 -645 210 0
235 221 -210 -236 0
-235 645 -221 0
-235 645 210 0
-235 221 -210 236 0
236 209 -237 0
236 -209 -241 0
-236 -209 241 0
-236 209 237 0
237 213 -238 0
237 -213 -240 0
-237 -213 240 0
-237 213 238 0
238 216 -239 0
238 -645 -216 0
-238 216 239 0
-238 645 -216 0
239 -645 -706 0
239 -645 679 0
239 -679 706 -728 0
-239 645 -706 0
-239 -679 706 728 0
-239 645 679 0
240 -645 679 0
240 -679 -681 706 0
240 -645 -706 0
-240 645 -706 0
-240 645 679 0
-240 -679 681 706 0
241 -645 730 0
241 -645 -769 0
241 -681 -730 769 0
-241 645 -769 0
-241 645 730 0
-241 681 -730 769 0
-242 648 206 0
-242 648 243 0
-242 -206 -243 244 0
242 -648 206 0
242 -648 243 0
242 -206 -243 -244 0
243 -6 -62 0
-243 6 0
-243 62 0
244 -648 62 0
244 -62 -247 0
244 -62 -245 0
-244 648 62 0
-244 -62 245 247 0
-245 679 246 0
-245 645 246 0
-245 -706 246 0
245 -246 0
245 -645 -679 706 0
-246 -679 0
-246 706 762 0
-246 701 -706 0
246 679 -701 -706 0
246 679 706 -762 0
247 -679 -706 -710 0
-247 679 0
-247 706 0
-247 710 0
-248 653 206 0
-248 653 249 0
-248 -206 -249 250 0
248 -653 206 0
248 -653 249 0
248 -206 -249 -250 0
249 -654 684 -759 0
-249 654 0
-249 -684 0
-249 759 0
250 -653 -62 0
250 -653 -219 0
250 62 219 -251 0
-250 653 -219 0
-250 62 219 251 0
-250 653 -62 0
251 -221 -252 0
251 -653 221 0
-251 -221 252 0
-251 653 221 0
252 743 -756 0
252 -756 17 0
252 -743 -768 -17 0
-252 756 17 0
-252 743 756 0
-252 -743 768 -17 0
253 654 -759 0
253 -654 759 0
-253 -654 -759 0
-253 654 759 0
-254 655 -206 0
-254 632 206 0
254 -655 -206 0
254 -632 206 0
-255 656 207 0
-255 -206 -207 256 0
-255 656 206 0
255 -656 206 0
255 -656 207 0
255 -206 -207 -256 0
256 -656 -62 0
256 -656 -219 0
256 62 219 -257 0
-256 656 -219 0
-256 62 219 257 0
-256 656 -62 0
257 -656 -221 0
257 -656 210 0
257 221 -210 -258 0
-257 656 -221 0
-257 656 210 0
-257 221 -210 258 0
258 209 -259 0
258 -209 -263 0
-258 -209 263 0
-258 209 259 0
259 213 -260 0
259 -213 -262 0
-259 -213 262 0
-259 213 260 0
260 216 -261 0
260 -656 -216 0
-260 216 261 0
-260 656 -216 0
261 -656 -679 0
261 -656 706 0
261 679 -687 -706 0
-261 656 -679 0
-261 656 706 0
-261 679 687 -706 0
262 -656 -679 0
262 -656 706 0
262 679 -706 -768 0
-262 656 -679 0
-262 656 706 0
-262 679 -706 768 0
263 -656 -730 0
263 -656 769 0
263 730 -768 -769 0
-263 656 -730 0
-263 656 769 0
-263 730 768 -769 0
-264 657 -206 0
-264 683 206 265 0
-264 -683 206 -265 0
264 -657 -206 0
264 683 206 -265 0
264 -683 206 265 0
265 -653 -725 -758 0
-265 653 0
-265 725 0
-265 758 0
266 -231 -267 -268 0
-266 231 0
-266 267 0
-266 268 0
267 679 -706 0
-267 -679 0
-267 706 0
268 -655 760 -209 269 0
-268 -269 0
-268 655 0
-268 209 0
-268 -760 0
-269 665 690 712 0
269 -665 0
269 -712 0
269 -690 0
-270 659 0
270 -659 0
-271 661 206 0
-271 661 272 0
-271 -206 -272 273 0
271 -661 206 0
271 -661 272 0
271 -206 -272 -273 0
272 216 -249 0
-272 -216 0
-272 249 0
273 -661 -62 0
273 -661 -219 0
273 62 219 -274 0
-273 661 -219 0
-273 62 219 274 0
-273 661 -62 0
274 -661 -216 0
274 -639 216 -221 0
274 -661 221 0
-274 661 221 0
-274 661 -216 0
-274 639 216 -221 0
-275 663 276 0
-275 -206 -276 299 0
-275 663 206 0
275 -663 206 0
275 -663 276 0
275 -206 -276 -299 0
-276 277 298 0
276 -277 0
276 -298 0
-277 280 297 0
-277 278 279 280 0
277 -280 0
277 -279 -297 0
277 -278 -297 0
278 694 -714 719 0
-278 -694 0
-278 714 0
-278 -719 0
279 694 -714 -719 0
-279 719 0
-279 714 0
-279 -694 0
-280 281 293 296 0
-280 281 295 296 0
280 -281 0
280 -296 0
280 -293 -295 0
-281 282 291 0
-281 21 282 292 0
281 -282 0
281 -21 -291 0
281 -291 -292 0
-282 283 290 0
-282 37 44 283 0
282 -283 0
282 -44 -290 0
282 -37 -290 0
-283 51 284 0
-283 284 287 0
283 -284 0
283 -51 -287 0
-284 286 0
-284 -285 -269 0
-284 209 -285 0
284 285 -286 0
284 -209 269 -286 0
285 -694 0
285 -714 0
-285 694 714 0
286 62 -206 -219 0
-286 219 0
-286 206 0
-286 -62 0
287 -269 -288 0
-287 269 0
-287 288 0
288 -209 -289 0
-288 209 0
-288 289 0
289 -285 62 -206 -219 0
-289 219 0
-289 206 0
-289 285 0
-289 -62 0
290 51 -287 0
-290 -51 0
-290 287 0
291 -665 -288 0
-291 665 0
-291 288 0
292 -665 690 -712 0
-292 665 0
-292 -690 0
-292 712 0
293 -294 292 0
-293 294 0
-293 -292 0
294 21 -291 0
-294 -21 0
-294 291 0
295 -665 -690 712 0
-295 665 0
-295 690 0
-295 -712 0
296 -665 -690 -712 -288 0
-296 288 0
-296 665 0
-296 712 0
-296 690 0
297 209 -289 0
-297 -209 0
-297 289 0
298 -17 213 -297 0
-298 17 0
-298 -213 0
-298 297 0
299 -663 -62 0
299 -663 219 0
299 62 -219 -300 0
-299 663 -62 0
-299 663 219 0
-299 62 -219 300 0
300 285 -301 0
300 -285 -307 319 0
-300 285 301 0
-300 -285 -319 0
-300 -285 307 0
-301 302 303 0
-301 -302 -303 0
301 -302 303 0
301 302 -303 0
-302 -713 -730 0
-302 713 730 0
302 713 -730 0
302 -713 730 0
-303 769 304 0
-303 692 769 0
-303 692 304 0
303 -692 -769 0
303 -769 -304 0
303 -692 -304 0
-304 667 305 0
-304 665 667 0
-304 665 305 0
304 -665 -667 0
304 -667 -305 0
304 -665 -305 0
-305 690 306 0
-305 771 306 0
-305 690 771 0
305 -690 -771 0
305 -771 -306 0
305 -690 -306 0
306 -712 -735 0
-306 712 0
-306 735 0
-307 -213 209 313 0
-307 213 209 308 0
307 -209 0
307 -213 -313 0
307 213 -308 0
308 -663 17 0
308 -17 -309 310 0
308 -17 309 -310 0
-308 663 17 0
-308 -17 309 310 0
-308 -17 -309 -310 0
-309 -657 -769 0
-309 657 769 0
309 657 -769 0
309 -657 769 0
-310 756 311 0
-310 665 756 0
-310 665 311 0
310 -665 -756 0
310 -756 -311 0
310 -665 -311 0
-311 690 312 0
-311 723 312 0
-311 690 723 0
311 -690 -723 0
311 -723 -312 0
311 -690 -312 0
312 -702 -712 0
-312 702 0
-312 712 0
313 278 -314 0
313 -278 -301 0
-313 -278 301 0
-313 278 314 0
314 -663 279 0
314 -279 -302 315 0
314 -279 302 -315 0
-314 663 279 0
-314 -279 302 315 0
-314 -279 -302 -315 0
-315 -692 316 0
-315 -692 769 0
-315 769 316 0
315 -769 -316 0
315 692 -316 0
315 692 -769 0
-316 665 -667 0
-316 -667 317 0
-316 665 317 0
316 667 -317 0
316 -665 667 0
316 -665 -317 0
-317 -771 318 0
-317 690 318 0
-317 690 -771 0
317 -690 -318 0
317 -690 771 0
317 771 -318 0
318 -712 735 0
-318 712 0
-318 -735 0
319 -209 320 0
-319 209 0
-319 -320 0
320 -269 -321 0
320 -10 269 332 0
320 10 269 -332 0
-320 -269 321 0
-320 10 269 332 0
-320 -10 269 -332 0
321 51 -322 0
321 -10 -51 328 0
321 10 -51 -328 0
-321 51 322 0
-321 10 -51 328 0
-321 -10 -51 -328 0
322 37 -323 0
322 -713 -753 -37 0
-322 37 323 0
-322 753 -37 0
-322 713 -37 0
323 44 -324 0
323 -713 -44 0
323 -753 -44 0
-323 44 324 0
-323 713 753 -44 0
324 -10 -21 0
324 21 -325 0
-324 10 -21 0
-324 21 325 0
325 713 -292 0
325 292 295 -326 0
-325 292 326 0
-325 -713 -292 0
-325 292 -295 0
326 -713 -327 0
326 -663 327 0
-326 663 327 0
-326 713 -327 0
327 -665 -690 -712 0
-327 665 0
-327 690 0
-327 712 0
-328 -692 329 0
-328 -692 720 0
-328 720 329 0
328 -720 -329 0
328 692 -329 0
328 692 -720 0
-329 -667 330 0
-329 -667 700 0
-329 700 330 0
329 -700 -330 0
329 667 -330 0
329 667 -700 0
-330 -771 331 0
-330 674 331 0
-330 674 -771 0
330 -674 -331 0
330 -674 771 0
330 771 -331 0
331 -648 735 0
-331 648 0
-331 -735 0
-332 720 333 0
-332 692 720 0
-332 692 333 0
332 -692 -720 0
332 -720 -333 0
332 -692 -333 0
-333 700 334 0
-333 667 700 0
-333 667 334 0
333 -667 -700 0
333 -700 -334 0
333 -667 -334 0
-334 674 335 0
-334 771 335 0
-334 674 771 0
334 -674 -771 0
334 -771 -335 0
334 -674 -335 0
335 -648 -735 0
-335 648 0
-335 735 0
-336 665 -206 0
-336 627 206 0
336 -665 -206 0
336 -627 206 0
-337 667 206 0
-337 667 243 0
-337 -206 -243 338 0
337 -667 206 0
337 -667 243 0
337 -206 -243 -338 0
338 -667 62 0
338 -62 -341 0
338 -62 -339 0
-338 667 62 0
-338 -62 339 341 0
-339 697 340 0
-339 760 340 0
-339 -655 340 0
339 -340 0
339 655 -697 -760 0
-340 -760 0
-340 -655 752 0
-340 655 686 0
340 655 -686 760 0
340 -655 -752 760 0
341 -642 -655 -760 0
-341 642 0
-341 655 0
-341 760 0
-342 668 207 0
-342 -206 -207 343 0
-342 668 206 0
342 -668 206 0
342 -668 207 0
342 -206 -207 -343 0
343 -668 -62 0
343 -668 -219 0
343 62 219 -344 0
-343 668 -219 0
-343 62 219 344 0
-343 668 -62 0
344 -668 -221 0
344 -668 210 0
344 221 -210 -345 0
-344 668 -221 0
-344 668 210 0
-344 221 -210 345 0
345 209 -346 0
345 -209 -350 0
-345 -209 350 0
-345 209 346 0
346 213 -347 0
346 -213 -349 0
-346 -213 349 0
-346 213 347 0
347 216 -348 0
347 -668 -216 0
-347 216 348 0
-347 668 -216 0
348 -668 706 0
348 -668 679 0
348 -679 -687 -706 0
-348 668 706 0
-348 -679 687 -706 0
-348 668 679 0
349 -668 679 0
349 -679 -706 -768 0
349 -668 706 0
-349 668 706 0
-349 668 679 0
-349 -679 -706 768 0
350 -668 769 0
350 -668 730 0
350 -730 -768 -769 0
-350 668 769 0
-350 -730 768 -769 0
-350 668 730 0
-351 670 207 0
-351 -206 -207 352 0
-351 670 206 0
351 -670 206 0
351 -670 207 0
351 -206 -207 -352 0
352 -670 -62 0
352 -670 -219 0
352 62 219 -353 0
-352 670 -219 0
-352 62 219 353 0
-352 670 -62 0
353 -670 -221 0
353 -670 210 0
353 221 -210 -354 0
-353 670 -221 0
-353 670 210 0
-353 221 -210 354 0
354 209 -355 0
354 -209 -359 0
-354 -209 359 0
-354 209 355 0
355 213 -356 0
355 -213 -358 0
-355 -213 358 0
-355 213 356 0
356 216 -357 0
356 -670 -216 0
-356 216 357 0
-356 670 -216 0
357 -670 -706 0
357 -670 679 0
357 -679 706 -764 0
-357 670 -706 0
-357 -679 706 764 0
-357 670 679 0
358 -670 679 0
358 -679 -704 706 0
358 -670 -706 0
-358 670 -706 0
-358 670 679 0
-358 -679 704 706 0
359 -670 730 0
359 -670 -769 0
359 -704 -730 769 0
-359 670 -769 0
-359 670 730 0
-359 704 -730 769 0
-360 671 -206 0
-360 699 206 0
360 -699 206 0
360 -671 -206 0
361 -62 -86 0
-361 62 0
-361 86 0
-362 674 206 0
-362 674 243 0
-362 -206 -243 363 0
362 -674 206 0
362 -674 243 0
362 -206 -243 -363 0
363 -674 62 0
363 -62 -366 0
363 -62 -364 0
-363 674 62 0
-363 -62 364 366 0
-364 679 365 0
-364 670 365 0
-364 -706 365 0
364 -365 0
364 -670 -679 706 0
-365 -679 0
-365 659 706 0
-365 -706 721 0
365 -659 679 706 0
365 679 -706 -721 0
366 -679 -706 -738 0
-366 679 0
-366 706 0
-366 738 0
-367 679 -206 0
-367 631 206 0
367 -679 -206 0
367 -631 206 0
-368 680 207 0
-368 -206 -207 369 0
-368 680 206 0
368 -680 206 0
368 -680 207 0
368 -206 -207 -369 0
369 -680 -62 0
369 -680 -219 0
369 62 219 -370 0
-369 680 -219 0
-369 62 219 370 0
-369 680 -62 0
370 -680 -221 0
370 -680 210 0
370 221 -210 -371 0
-370 680 -221 0
-370 680 210 0
-370 221 -210 371 0
371 209 -372 0
371 -209 -376 0
-371 -209 376 0
-371 209 372 0
372 213 -373 0
372 -213 -375 0
-372 -213 375 0
-372 213 373 0
373 216 -374 0
373 -680 -216 0
-373 216 374 0
-373 680 -216 0
374 -680 706 0
374 679 -706 -711 0
374 -679 -680 0
-374 680 706 0
-374 -679 680 0
-374 679 -706 711 0
375 -679 -680 0
375 -680 706 0
375 -663 679 -706 0
-375 -679 680 0
-375 680 706 0
-375 663 679 -706 0
376 -680 -730 0
376 -680 769 0
376 -663 730 -769 0
-376 680 769 0
-376 680 -730 0
-376 663 730 -769 0
-377 681 276 0
-377 -206 -276 378 0
-377 681 206 0
377 -681 206 0
377 -681 276 0
377 -206 -276 -378 0
378 -681 -62 0
378 -681 219 0
378 62 -219 -379 0
-378 681 -62 0
-378 681 219 0
-378 62 -219 379 0
379 -285 -380 0
379 712 -735 285 0
379 -712 735 285 0
-379 -285 380 0
-379 -712 -735 285 0
-379 712 735 285 0
380 -209 -384 0
380 209 -381 382 0
-380 209 381 0
-380 -209 384 0
-380 209 -382 0
-381 681 17 213 0
-381 671 -17 213 0
381 -213 0
381 -681 17 0
381 -671 -17 0
382 -279 383 0
382 -278 383 0
-382 -383 0
-382 278 279 0
-383 -712 -735 0
-383 712 735 0
383 712 -735 0
383 -712 735 0
384 -14 269 0
384 -269 -385 390 0
-384 14 269 0
-384 -269 -390 0
-384 -269 385 0
-385 -37 335 51 0
-385 37 51 386 0
385 -51 0
385 37 -386 0
385 -37 -335 0
386 44 -387 0
386 -648 -44 0
386 -735 -44 0
-386 44 387 0
-386 648 735 -44 0
387 21 -388 0
387 648 -735 -21 0
387 -648 735 -21 0
-387 21 388 0
-387 -648 -735 -21 0
-387 648 735 -21 0
388 735 -292 0
388 292 -389 0
-388 -735 -292 0
-388 292 389 0
389 -771 -327 0
389 -771 -295 0
389 -681 327 295 0
-389 771 -295 0
-389 771 -327 0
-389 681 327 295 0
390 14 -51 0
-390 -14 0
-390 51 0
-391 683 206 0
-391 683 249 0
-391 -206 -249 392 0
391 -683 206 0
391 -683 249 0
391 -206 -249 -392 0
392 -683 -62 0
392 -683 -219 0
392 62 219 -393 0
-392 683 -219 0
-392 62 219 393 0
-392 683 -62 0
393 -221 -394 0
393 -683 221 0
-393 -221 394 0
-393 683 221 0
394 -657 17 0
394 -663 -743 -17 0
394 -657 743 0
-394 657 17 0
-394 663 -743 -17 0
-394 657 743 0
395 684 -396 210 0
395 -684 396 210 0
-395 -210 0
-395 684 396 0
-395 -684 -396 0
396 -654 -759 0
-396 654 0
-396 759 0
-397 686 0
397 -686 0
-398 687 206 0
-398 687 272 0
-398 -206 -272 399 0
398 -687 206 0
398 -687 272 0
398 -206 -272 -399 0
399 -687 -62 0
399 -687 -219 0
399 62 219 -400 0
-399 687 -219 0
-399 62 219 400 0
-399 687 -62 0
400 -687 -216 0
400 -640 216 -221 0
400 -687 221 0
-400 687 221 0
-400 687 -216 0
-400 640 216 -221 0
-401 690 -206 0
-401 626 206 0
401 -690 -206 0
401 -626 206 0
402 -62 -90 0
-402 62 0
-402 90 0
-403 692 206 0
-403 692 243 0
-403 -206 -243 404 0
403 -692 206 0
403 -692 243 0
403 -206 -243 -404 0
404 -692 62 0
404 -62 -407 0
404 -62 -405 0
-404 692 62 0
-404 -62 405 407 0
-405 717 406 0
-405 760 406 0
-405 -655 406 0
405 -406 0
405 655 -717 -760 0
-406 -760 0
-406 -655 656 0
-406 655 708 0
406 -655 -656 760 0
406 655 -708 760 0
407 -655 -668 -760 0
-407 655 0
-407 668 0
-407 760 0
-408 694 -206 0
-408 635 206 0
408 -694 -206 0
408 -635 206 0
-409 696 207 0
-409 -206 -207 410 0
-409 696 206 0
409 -696 206 0
409 -696 207 0
409 -206 -207 -410 0
410 -696 -62 0
410 -696 -219 0
410 62 219 -411 0
-410 696 -219 0
-410 62 219 411 0
-410 696 -62 0
411 -696 -221 0
411 -696 210 0
411 221 -210 -412 0
-411 696 -221 0
-411 696 210 0
-411 221 -210 412 0
412 209 -413 0
412 -209 -417 0
-412 -209 417 0
-412 209 413 0
413 213 -414 0
413 -213 -416 0
-413 -213 416 0
-413 213 414 0
414 216 -415 0
414 -696 -216 0
-414 216 415 0
-414 696 -216 0
415 -696 706 0
415 -679 -706 -711 0
415 679 -696 0
-415 696 706 0
-415 679 696 0
-415 -679 -706 711 0
416 679 -696 0
416 -696 706 0
416 -663 -679 -706 0
-416 696 706 0
-416 679 696 0
-416 663 -679 -706 0
417 -696 730 0
417 -663 -730 -769 0
417 -696 769 0
-417 696 769 0
-417 696 730 0
-417 663 -730 -769 0
-418 697 207 0
-418 -206 -207 419 0
-418 697 206 0
418 -697 206 0
418 -697 207 0
418 -206 -207 -419 0
419 -697 -62 0
419 -697 -219 0
419 62 219 -420 0
-419 697 -219 0
-419 62 219 420 0
-419 697 -62 0
420 -697 -221 0
420 -697 210 0
420 221 -210 -421 0
-420 697 -221 0
-420 697 210 0
-420 221 -210 421 0
421 209 -422 0
421 -209 -426 0
-421 -209 426 0
-421 209 422 0
422 213 -423 0
422 -213 -425 0
-422 -213 425 0
-422 213 423 0
423 216 -424 0
423 -697 -216 0
-423 216 424 0
-423 697 -216 0
424 679 -697 0
424 -697 -706 0
424 -661 -679 706 0
-424 697 -706 0
-424 679 697 0
-424 661 -679 706 0
425 679 -697 0
425 -697 -706 0
425 -679 706 -732 0
-425 697 -706 0
-425 679 697 0
-425 -679 706 732 0
426 -697 730 0
426 -730 -732 769 0
426 -697 -769 0
-426 697 -769 0
-426 697 730 0
-426 -730 732 769 0
-427 699 206 0
-427 699 249 0
-427 -206 -249 428 0
427 -699 206 0
427 -699 249 0
427 -206 -249 -428 0
428 -699 -62 0
428 -699 -219 0
428 62 219 -429 0
-428 699 -219 0
-428 62 219 429 0
-428 699 -62 0
429 -221 -430 0
429 -699 221 0
-429 -221 430 0
-429 699 221 0
430 -671 17 0
430 -681 -743 -17 0
430 -671 743 0
-430 671 17 0
-430 681 -743 -17 0
-430 671 743 0
-431 700 206 0
-431 700 243 0
-431 -206 -243 432 0
431 -700 206 0
431 -700 243 0
431 -206 -243 -432 0
432 -700 62 0
432 -62 -435 0
432 -62 -433 0
-432 700 62 0
-432 -62 433 435 0
-433 697 434 0
-433 679 434 0
-433 -706 434 0
433 -434 0
433 -679 -697 706 0
-434 -679 0
-434 686 706 0
-434 -706 752 0
434 679 -686 706 0
434 679 -706 -752 0
435 -642 -679 -706 0
-435 642 0
-435 679 0
-435 706 0
-436 701 207 0
-436 -206 -207 437 0
-436 701 206 0
436 -701 206 0
436 -701 207 0
436 -206 -207 -437 0
437 -701 -62 0
437 -701 -219 0
437 62 219 -438 0
-437 701 -219 0
-437 62 219 438 0
-437 701 -62 0
438 -701 -221 0
438 -701 210 0
438 221 -210 -439 0
-438 701 -221 0
-438 701 210 0
-438 221 -210 439 0
439 209 -440 0
439 -209 -444 0
-439 -209 444 0
-439 209 440 0
440 213 -441 0
440 -213 -443 0
-440 -213 443 0
-440 213 441 0
441 216 -442 0
441 -701 -216 0
-441 216 442 0
-441 701 -216 0
442 -701 706 0
442 679 -706 -728 0
442 -679 -701 0
-442 701 706 0
-442 -679 701 0
-442 679 -706 728 0
443 -679 -701 0
443 -701 706 0
443 679 -681 -706 0
-443 701 706 0
-443 679 681 -706 0
-443 -679 701 0
444 -701 -730 0
444 -701 769 0
444 -681 730 -769 0
-444 701 769 0
-444 701 -730 0
-444 681 730 -769 0
445 -725 206 0
445 702 -206 0
-445 -702 -206 0
-445 725 206 0
446 -93 -95 -219 0
-446 93 0
-446 95 0
-446 219 0
-447 704 276 0
-447 -206 -276 448 0
-447 704 206 0
447 -704 206 0
447 -704 276 0
447 -206 -276 -448 0
448 -704 -62 0
448 -704 219 0
448 62 -219 -449 0
-448 704 -62 0
-448 704 219 0
-448 62 -219 449 0
449 -285 -452 0
449 285 -450 0
-449 285 450 0
-449 -285 452 0
-450 306 451 0
-450 -306 -451 0
450 -306 451 0
450 306 -451 0
-451 -690 -771 0
-451 690 771 0
451 690 -771 0
451 -690 771 0
452 209 -453 0
452 -209 -457 0
-452 -209 457 0
-452 209 453 0
453 213 -454 0
453 -213 -455 0
-453 -213 455 0
-453 213 454 0
454 -704 17 0
454 -702 712 -17 0
454 702 -712 -17 0
-454 704 17 0
-454 702 712 -17 0
-454 -702 -712 -17 0
455 278 -456 0
455 -278 -450 0
-455 -278 450 0
-455 278 456 0
456 -704 279 0
456 -279 -318 451 0
456 -279 318 -451 0
-456 704 279 0
-456 -279 318 451 0
-456 -279 -318 -451 0
457 -269 -458 0
457 15 -335 269 0
457 -15 335 269 0
-457 -269 458 0
-457 -15 -335 269 0
-457 15 335 269 0
458 51 -459 0
458 -331 15 -51 0
458 331 -15 -51 0
-458 51 459 0
-458 331 15 -51 0
-458 -331 -15 -51 0
459 -37 -460 0
459 37 -461 0
-459 37 461 0
-459 -37 460 0
460 -674 -771 0
-460 674 0
-460 771 0
461 44 -462 0
461 -674 -44 0
461 -771 -44 0
-461 44 462 0
-461 674 771 -44 0
462 -15 -21 0
462 21 -463 0
-462 15 -21 0
-462 21 463 0
463 771 -292 0
463 292 -464 0
-463 -771 -292 0
-463 292 464 0
464 -667 -327 0
464 -704 327 295 0
464 -667 -295 0
-464 667 -327 0
-464 704 327 295 0
-464 667 -295 0
-465 706 -206 0
-465 630 206 0
465 -706 -206 0
465 -630 206 0
-466 708 0
466 -708 0
-467 710 207 0
-467 -206 -207 468 0
-467 710 206 0
467 -710 206 0
467 -710 207 0
467 -206 -207 -468 0
468 -710 -62 0
468 -710 -219 0
468 62 219 -469 0
-468 710 -219 0
-468 62 219 469 0
-468 710 -62 0
469 -710 -221 0
469 -710 210 0
469 221 -210 -470 0
-469 710 -221 0
-469 710 210 0
-469 221 -210 470 0
470 209 -471 0
470 -209 -475 0
-470 -209 475 0
-470 209 471 0
471 213 -472 0
471 -213 -474 0
-471 -213 474 0
-471 213 472 0
472 216 -473 0
472 -710 -216 0
-472 216 473 0
-472 710 -216 0
473 679 -710 0
473 -679 -706 -728 0
473 706 -710 0
-473 679 710 0
-473 706 710 0
-473 -679 -706 728 0
474 679 -710 0
474 706 -710 0
474 -679 -681 -706 0
-474 706 710 0
-474 679 710 0
-474 -679 681 -706 0
475 -710 730 0
475 -681 -730 -769 0
475 -710 769 0
-475 710 769 0
-475 710 730 0
-475 681 -730 -769 0
-476 711 206 0
-476 711 272 0
-476 -206 -272 477 0
476 -711 206 0
476 -711 272 0
476 -206 -272 -477 0
477 -711 -62 0
477 -711 -219 0
477 62 219 -478 0
-477 711 -219 0
-477 62 219 478 0
-477 711 -62 0
478 -711 -216 0
478 -641 216 -221 0
478 -711 221 0
-478 711 221 0
-478 711 -216 0
-478 641 216 -221 0
-479 712 -206 0
-479 625 206 0
479 -712 -206 0
479 -625 206 0
-480 713 206 0
-480 713 243 0
-480 -206 -243 481 0
480 -713 206 0
480 -713 243 0
480 -206 -243 -481 0
481 -713 62 0
481 -62 -484 0
481 -62 -482 0
-481 713 62 0
-481 -62 482 484 0
-482 748 483 0
-482 760 483 0
-482 -655 483 0
482 -483 0
482 655 -748 -760 0
-483 -760 0
-483 -655 680 0
-483 655 734 0
483 -655 -680 760 0
483 655 -734 760 0
484 -655 -696 -760 0
-484 655 0
-484 696 0
-484 760 0
-485 714 -206 0
-485 636 206 0
485 -714 -206 0
485 -636 206 0
486 -98 -221 0
-486 98 0
-486 221 0
-487 717 207 0
-487 -206 -207 488 0
-487 717 206 0
487 -717 206 0
487 -717 207 0
487 -206 -207 -488 0
488 -717 -62 0
488 -717 -219 0
488 62 219 -489 0
-488 717 -219 0
-488 62 219 489 0
-488 717 -62 0
489 -717 -221 0
489 -717 210 0
489 221 -210 -490 0
-489 717 -221 0
-489 717 210 0
-489 221 -210 490 0
490 209 -491 0
490 -209 -495 0
-490 -209 495 0
-490 209 491 0
491 213 -492 0
491 -213 -494 0
-491 -213 494 0
-491 213 492 0
492 216 -493 0
492 -717 -216 0
-492 216 493 0
-492 717 -216 0
493 679 -717 0
493 -706 -717 0
493 -679 -687 706 0
-493 -706 717 0
-493 679 717 0
-493 -679 687 706 0
494 679 -717 0
494 -679 706 -768 0
494 -706 -717 0
-494 -706 717 0
-494 679 717 0
-494 -679 706 768 0
495 -717 730 0
495 -730 -768 769 0
495 -717 -769 0
-495 717 -769 0
-495 717 730 0
-495 -730 768 769 0
496 -170 -174 -171 206 0
-496 -206 0
-496 170 0
-496 171 0
-496 174 0
-497 719 -206 0
-497 634 206 0
497 -719 -206 0
497 -634 206 0
-498 720 206 0
-498 720 243 0
-498 -206 -243 499 0
498 -720 206 0
498 -720 243 0
498 -206 -243 -499 0
499 -720 62 0
499 -62 -502 0
499 -62 -500 0
-499 720 62 0
-499 -62 500 502 0
-500 679 501 0
-500 -706 501 0
-500 717 501 0
500 -501 0
500 -679 706 -717 0
-501 -679 0
-501 706 708 0
-501 656 -706 0
501 679 706 -708 0
501 -656 679 -706 0
502 -668 -679 -706 0
-502 668 0
-502 679 0
-502 706 0
-503 721 207 0
-503 -206 -207 504 0
-503 721 206 0
503 -721 206 0
503 -721 207 0
503 -206 -207 -504 0
504 -721 -62 0
504 -721 -219 0
504 62 219 -505 0
-504 721 -219 0
-504 62 219 505 0
-504 721 -62 0
505 -721 -221 0
505 -721 210 0
505 221 -210 -506 0
-505 721 -221 0
-505 721 210 0
-505 221 -210 506 0
506 209 -507 0
506 -209 -511 0
-506 -209 511 0
-506 209 507 0
507 213 -508 0
507 -213 -510 0
-507 -213 510 0
-507 213 508 0
508 216 -509 0
508 -721 -216 0
-508 216 509 0
-508 721 -216 0
509 -679 -721 0
509 706 -721 0
509 679 -706 -764 0
-509 706 721 0
-509 679 -706 764 0
-509 -679 721 0
510 706 -721 0
510 679 -704 -706 0
510 -679 -721 0
-510 706 721 0
-510 -679 721 0
-510 679 704 -706 0
511 -721 -730 0
511 -721 769 0
511 -704 730 -769 0
-511 721 769 0
-511 721 -730 0
-511 704 730 -769 0
-512 723 -206 0
-512 -725 -758 206 0
-512 725 758 206 0
512 -723 -206 0
512 -725 758 206 0
512 725 -758 206 0
-513 725 206 0
-513 725 249 0
-513 -206 -249 514 0
513 -725 206 0
513 -725 249 0
513 -206 -249 -514 0
514 -725 -62 0
514 -725 -219 0
514 62 219 -515 0
-514 725 -219 0
-514 62 219 515 0
-514 725 -62 0
515 -221 -516 0
515 -725 221 0
-515 -221 516 0
-515 725 221 0
516 -702 17 0
516 -704 -743 -17 0
516 -702 743 0
-516 702 17 0
-516 704 -743 -17 0
-516 702 743 0
-517 728 206 0
-517 728 272 0
-517 -206 -272 518 0
517 -728 206 0
517 -728 272 0
517 -206 -272 -518 0
518 -728 -62 0
518 -728 -219 0
518 62 219 -519 0
-518 728 -219 0
-518 62 219 519 0
-518 728 -62 0
519 -728 -216 0
519 -637 216 -221 0
519 -728 221 0
-519 728 221 0
-519 728 -216 0
-519 637 216 -221 0
-520 730 -206 0
-520 629 206 0
520 -730 -206 0
520 -629 206 0
-521 732 276 0
-521 -206 -276 522 0
-521 732 206 0
521 -732 206 0
521 -732 276 0
521 -206 -276 -522 0
522 -732 -62 0
522 -732 219 0
522 62 -219 -523 0
-522 732 -62 0
-522 732 219 0
-522 62 -219 523 0
523 -285 -526 0
523 285 -524 0
-523 285 524 0
-523 -285 526 0
-524 305 525 0
-524 -305 -525 0
524 -305 525 0
524 305 -525 0
-525 -665 -667 0
-525 665 667 0
525 665 -667 0
525 -665 667 0
526 209 -527 0
526 -209 -532 0
-526 -209 532 0
-526 209 527 0
527 213 -528 0
527 -213 -530 0
-527 -213 530 0
-527 213 528 0
528 -732 17 0
528 -17 -312 529 0
528 -17 312 -529 0
-528 732 17 0
-528 -17 312 529 0
-528 -17 -312 -529 0
-529 -690 -723 0
-529 690 723 0
529 690 -723 0
529 -690 723 0
530 278 -531 0
530 -278 -524 0
-530 -278 524 0
-530 278 531 0
531 -732 279 0
531 -279 -317 525 0
531 -279 317 -525 0
-531 732 279 0
-531 -279 317 525 0
-531 -279 -317 -525 0
532 -269 -533 0
532 -13 269 334 0
532 13 269 -334 0
-532 -269 533 0
-532 -13 269 -334 0
-532 13 269 334 0
533 51 -534 0
533 -13 -51 330 0
533 13 -51 -330 0
-533 51 534 0
-533 -13 -51 -330 0
-533 13 -51 330 0
534 -37 -535 0
534 37 -536 0
-534 37 536 0
-534 -37 535 0
535 -667 -700 0
-535 667 0
-535 700 0
536 44 -537 0
536 -667 -44 0
536 -700 -44 0
-536 44 537 0
-536 667 700 -44 0
537 -13 -21 0
537 21 -538 0
-537 13 -21 0
-537 21 538 0
538 667 -292 0
538 292 -539 0
-538 -667 -292 0
-538 292 539 0
539 -692 -327 0
539 -732 327 295 0
539 -692 -295 0
-539 692 -327 0
-539 732 327 295 0
-539 692 -295 0
540 655 760 -17 -210 0
-540 -655 0
-540 210 0
-540 17 0
-540 -760 0
-541 734 0
541 -734 0
-542 735 206 0
-542 735 243 0
-542 -206 -243 543 0
542 -735 206 0
542 -735 243 0
542 -206 -243 -543 0
543 -735 62 0
543 -62 -546 0
543 -62 -544 0
-543 735 62 0
-543 -62 544 546 0
-544 645 545 0
-544 -655 545 0
-544 760 545 0
544 -545 0
544 -645 655 -760 0
-545 -760 0
-545 -655 701 0
-545 655 762 0
545 655 760 -762 0
545 -655 -701 760 0
546 -655 -710 -760 0
-546 655 0
-546 710 0
-546 760 0
547 -743 -221 0
-547 743 0
-547 221 0
-548 738 207 0
-548 -206 -207 549 0
-548 738 206 0
548 -738 206 0
548 -738 207 0
548 -206 -207 -549 0
549 -738 -62 0
549 -738 -219 0
549 62 219 -550 0
-549 738 -219 0
-549 62 219 550 0
-549 738 -62 0
550 -738 -221 0
550 -738 210 0
550 221 -210 -551 0
-550 738 -221 0
-550 738 210 0
-550 221 -210 551 0
551 209 -552 0
551 -209 -556 0
-551 -209 556 0
-551 209 552 0
552 213 -553 0
552 -213 -555 0
-552 -213 555 0
-552 213 553 0
553 216 -554 0
553 -738 -216 0
-553 216 554 0
-553 738 -216 0
554 679 -738 0
554 -679 -706 -764 0
554 706 -738 0
-554 679 738 0
-554 706 738 0
-554 -679 -706 764 0
555 679 -738 0
555 706 -738 0
555 -679 -704 -706 0
-555 706 738 0
-555 679 738 0
-555 -679 704 -706 0
556 730 -738 0
556 -738 769 0
556 -704 -730 -769 0
-556 738 769 0
-556 730 738 0
-556 704 -730 -769 0
557 -62 -64 -66 -83 0
-557 83 0
-557 62 0
-557 66 0
-557 64 0
558 -743 206 0
558 -743 298 0
558 -206 -298 -559 0
-558 743 206 0
-558 743 298 0
-558 -206 -298 559 0
559 -743 -62 0
559 -743 219 0
559 62 -219 -560 0
-559 743 -62 0
-559 743 219 0
-559 62 -219 560 0
560 -743 -209 0
560 -743 285 0
560 209 -285 -561 0
-560 743 -209 0
-560 743 285 0
-560 209 -285 561 0
561 -743 -213 0
561 -743 17 0
561 -17 18 213 0
-561 743 -213 0
-561 -17 -18 213 0
-561 743 17 0
562 -53 -62 -563 0
-562 53 0
-562 62 0
-562 563 0
-563 706 209 0
-563 769 -209 0
563 -769 -209 0
563 -706 209 0
-564 748 207 0
-564 -206 -207 565 0
-564 748 206 0
564 -748 206 0
564 -748 207 0
564 -206 -207 -565 0
565 -748 -62 0
565 -748 -219 0
565 62 219 -566 0
-565 748 -219 0
-565 62 219 566 0
-565 748 -62 0
566 -748 -221 0
566 -748 210 0
566 221 -210 -567 0
-566 748 -221 0
-566 748 210 0
-566 221 -210 567 0
567 209 -568 0
567 -209 -572 0
-567 -209 572 0
-567 209 568 0
568 213 -569 0
568 -213 -571 0
-568 -213 571 0
-568 213 569 0
569 216 -570 0
569 -748 -216 0
-569 216 570 0
-569 748 -216 0
570 679 -748 0
570 -706 -748 0
570 -679 706 -711 0
-570 -706 748 0
-570 679 748 0
-570 -679 706 711 0
571 679 -748 0
571 -706 -748 0
571 -663 -679 706 0
-571 679 748 0
-571 -706 748 0
-571 663 -679 706 0
572 730 -748 0
572 -748 -769 0
572 -663 -730 769 0
-572 748 -769 0
-572 730 748 0
-572 663 -730 769 0
-573 752 207 0
-573 -206 -207 574 0
-573 752 206 0
573 -752 206 0
573 -752 207 0
573 -206 -207 -574 0
574 -752 -62 0
574 -752 -219 0
574 62 219 -575 0
-574 752 -219 0
-574 62 219 575 0
-574 752 -62 0
575 -752 -221 0
575 -752 210 0
575 221 -210 -576 0
-575 752 -221 0
-575 752 210 0
-575 221 -210 576 0
576 209 -577 0
576 -209 -581 0
-576 -209 581 0
-576 209 577 0
577 213 -578 0
577 -213 -580 0
-577 -213 580 0
-577 213 578 0
578 216 -579 0
578 -752 -216 0
-578 216 579 0
-578 752 -216 0
579 706 -752 0
579 -679 -752 0
579 -661 679 -706 0
-579 706 752 0
-579 -679 752 0
-579 661 679 -706 0
580 706 -752 0
580 679 -706 -732 0
580 -679 -752 0
-580 706 752 0
-580 -679 752 0
-580 679 -706 732 0
581 -730 -752 0
581 -752 769 0
581 730 -732 -769 0
-581 752 769 0
-581 730 732 -769 0
-581 -730 752 0
-582 753 206 0
-582 753 243 0
-582 -206 -243 583 0
582 -753 206 0
582 -753 243 0
582 -206 -243 -583 0
583 -753 62 0
583 -62 -586 0
583 -62 -584 0
-583 753 62 0
-583 -62 584 586 0
-584 679 585 0
-584 -706 585 0
-584 748 585 0
584 -585 0
584 -679 706 -748 0
-585 -679 0
-585 706 734 0
-585 680 -706 0
585 679 -680 -706 0
585 679 706 -734 0
586 -679 -696 -706 0
-586 679 0
-586 696 0
-586 706 0
587 -102 -210 0
-587 102 0
-587 210 0
-588 756 -206 0
-588 -653 206 -589 0
-588 653 206 589 0
588 -756 -206 0
588 -653 206 589 0
588 653 206 -589 0
589 -725 -758 0
-589 725 0
-589 758 0
-590 758 206 0
-590 758 249 0
-590 -206 -249 591 0
590 -758 206 0
590 -758 249 0
590 -206 -249 -591 0
591 -758 -62 0
591 -758 -219 0
591 62 219 -592 0
-591 758 -219 0
-591 62 219 592 0
-591 758 -62 0
592 -221 -593 0
592 -758 221 0
-592 -221 593 0
-592 758 221 0
593 -723 17 0
593 -732 -743 -17 0
593 -723 743 0
-593 723 17 0
-593 732 -743 -17 0
-593 723 743 0
-594 759 210 0
594 -759 0
594 -210 0
-595 760 -206 0
-595 633 206 0
595 -760 -206 0
595 -633 206 0
-596 762 0
596 -762 0
-597 764 206 0
-597 764 272 0
-597 -206 -272 598 0
597 -764 206 0
597 -764 272 0
597 -206 -272 -598 0
598 -764 -62 0
598 -764 -219 0
598 62 219 -599 0
-598 764 -219 0
-598 62 219 599 0
-598 764 -62 0
599 -764 -216 0
599 -638 216 -221 0
599 -764 221 0
-599 764 221 0
-599 764 -216 0
-599 638 216 -221 0
-600 768 276 0
-600 -206 -276 601 0
-600 768 206 0
600 -768 206 0
600 -768 276 0
600 -206 -276 -601 0
601 -768 -62 0
601 -768 219 0
601 62 -219 -602 0
-601 768 -62 0
-601 768 219 0
-601 62 -219 602 0
602 -285 -605 0
602 285 -603 0
-602 285 603 0
-602 -285 605 0
-603 304 604 0
-603 -304 -604 0
603 -304 604 0
603 304 -604 0
-604 -692 -769 0
-604 692 769 0
604 692 -769 0
604 -692 769 0
605 209 -606 0
605 -209 -611 0
-605 -209 611 0
-605 209 606 0
606 213 -607 0
606 -213 -609 0
-606 -213 609 0
-606 213 607 0
607 -768 17 0
607 -17 -311 608 0
607 -17 311 -608 0
-607 768 17 0
-607 -17 311 608 0
-607 -17 -311 -608 0
-608 -665 -756 0
-608 665 756 0
608 665 -756 0
608 -665 756 0
609 278 -610 0
609 -278 -603 0
-609 -278 603 0
-609 278 610 0
610 -768 279 0
610 -279 -316 604 0
610 -279 316 -604 0
-610 768 279 0
-610 -279 316 604 0
-610 -279 -316 -604 0
611 -269 -612 0
611 -11 269 333 0
611 11 269 -333 0
-611 -269 612 0
-611 -11 269 -333 0
-611 11 269 333 0
612 51 -613 0
612 -11 -51 329 0
612 11 -51 -329 0
-612 51 613 0
-612 -11 -51 -329 0
-612 11 -51 329 0
613 -37 -614 0
613 37 -615 0
-613 37 615 0
-613 -37 614 0
614 -692 -720 0
-614 692 0
-614 720 0
615 44 -616 0
615 -692 -44 0
615 -720 -44 0
-615 44 616 0
-615 692 720 -44 0
616 -11 -21 0
616 21 -617 0
-616 11 -21 0
-616 21 617 0
617 692 -292 0
617 292 -618 0
-617 -692 -292 0
-617 292 618 0
618 -713 -327 0
618 -768 327 295 0
618 -713 -295 0
-618 713 -327 0
-618 768 327 295 0
-618 713 -295 0
-619 769 -206 0
-619 628 206 0
619 -769 -206 0
619 -628 206 0
-620 771 206 0
-620 771 243 0
-620 -206 -243 621 0
620 -771 206 0
620 -771 243 0
620 -206 -243 -621 0
621 -771 62 0
621 -62 -624 0
621 -62 -622 0
-621 771 62 0
-621 -62 622 624 0
-622 670 623 0
-622 760 623 0
-622 -655 623 0
622 -623 0
622 655 -670 -760 0
-623 -760 0
-623 -655 721 0
-623 655 659 0
623 655 -659 760 0
623 -655 -721 760 0
624 -655 -738 -760 0
-624 655 0
-624 738 0
-624 760 0
-772 0
2 0
3 0
5 0
7 0
16 0
20 0
25 0
30 0
36 0
43 0
50 0
52 0
55 0
61 0
68 0
76 0
772 0
77 0
81 0
82 0
85 0
89 0
92 0
97 0
100 0
101 0
104 0
107 0
772 0
111 0
772 0
168 0
200 0
205 0
228 0
232 0
233 0
66 0
232 0
242 0
53 0
64 0
232 0
232 0
248 0
253 0
254 0
255 0
264 0
266 0
270 0
228 0
271 0
66 0
275 0
53 0
336 0
64 0
337 0
342 0
266 0
351 0
360 0
228 0
361 0
362 0
66 0
361 0
361 0
53 0
367 0
368 0
377 0
361 0
391 0
395 0
64 0
397 0
398 0
266 0
228 0
401 0
402 0
403 0
402 0
408 0
402 0
409 0
418 0
402 0
427 0
431 0
436 0
-445 0
446 0
447 0
446 0
465 0
446 0
466 0
446 0
467 0
476 0
479 0
480 0
485 0
486 0
486 0
487 0
496 0
497 0
498 0
503 0
486 0
512 0
496 0
513 0
486 0
496 0
517 0
496 0
520 0
496 0
521 0
540 0
541 0
542 0
547 0
547 0
548 0
557 0
547 0
557 0
547 0
558 0
562 0
557 0
266 0
562 0
564 0
228 0
562 0
557 0
573 0
582 0
587 0
562 0
588 0
66 0
590 0
-594 0
595 0
587 0
596 0
53 0
597 0
587 0
64 0
587 0
600 0
619 0
266 0
620 0

