c Result of efficient AIG-to-CNF conversion using package CNF
p cnf 2181 7675
2 -2179 -30 0
2 -2179 -3 -24 0
-2 2179 0
-2 3 30 0
-2 24 30 0
3 -1871 -1913 -4 -5 0
-3 5 0
-3 1871 0
-3 1913 0
-3 4 0
-4 1879 1881 0
4 -1879 0
4 -1881 0
5 1873 -12 0
5 1873 1980 -6 0
-5 -1873 0
-5 -1980 12 0
-5 6 12 0
6 1872 -7 0
-6 -1872 0
-6 7 0
7 1931 -1932 0
7 1931 -1933 -8 0
-7 -1931 0
-7 1932 8 0
-7 1932 1933 0
-8 1934 1935 0
-8 1934 1936 9 0
8 -1934 0
8 -1935 -1936 0
8 -1935 -9 0
-9 1937 1938 0
-9 1937 1939 10 0
9 -1937 0
9 -1938 -1939 0
9 -1938 -10 0
-10 1940 1941 1942 11 0
10 -11 0
10 -1942 0
10 -1940 0
10 -1941 0
-11 1943 1944 0
11 -1943 0
11 -1944 0
-12 1872 18 0
-12 1931 -13 18 0
12 -18 0
12 -1872 13 0
12 -1872 -1931 0
13 -1932 -1933 0
13 -1932 -14 0
13 -1932 -1934 0
-13 1932 0
-13 1933 1934 14 0
14 -1935 -1936 -15 0
14 -1935 -1936 -1937 0
-14 1935 0
-14 1936 0
-14 1937 15 0
-15 1938 1939 1940 16 0
15 -16 0
15 -1940 0
15 -1938 0
15 -1939 0
16 -1941 -1942 0
16 -1941 -17 0
-16 1941 0
-16 1942 17 0
17 -1943 -1944 -1946 0
17 -1943 -1944 -1945 0
-17 1943 0
-17 1944 0
-17 1945 1946 0
18 1872 -1980 -7 -19 0
-18 -1872 0
-18 19 0
-18 7 0
-18 1980 0
19 1947 -1948 0
19 1947 -20 0
19 1947 -1949 0
-19 -1947 0
-19 1948 1949 20 0
-20 1950 1951 0
-20 1950 1952 21 0
20 -1950 0
20 -1951 -1952 0
20 -1951 -21 0
-21 1953 1954 1955 22 0
21 -22 0
21 -1955 0
21 -1953 0
21 -1954 0
22 -1956 -1957 -23 0
22 -1956 -1957 -1958 0
-22 1956 0
-22 1957 0
-22 1958 23 0
-23 1959 1961 0
-23 1959 1960 0
-23 1959 1962 0
23 -1959 0
23 -1960 -1961 -1962 0
24 -1913 1979 -4 -25 0
-24 25 0
-24 4 0
-24 1913 0
-24 -1979 0
25 -1871 1872 -1873 -26 0
-25 26 0
-25 1871 0
-25 1873 0
-25 -1872 0
26 1931 -1932 -1933 0
26 1931 -1932 -27 0
-26 -1931 0
-26 1932 0
-26 1933 27 0
27 -1934 -1935 0
27 -1934 -28 0
27 -1934 -1936 0
-27 1934 0
-27 1935 1936 28 0
-28 1937 1938 1939 29 0
28 -29 0
28 -1939 0
28 -1937 0
28 -1938 0
-29 1940 1941 11 0
-29 1940 1941 1942 0
29 -1940 0
29 -1941 0
29 -1942 -11 0
-30 31 50 0
-30 24 49 50 0
30 -50 0
30 -31 -49 0
30 -24 -31 0
31 -1873 -1913 -4 -32 0
-31 1913 0
-31 32 0
-31 1873 0
-31 4 0
-32 -1980 39 44 0
-32 1980 33 39 0
32 -39 0
32 1980 -33 0
32 -1980 -44 0
33 1931 -1932 -38 0
33 1931 -34 -38 0
-33 -1931 0
-33 38 0
-33 1932 34 0
-34 1933 1934 35 0
-34 1933 1934 1935 0
34 -1933 0
34 -1934 0
34 -1935 -35 0
-35 1936 1937 36 0
-35 1936 1937 1938 0
35 -1936 0
35 -1937 0
35 -1938 -36 0
36 -1939 -1940 -1941 -37 0
-36 37 0
-36 1939 0
-36 1941 0
-36 1940 0
37 -1942 -1943 0
37 -1942 -1944 -1945 0
-37 1942 0
-37 1943 1945 0
-37 1943 1944 0
38 1871 -1872 0
-38 -1871 0
-38 1872 0
39 -1871 1872 -1931 0
39 -1871 1872 40 0
-39 1871 0
-39 -1872 0
-39 1931 -40 0
-40 1932 1933 0
-40 1932 1934 41 0
40 -1932 0
40 -1933 -1934 0
40 -1933 -41 0
-41 1935 1936 0
-41 1935 1937 42 0
41 -1935 0
41 -1936 -1937 0
41 -1936 -42 0
42 -1938 -1939 0
42 -1938 -43 0
42 -1938 -1940 0
-42 1938 0
-42 1939 1940 43 0
-43 1941 17 0
-43 1941 1942 0
43 -1941 0
43 -1942 -17 0
44 1947 -1948 -38 0
44 1947 -38 -45 0
-44 -1947 0
-44 38 0
-44 1948 45 0
-45 1949 1950 46 0
-45 1949 1950 1951 0
45 -1949 0
45 -1950 0
45 -1951 -46 0
-46 1952 1953 47 0
-46 1952 1953 1954 0
46 -1952 0
46 -1953 0
46 -1954 -47 0
47 -1955 -1956 -1957 -48 0
-47 48 0
-47 1955 0
-47 1957 0
-47 1956 0
48 -1958 -1959 0
48 -1958 -1960 -1961 0
-48 1958 0
-48 1959 1961 0
-48 1959 1960 0
49 1979 -3 0
-49 -1979 0
-49 3 0
-50 51 60 0
-50 24 49 60 0
50 -60 0
50 -49 -51 0
50 -24 -51 0
51 -1913 -4 52 0
-51 1913 0
-51 -52 0
-51 4 0
52 -53 59 0
52 -1980 54 0
52 -1980 -53 0
-52 53 -54 0
-52 1980 -59 0
-52 1980 53 0
-53 1871 1873 0
-53 1871 1872 0
53 -1871 0
53 -1872 -1873 0
54 1947 -1948 0
54 1947 -55 0
54 1947 -1949 0
-54 -1947 0
-54 1948 1949 55 0
-55 1950 1951 1952 56 0
55 -56 0
55 -1952 0
55 -1950 0
55 -1951 0
56 -1953 -1954 0
56 -1953 -57 0
56 -1953 -1955 0
-56 1953 0
-56 1954 1955 57 0
57 -1956 -1957 0
57 -1956 -1958 -58 0
-57 1956 0
-57 1957 58 0
-57 1957 1958 0
58 -1959 -1960 0
58 -1959 -1962 0
58 -1959 -1961 0
-58 1959 0
-58 1960 1961 1962 0
59 -1871 1872 1873 19 0
-59 -19 0
-59 -1873 0
-59 1871 0
-59 -1872 0
-60 61 62 0
-60 51 62 0
60 -62 0
60 -51 -61 0
61 1979 -31 0
-61 -1979 0
-61 31 0
-62 63 75 0
-62 24 49 75 0
62 -75 0
62 -49 -63 0
62 -24 -63 0
63 -1913 66 0
63 -1913 64 -65 0
-63 1913 0
-63 -64 -66 0
-63 65 -66 0
64 -1985 1986 -1987 0
-64 1985 0
-64 -1986 0
-64 1987 0
65 -1979 -1981 0
-65 1979 0
-65 1981 0
66 -1979 0
66 1980 -67 0
66 -67 74 0
-66 1979 67 0
-66 1979 -1980 -74 0
67 -4 68 0
67 1980 -4 0
67 -1871 -4 0
-67 4 0
-67 1871 -1980 -68 0
68 -1872 -1873 69 0
68 -1872 -1873 -1947 0
-68 1872 0
-68 1873 0
-68 1947 -69 0
-69 1948 1949 1950 70 0
69 -70 0
69 -1950 0
69 -1948 0
69 -1949 0
-70 1951 1952 1953 71 0
70 -71 0
70 -1953 0
70 -1951 0
70 -1952 0
71 -1954 -1955 -72 0
71 -1954 -1955 -1956 0
-71 1954 0
-71 1955 0
-71 1956 72 0
-72 1957 1958 0
-72 1957 1959 73 0
72 -1957 0
72 -1958 -1959 0
72 -1958 -73 0
-73 1960 1961 1962 0
73 -1960 0
73 -1962 0
73 -1961 0
74 -4 53 54 0
-74 4 0
-74 -53 0
-74 -54 0
-75 63 77 0
-75 61 76 77 0
75 -77 0
75 -63 -76 0
75 -61 -63 0
76 1979 -51 0
-76 -1979 0
-76 51 0
77 -24 -78 0
77 -78 -80 0
77 -49 -78 0
-77 78 0
-77 24 49 80 0
78 -1913 -1979 -79 0
78 -1913 -1979 1981 0
-78 1913 0
-78 1979 0
-78 -1981 79 0
79 -1985 1986 -1987 0
-79 1985 0
-79 -1986 0
-79 1987 0
-80 61 63 76 0
80 -61 0
80 -76 0
80 -63 0
81 -1910 -2179 -104 0
81 -1910 -2179 -82 0
-81 1910 0
-81 2179 0
-81 82 104 0
82 -83 -96 0
-82 83 0
-82 96 0
83 -84 89 0
-83 84 0
-83 -89 0
-84 -86 87 0
-84 85 -88 0
-84 -86 -88 0
-84 85 87 0
84 -85 86 0
84 -87 88 0
85 -2012 2013 2014 0
-85 2012 0
-85 -2014 0
-85 -2013 0
-86 2015 2016 2017 0
86 -2015 0
86 -2017 0
86 -2016 0
87 -2031 2032 2033 0
-87 2031 0
-87 -2033 0
-87 -2032 0
-88 2034 2035 2036 0
88 -2034 0
88 -2036 0
88 -2035 0
-89 -92 93 0
-89 90 -95 0
-89 -92 -95 0
-89 90 93 0
89 -90 92 0
89 -93 95 0
90 2001 -91 0
-90 -2001 0
-90 91 0
91 -1999 2000 0
-91 1999 0
-91 -2000 0
-92 2002 2003 2004 0
92 -2002 0
92 -2004 0
92 -2003 0
93 2020 -94 0
-93 -2020 0
-93 94 0
94 -2018 2019 0
-94 2018 0
-94 -2019 0
-95 2021 2022 2023 0
95 -2021 0
95 -2023 0
95 -2022 0
96 1883 -97 0
-96 -1883 0
-96 97 0
97 -98 101 0
-97 98 0
-97 -101 0
-98 99 100 0
-98 -88 100 0
-98 2033 100 0
98 -100 0
98 -2033 -99 88 0
99 -2031 2032 0
-99 2031 0
-99 -2032 0
100 -2012 2013 -2014 86 0
-100 -86 0
-100 2012 0
-100 2014 0
-100 -2013 0
-101 -95 102 0
-101 -92 103 0
-101 102 103 0
-101 -92 -95 0
101 92 -102 0
101 95 -103 0
102 -2001 -91 0
-102 2001 0
-102 91 0
103 -2020 -94 0
-103 2020 0
-103 94 0
-104 96 105 117 0
-104 105 111 117 0
104 -117 0
104 -105 0
104 -96 -111 0
105 -106 -110 0
-105 106 0
-105 110 0
106 1963 98 -101 0
106 98 -101 -107 0
-106 -98 0
-106 101 0
-106 -1963 107 0
-107 1964 108 0
-107 1964 1966 0
-107 1964 1965 0
107 -1964 0
107 -1965 -1966 -108 0
-108 1967 1968 1969 109 0
108 -109 0
108 -1969 0
108 -1967 0
108 -1968 0
109 -1970 -1971 -1972 -1973 0
-109 1973 0
-109 1970 0
-109 1972 0
-109 1971 0
110 1883 -83 0
-110 -1883 0
-110 83 0
111 -1963 84 -89 0
111 84 -89 112 0
-111 -84 0
-111 89 0
-111 1963 -112 0
112 -1964 -1965 0
112 -1964 -113 0
112 -1964 -1966 0
-112 1964 0
-112 1965 1966 113 0
113 -1967 -1968 -1969 -114 0
-113 1969 0
-113 114 0
-113 1967 0
-113 1968 0
-114 1970 115 0
114 -1970 0
114 -115 0
-115 1971 1972 116 0
115 -1971 0
115 -116 0
115 -1972 0
116 -1973 -1974 0
116 -1973 -1975 0
-116 1973 0
-116 1974 1975 0
-117 111 118 0
-117 106 118 0
117 -118 0
117 -106 -111 0
-118 119 128 0
-118 96 110 128 0
118 -128 0
118 -110 -119 0
118 -96 -119 0
119 106 -120 121 -122 0
-119 -106 0
-119 122 0
-119 -121 0
-119 120 0
120 1883 -1884 0
-120 -1883 0
-120 1884 0
-121 83 97 0
121 -83 0
121 -97 0
-122 120 123 0
-122 1899 -1900 123 0
122 -123 0
122 -1899 -120 0
122 1900 -120 0
-123 -125 126 0
-123 124 -127 0
-123 124 126 0
-123 -125 -127 0
123 -124 125 0
123 -126 127 0
124 2005 -91 0
-124 -2005 0
-124 91 0
125 2011 -2012 2013 2014 0
-125 2012 0
-125 -2014 0
-125 -2011 0
-125 -2013 0
126 2024 -94 0
-126 -2024 0
-126 94 0
127 2030 -2031 2032 2033 0
-127 2031 0
-127 -2033 0
-127 -2030 0
-127 -2032 0
-128 96 129 133 0
-128 129 130 133 0
128 -133 0
128 -129 0
128 -96 -130 0
129 -111 -119 0
-129 111 0
-129 119 0
130 111 121 131 -132 0
-130 -111 0
-130 132 0
-130 -131 0
-130 -121 0
-131 1883 1884 0
131 -1883 0
131 -1884 0
-132 123 -131 0
-132 1899 1900 123 0
132 -123 0
132 -1900 131 0
132 -1899 131 0
-133 130 134 0
-133 106 110 134 0
133 -134 0
133 -110 -130 0
133 -106 -130 0
-134 135 0
134 -135 0
135 -1883 -136 0
-135 1883 0
-135 136 0
-136 106 111 119 130 0
136 -130 0
136 -119 0
136 -106 0
136 -111 0
137 -1910 -2179 -120 -138 0
-137 120 0
-137 138 0
-137 1910 0
-137 2179 0
-138 139 -317 0
-138 139 -320 0
-138 139 318 0
138 -139 0
138 317 -318 320 0
139 -189 190 0
139 -140 -190 0
-139 189 190 0
-139 140 -190 0
140 -2101 -141 0
-140 2101 0
-140 141 0
-141 -1979 -2101 0
-141 1979 147 0
-141 1979 142 0
141 -1979 2101 0
141 1979 -142 -147 0
-142 1979 143 0
142 -1979 0
142 -143 0
-143 1995 1996 1997 144 0
143 -144 0
143 -1997 0
143 -1995 0
143 -1996 0
-144 1992 1993 1994 145 0
144 -145 0
144 -1994 0
144 -1992 0
144 -1993 0
-145 1989 1990 1991 146 0
145 -146 0
145 -1991 0
145 -1989 0
145 -1990 0
-146 1980 1988 0
146 -1980 0
146 -1988 0
-147 -2056 -148 0
-147 148 152 0
147 2056 -148 0
147 148 -152 0
148 1979 -143 149 0
148 1979 1997 -143 0
-148 -1979 0
-148 143 0
-148 -1997 -149 0
149 -1994 -1995 -1996 -150 0
-149 150 0
-149 1994 0
-149 1996 0
-149 1995 0
150 -1991 -1992 -1993 -151 0
-150 151 0
-150 1991 0
-150 1993 0
-150 1992 0
151 -1980 -1988 -1989 -1990 0
-151 1990 0
-151 1980 0
-151 1989 0
-151 1988 0
-152 -153 -167 0
-152 153 165 185 0
152 153 -165 0
152 -153 167 0
152 153 -185 0
153 -1980 -154 160 0
-153 1980 0
-153 154 0
-153 -160 0
154 1979 -155 0
-154 -1979 0
-154 155 0
155 -2056 2057 2058 156 0
-155 -156 0
-155 -2058 0
-155 2056 0
-155 -2057 0
-156 2059 2060 2061 157 0
156 -157 0
156 -2061 0
156 -2059 0
156 -2060 0
-157 2062 2063 2064 158 0
157 -158 0
157 -2064 0
157 -2062 0
157 -2063 0
-158 2065 2066 2067 159 0
158 -159 0
158 -2067 0
158 -2065 0
158 -2066 0
-159 2068 2069 2070 2071 0
159 -2071 0
159 -2070 0
159 -2068 0
159 -2069 0
160 1947 -1948 0
160 1947 -161 0
160 1947 -1949 0
-160 -1947 0
-160 1948 1949 161 0
-161 1950 1951 162 0
-161 1950 1951 1952 0
161 -1950 0
161 -1951 0
161 -1952 -162 0
162 -1953 -1954 0
162 -1953 -163 0
162 -1953 -1955 0
-162 1953 0
-162 1954 1955 163 0
163 -1956 -1957 -1958 -164 0
-163 1958 0
-163 164 0
-163 1956 0
-163 1957 0
-164 1959 1960 1961 0
164 -1959 0
164 -1961 0
164 -1960 0
165 2056 -166 0
-165 -2056 0
-165 166 0
166 -1980 -154 -160 0
-166 1980 0
-166 154 0
-166 160 0
167 168 -169 0
167 1947 -2101 169 0
-167 2101 169 0
-167 -168 -169 0
-167 -1947 169 0
-168 -1947 -2101 0
-168 1947 2101 0
168 1947 -2101 0
168 -1947 2101 0
-169 1947 -2101 0
-169 -2101 170 0
-169 1947 170 0
169 2101 -170 0
169 -1947 2101 0
169 -1947 -170 0
-170 1948 -2102 0
-170 -2102 171 0
-170 1948 171 0
170 2102 -171 0
170 -1948 2102 0
170 -1948 -171 0
-171 1949 -2103 0
-171 -2103 172 0
-171 1949 172 0
171 2103 -172 0
171 -1949 2103 0
171 -1949 -172 0
-172 1950 -2104 0
-172 -2104 173 0
-172 1950 173 0
172 2104 -173 0
172 -1950 2104 0
172 -1950 -173 0
-173 1951 -2105 0
-173 -2105 174 0
-173 1951 174 0
173 2105 -174 0
173 -1951 2105 0
173 -1951 -174 0
-174 1952 -2106 0
-174 -2106 175 0
-174 1952 175 0
174 2106 -175 0
174 -1952 2106 0
174 -1952 -175 0
-175 1953 -2107 0
-175 -2107 176 0
-175 1953 176 0
175 2107 -176 0
175 -1953 2107 0
175 -1953 -176 0
-176 1954 -2108 0
-176 -2108 177 0
-176 1954 177 0
176 2108 -177 0
176 -1954 2108 0
176 -1954 -177 0
-177 1955 -2109 0
-177 -2109 178 0
-177 1955 178 0
177 2109 -178 0
177 -1955 2109 0
177 -1955 -178 0
-178 1956 -2110 0
-178 -2110 179 0
-178 1956 179 0
178 2110 -179 0
178 -1956 2110 0
178 -1956 -179 0
-179 1957 -2111 0
-179 -2111 180 0
-179 1957 180 0
179 2111 -180 0
179 -1957 2111 0
179 -1957 -180 0
-180 1958 -2112 0
-180 -2112 181 0
-180 1958 181 0
180 2112 -181 0
180 -1958 2112 0
180 -1958 -181 0
-181 1959 -2113 0
-181 -2113 182 0
-181 1959 182 0
181 2113 -182 0
181 -1959 2113 0
181 -1959 -182 0
-182 1960 -2114 0
-182 -2114 183 0
-182 1960 183 0
182 2114 -183 0
182 -1960 2114 0
182 -1960 -183 0
-183 -2115 184 0
-183 1961 184 0
-183 1961 -2115 0
183 -1961 -184 0
183 -1961 2115 0
183 2115 -184 0
184 -1962 2116 0
-184 1962 0
-184 -2116 0
185 166 -186 0
185 166 -188 167 0
-185 -166 0
-185 186 -167 0
-185 186 188 0
186 -1980 -160 187 0
-186 1980 0
-186 160 0
-186 -187 0
-187 1979 155 0
187 -1979 0
187 -155 0
188 -1980 160 187 0
-188 1980 0
-188 -160 0
-188 -187 0
189 -2101 141 0
189 2101 -141 0
-189 2101 141 0
-189 -2101 -141 0
190 -191 192 0
-190 191 0
-190 -192 0
-191 2101 141 0
191 -2101 0
191 -141 0
192 193 -189 0
-192 -193 0
-192 189 0
193 -2101 199 0
193 -2101 -194 0
193 -194 199 0
-193 194 -199 0
-193 2101 -199 0
-193 2101 194 0
-194 -1979 -2101 0
-194 1979 195 0
-194 1979 142 0
194 -1979 2101 0
194 1979 -142 -195 0
-195 -2056 -148 0
-195 148 196 0
195 2056 -148 0
195 148 -196 0
-196 -153 -197 0
-196 153 165 198 0
196 153 -165 0
196 -153 197 0
196 153 -198 0
197 -170 168 0
197 170 -168 0
-197 170 168 0
-197 -170 -168 0
198 166 -186 0
198 166 -188 197 0
-198 -166 0
-198 186 -197 0
-198 186 188 0
-199 -2102 207 0
-199 -2102 200 0
-199 200 207 0
199 -200 -207 0
199 2102 -207 0
199 2102 -200 0
200 -1979 -2102 0
200 1979 -142 201 0
-200 -1979 2102 0
-200 1979 -201 0
-200 1979 142 0
-201 -2057 -148 0
-201 148 202 0
201 2057 -148 0
201 148 -202 0
-202 -153 -203 0
-202 153 205 0
202 153 -205 0
202 -153 203 0
203 -171 204 0
203 171 -204 0
-203 171 204 0
-203 -171 -204 0
-204 -1948 -2102 0
-204 1948 2102 0
204 1948 -2102 0
204 -1948 2102 0
-205 166 206 0
-205 -2057 -166 0
-205 166 -186 0
205 2057 -166 0
205 166 186 -206 0
206 -188 203 0
-206 188 0
-206 -203 0
-207 -2103 215 0
-207 -2103 208 0
-207 208 215 0
207 -208 -215 0
207 2103 -215 0
207 2103 -208 0
208 -1979 -2103 0
208 1979 -142 209 0
-208 -1979 2103 0
-208 1979 -209 0
-208 1979 142 0
-209 -2058 -148 0
-209 148 210 0
209 2058 -148 0
209 148 -210 0
-210 -153 -211 0
-210 153 213 0
210 153 -213 0
210 -153 211 0
211 -172 212 0
211 172 -212 0
-211 172 212 0
-211 -172 -212 0
-212 -1949 -2103 0
-212 1949 2103 0
212 1949 -2103 0
212 -1949 2103 0
-213 166 214 0
-213 -2058 -166 0
-213 166 -186 0
213 2058 -166 0
213 166 186 -214 0
214 -188 211 0
-214 188 0
-214 -211 0
-215 -2104 223 0
-215 -2104 216 0
-215 216 223 0
215 -216 -223 0
215 2104 -223 0
215 2104 -216 0
216 -1979 -2104 0
216 1979 -142 217 0
-216 -1979 2104 0
-216 1979 -217 0
-216 1979 142 0
-217 -2059 -148 0
-217 148 218 0
217 2059 -148 0
217 148 -218 0
-218 -153 -219 0
-218 153 221 0
218 153 -221 0
218 -153 219 0
219 -173 220 0
219 173 -220 0
-219 173 220 0
-219 -173 -220 0
-220 -1950 -2104 0
-220 1950 2104 0
220 1950 -2104 0
220 -1950 2104 0
-221 166 222 0
-221 -2059 -166 0
-221 166 -186 0
221 2059 -166 0
221 166 186 -222 0
222 -188 219 0
-222 188 0
-222 -219 0
-223 -2105 231 0
-223 -2105 224 0
-223 224 231 0
223 -224 -231 0
223 2105 -231 0
223 2105 -224 0
224 -1979 -2105 0
224 1979 -142 225 0
-224 -1979 2105 0
-224 1979 -225 0
-224 1979 142 0
-225 -2060 -148 0
-225 148 226 0
225 2060 -148 0
225 148 -226 0
-226 -153 -227 0
-226 153 229 0
226 153 -229 0
226 -153 227 0
227 -174 228 0
227 174 -228 0
-227 174 228 0
-227 -174 -228 0
-228 -1951 -2105 0
-228 1951 2105 0
228 1951 -2105 0
228 -1951 2105 0
-229 166 230 0
-229 -2060 -166 0
-229 166 -186 0
229 2060 -166 0
229 166 186 -230 0
230 -188 227 0
-230 188 0
-230 -227 0
-231 -2106 239 0
-231 -2106 232 0
-231 232 239 0
231 -232 -239 0
231 2106 -239 0
231 2106 -232 0
232 -1979 -2106 0
232 1979 -142 233 0
-232 -1979 2106 0
-232 1979 -233 0
-232 1979 142 0
-233 -2061 -148 0
-233 148 234 0
233 2061 -148 0
233 148 -234 0
-234 -153 -235 0
-234 153 237 0
234 153 -237 0
234 -153 235 0
235 -175 236 0
235 175 -236 0
-235 175 236 0
-235 -175 -236 0
-236 -1952 -2106 0
-236 1952 2106 0
236 1952 -2106 0
236 -1952 2106 0
-237 166 238 0
-237 -2061 -166 0
-237 166 -186 0
237 2061 -166 0
237 166 186 -238 0
238 -188 235 0
-238 188 0
-238 -235 0
-239 -2107 247 0
-239 -2107 240 0
-239 240 247 0
239 -240 -247 0
239 2107 -247 0
239 2107 -240 0
240 -1979 -2107 0
240 1979 -142 241 0
-240 -1979 2107 0
-240 1979 -241 0
-240 1979 142 0
-241 -2062 -148 0
-241 148 242 0
241 2062 -148 0
241 148 -242 0
-242 -153 -243 0
-242 153 245 0
242 153 -245 0
242 -153 243 0
243 -176 244 0
243 176 -244 0
-243 176 244 0
-243 -176 -244 0
-244 -1953 -2107 0
-244 1953 2107 0
244 1953 -2107 0
244 -1953 2107 0
-245 166 246 0
-245 -2062 -166 0
-245 166 -186 0
245 2062 -166 0
245 166 186 -246 0
246 -188 243 0
-246 188 0
-246 -243 0
-247 -2108 255 0
-247 -2108 248 0
-247 248 255 0
247 -248 -255 0
247 2108 -255 0
247 2108 -248 0
248 -1979 -2108 0
248 1979 -142 249 0
-248 -1979 2108 0
-248 1979 -249 0
-248 1979 142 0
-249 -2063 -148 0
-249 148 250 0
249 2063 -148 0
249 148 -250 0
-250 -153 -251 0
-250 153 253 0
250 153 -253 0
250 -153 251 0
251 -177 252 0
251 177 -252 0
-251 177 252 0
-251 -177 -252 0
-252 -1954 -2108 0
-252 1954 2108 0
252 1954 -2108 0
252 -1954 2108 0
-253 166 254 0
-253 -2063 -166 0
-253 166 -186 0
253 2063 -166 0
253 166 186 -254 0
254 -188 251 0
-254 188 0
-254 -251 0
-255 -2109 263 0
-255 -2109 256 0
-255 256 263 0
255 -256 -263 0
255 2109 -263 0
255 2109 -256 0
256 -1979 -2109 0
256 1979 -142 257 0
-256 -1979 2109 0
-256 1979 -257 0
-256 1979 142 0
-257 -2064 -148 0
-257 148 258 0
257 2064 -148 0
257 148 -258 0
-258 -153 -259 0
-258 153 261 0
258 153 -261 0
258 -153 259 0
259 -178 260 0
259 178 -260 0
-259 178 260 0
-259 -178 -260 0
-260 -1955 -2109 0
-260 1955 2109 0
260 1955 -2109 0
260 -1955 2109 0
-261 166 262 0
-261 -2064 -166 0
-261 166 -186 0
261 2064 -166 0
261 166 186 -262 0
262 -188 259 0
-262 188 0
-262 -259 0
-263 -2110 271 0
-263 -2110 264 0
-263 264 271 0
263 -264 -271 0
263 2110 -271 0
263 2110 -264 0
264 -1979 -2110 0
264 1979 -142 265 0
-264 -1979 2110 0
-264 1979 -265 0
-264 1979 142 0
-265 -2065 -148 0
-265 148 266 0
265 2065 -148 0
265 148 -266 0
-266 -153 -267 0
-266 153 269 0
266 153 -269 0
266 -153 267 0
267 -179 268 0
267 179 -268 0
-267 179 268 0
-267 -179 -268 0
-268 -1956 -2110 0
-268 1956 2110 0
268 1956 -2110 0
268 -1956 2110 0
-269 166 270 0
-269 -2065 -166 0
-269 166 -186 0
269 2065 -166 0
269 166 186 -270 0
270 -188 267 0
-270 188 0
-270 -267 0
-271 -2111 279 0
-271 -2111 272 0
-271 272 279 0
271 -272 -279 0
271 2111 -279 0
271 2111 -272 0
272 -1979 -2111 0
272 1979 -142 273 0
-272 -1979 2111 0
-272 1979 -273 0
-272 1979 142 0
-273 -2066 -148 0
-273 148 274 0
273 2066 -148 0
273 148 -274 0
-274 -153 -275 0
-274 153 277 0
274 153 -277 0
274 -153 275 0
275 -180 276 0
275 180 -276 0
-275 180 276 0
-275 -180 -276 0
-276 -1957 -2111 0
-276 1957 2111 0
276 1957 -2111 0
276 -1957 2111 0
-277 166 278 0
-277 -2066 -166 0
-277 166 -186 0
277 2066 -166 0
277 166 186 -278 0
278 -188 275 0
-278 188 0
-278 -275 0
-279 -2112 287 0
-279 -2112 280 0
-279 280 287 0
279 -280 -287 0
279 2112 -287 0
279 2112 -280 0
280 -1979 -2112 0
280 1979 -142 281 0
-280 -1979 2112 0
-280 1979 -281 0
-280 1979 142 0
-281 -2067 -148 0
-281 148 282 0
281 2067 -148 0
281 148 -282 0
-282 -153 -283 0
-282 153 285 0
282 153 -285 0
282 -153 283 0
283 -181 284 0
283 181 -284 0
-283 181 284 0
-283 -181 -284 0
-284 -1958 -2112 0
-284 1958 2112 0
284 1958 -2112 0
284 -1958 2112 0
-285 166 286 0
-285 -2067 -166 0
-285 166 -186 0
285 2067 -166 0
285 166 186 -286 0
286 -188 283 0
-286 188 0
-286 -283 0
-287 -2113 295 0
-287 -2113 288 0
-287 288 295 0
287 -288 -295 0
287 2113 -295 0
287 2113 -288 0
288 -1979 -2113 0
288 1979 -142 289 0
-288 -1979 2113 0
-288 1979 -289 0
-288 1979 142 0
-289 -2068 -148 0
-289 148 290 0
289 2068 -148 0
289 148 -290 0
-290 -153 -291 0
-290 153 293 0
290 153 -293 0
290 -153 291 0
291 -182 292 0
291 182 -292 0
-291 182 292 0
-291 -182 -292 0
-292 -1959 -2113 0
-292 1959 2113 0
292 1959 -2113 0
292 -1959 2113 0
-293 166 294 0
-293 -2068 -166 0
-293 166 -186 0
293 2068 -166 0
293 166 186 -294 0
294 -188 291 0
-294 188 0
-294 -291 0
-295 -2114 303 0
-295 -2114 296 0
-295 296 303 0
295 -296 -303 0
295 2114 -303 0
295 2114 -296 0
296 -1979 -2114 0
296 1979 -142 297 0
-296 -1979 2114 0
-296 1979 -297 0
-296 1979 142 0
-297 -2069 -148 0
-297 148 298 0
297 2069 -148 0
297 148 -298 0
-298 -153 -299 0
-298 153 301 0
298 153 -301 0
298 -153 299 0
299 -183 300 0
299 183 -300 0
-299 183 300 0
-299 -183 -300 0
-300 -1960 -2114 0
-300 1960 2114 0
300 1960 -2114 0
300 -1960 2114 0
-301 166 302 0
-301 -2069 -166 0
-301 166 -186 0
301 2069 -166 0
301 166 186 -302 0
302 -188 299 0
-302 188 0
-302 -299 0
-303 304 311 0
-303 -2115 304 0
-303 -2115 311 0
303 2115 -304 0
303 -304 -311 0
303 2115 -311 0
304 -1979 -2115 0
304 1979 -142 305 0
-304 -1979 2115 0
-304 1979 -305 0
-304 1979 142 0
-305 -2070 -148 0
-305 148 306 0
305 2070 -148 0
305 148 -306 0
-306 -153 -307 0
-306 153 309 0
306 153 -309 0
306 -153 307 0
307 -184 308 0
307 184 -308 0
-307 184 308 0
-307 -184 -308 0
-308 -1961 -2115 0
-308 1961 2115 0
308 1961 -2115 0
308 -1961 2115 0
-309 166 310 0
-309 -2070 -166 0
-309 166 -186 0
309 2070 -166 0
309 166 186 -310 0
310 -188 307 0
-310 188 0
-310 -307 0
311 2116 -312 0
-311 -2116 0
-311 312 0
312 -1979 -2116 0
312 1979 -142 313 0
-312 -1979 2116 0
-312 1979 -313 0
-312 1979 142 0
-313 -2071 -148 0
-313 148 314 0
313 2071 -148 0
313 148 -314 0
-314 153 315 0
-314 1962 -2116 -153 0
-314 -1962 2116 -153 0
314 153 -315 0
314 -1962 -2116 -153 0
314 1962 2116 -153 0
-315 166 316 0
-315 -2071 -166 0
-315 166 -186 0
315 2071 -166 0
315 166 186 -316 0
316 -1962 -2116 -188 0
316 1962 2116 -188 0
-316 188 0
-316 -1962 2116 0
-316 1962 -2116 0
317 193 -189 0
317 -193 189 0
-317 -193 -189 0
-317 193 189 0
-318 -199 -319 0
-318 199 319 0
318 199 -319 0
318 -199 319 0
319 -2101 194 0
319 2101 -194 0
-319 2101 194 0
-319 -2101 -194 0
-320 321 323 325 327 0
320 -327 0
320 -325 0
320 -321 0
320 -323 0
321 -207 322 0
321 207 -322 0
-321 207 322 0
-321 -207 -322 0
-322 -2102 -200 0
-322 2102 200 0
322 2102 -200 0
322 -2102 200 0
323 -215 324 0
323 215 -324 0
-323 215 324 0
-323 -215 -324 0
-324 -2103 -208 0
-324 2103 208 0
324 2103 -208 0
324 -2103 208 0
325 -223 326 0
325 223 -326 0
-325 223 326 0
-325 -223 -326 0
-326 -2104 -216 0
-326 2104 216 0
326 2104 -216 0
326 -2104 216 0
-327 328 330 334 0
-327 328 330 332 0
327 -328 0
327 -330 0
327 -332 -334 0
328 -231 329 0
328 231 -329 0
-328 231 329 0
-328 -231 -329 0
-329 -2105 -224 0
-329 2105 224 0
329 2105 -224 0
329 -2105 224 0
330 -239 331 0
330 239 -331 0
-330 239 331 0
-330 -239 -331 0
-331 -2106 -232 0
-331 2106 232 0
331 2106 -232 0
331 -2106 232 0
332 -247 333 0
332 247 -333 0
-332 247 333 0
-332 -247 -333 0
-333 -2107 -240 0
-333 2107 240 0
333 2107 -240 0
333 -2107 240 0
334 -335 -337 -339 -341 0
-334 341 0
-334 335 0
-334 339 0
-334 337 0
335 -255 336 0
335 255 -336 0
-335 255 336 0
-335 -255 -336 0
-336 -2108 -248 0
-336 2108 248 0
336 2108 -248 0
336 -2108 248 0
337 -263 338 0
337 263 -338 0
-337 263 338 0
-337 -263 -338 0
-338 -2109 -256 0
-338 2109 256 0
338 2109 -256 0
338 -2109 256 0
339 -271 340 0
339 271 -340 0
-339 271 340 0
-339 -271 -340 0
-340 -2110 -264 0
-340 2110 264 0
340 2110 -264 0
340 -2110 264 0
341 -342 -344 0
341 -342 -346 0
-341 342 0
-341 344 346 0
342 -279 343 0
342 279 -343 0
-342 279 343 0
-342 -279 -343 0
-343 -2111 -272 0
-343 2111 272 0
343 2111 -272 0
343 -2111 272 0
344 -287 345 0
344 287 -345 0
-344 287 345 0
-344 -287 -345 0
-345 -2112 -280 0
-345 2112 280 0
345 2112 -280 0
345 -2112 280 0
346 -295 347 0
346 295 -347 0
-346 295 347 0
-346 -295 -347 0
-347 -2113 -288 0
-347 2113 288 0
347 2113 -288 0
347 -2113 288 0
348 -1910 -2179 349 -354 0
-348 354 0
-348 1910 0
-348 2179 0
-348 -349 0
349 1947 -1948 0
349 1947 -350 0
349 1947 -1949 0
-349 -1947 0
-349 1948 1949 350 0
-350 1950 1951 351 0
-350 1950 1951 1952 0
350 -1950 0
350 -1951 0
350 -1952 -351 0
-351 1953 352 0
-351 1953 1955 0
-351 1953 1954 0
351 -1953 0
351 -1954 -1955 -352 0
-352 1956 1957 0
-352 1956 1958 353 0
352 -1956 0
352 -1957 -1958 0
352 -1957 -353 0
353 -1959 -1960 0
353 -1959 -1961 -1962 0
-353 1959 0
-353 1960 1962 0
-353 1960 1961 0
354 -1980 -101 0
-354 1980 0
-354 101 0
355 -1910 -2179 131 356 0
-355 -131 0
-355 -356 0
-355 1910 0
-355 2179 0
356 357 -412 0
356 357 -421 -431 0
-356 -357 0
-356 412 431 0
-356 412 421 0
357 1883 -358 0
-357 -1883 0
-357 358 0
358 130 -359 0
358 -130 -399 410 0
-358 -130 399 0
-358 130 359 0
-358 -130 -410 0
359 -119 364 0
359 111 119 -360 0
-359 -111 119 0
-359 -119 -364 0
-359 119 360 0
-360 106 -110 0
-360 96 106 361 0
360 -106 0
360 -96 110 0
360 110 -361 0
-361 2043 362 0
361 -2043 0
361 -362 0
-362 96 106 110 363 0
362 -363 0
362 -110 0
362 -96 0
362 -106 0
-363 1883 111 119 130 0
363 -130 0
363 -119 0
363 -1883 0
363 -111 0
364 2043 -365 0
-364 -2043 0
-364 365 0
365 366 -385 0
-365 -366 0
-365 385 0
366 -367 370 0
-366 367 0
-366 -370 0
367 -1963 1964 0
367 -1963 1965 368 0
-367 1963 0
-367 -1964 -1965 0
-367 -1964 -368 0
368 -1966 -1967 0
368 -1966 -369 0
368 -1966 -1968 0
-368 1966 0
-368 1967 1968 369 0
-369 1969 1970 0
-369 1969 115 0
369 -1969 0
369 -1970 -115 0
370 1963 -2043 0
370 1963 371 -372 0
370 -2043 371 -372 0
-370 2043 372 0
-370 -1963 -371 0
-370 -1963 2043 0
-370 -1963 372 0
-370 2043 -371 0
371 1964 -2044 0
-371 -1964 0
-371 2044 0
-372 1965 -2045 373 0
-372 1965 373 374 0
-372 -2045 373 374 0
372 2045 -374 0
372 -1965 2045 0
372 -373 0
372 -1965 -374 0
373 -1964 2044 0
-373 1964 0
-373 -2044 0
374 -1966 2046 0
374 -1966 375 -376 0
374 2046 375 -376 0
-374 1966 376 0
-374 -2046 376 0
-374 1966 -2046 0
-374 -2046 -375 0
-374 1966 -375 0
375 1967 -2047 0
-375 -1967 0
-375 2047 0
-376 1968 -2048 377 0
-376 1968 377 378 0
-376 -2048 377 378 0
376 2048 -378 0
376 -1968 2048 0
376 -377 0
376 -1968 -378 0
377 -1967 2047 0
-377 1967 0
-377 -2047 0
378 -1969 2049 0
378 -1969 379 -380 0
378 2049 379 -380 0
-378 1969 380 0
-378 -2049 380 0
-378 1969 -2049 0
-378 -2049 -379 0
-378 1969 -379 0
379 1970 -2050 0
-379 -1970 0
-379 2050 0
-380 1971 -2051 381 0
-380 1971 381 382 0
-380 -2051 381 382 0
380 2051 -382 0
380 -1971 2051 0
380 -381 0
380 -1971 -382 0
381 -1970 2050 0
-381 1970 0
-381 -2050 0
382 -1972 -383 0
382 -1972 2052 0
382 2052 -383 0
-382 -2052 383 0
-382 1972 383 0
-382 1972 -2052 0
383 -1973 -384 0
383 -1973 2053 0
383 2053 -384 0
-383 -2053 384 0
-383 1973 384 0
-383 1973 -2053 0
384 -1974 2054 0
384 -1974 -1975 2055 0
384 -1975 2054 2055 0
-384 1974 -2055 0
-384 -2054 -2055 0
-384 1974 -2054 0
-384 1975 -2054 0
-384 1974 1975 0
385 386 -395 0
-385 -386 0
-385 395 0
386 -1963 2043 0
386 -1963 373 -387 0
386 2043 373 -387 0
-386 1963 387 0
-386 -2043 387 0
-386 1963 -2043 0
-386 -2043 -373 0
-386 1963 -373 0
-387 -1965 2045 371 0
-387 -1965 371 388 0
-387 2045 371 388 0
387 1965 -388 0
387 -2045 -388 0
387 -371 0
387 1965 -2045 0
388 1966 -2046 0
388 1966 377 -389 0
388 -2046 377 -389 0
-388 2046 389 0
-388 -1966 -377 0
-388 -1966 2046 0
-388 -1966 389 0
-388 2046 -377 0
-389 -1968 2048 375 0
-389 -1968 375 390 0
-389 2048 375 390 0
389 1968 -390 0
389 -2048 -390 0
389 -375 0
389 1968 -2048 0
390 1969 -2049 0
390 1969 381 -391 0
390 -2049 381 -391 0
-390 2049 391 0
-390 -1969 -381 0
-390 -1969 2049 0
-390 -1969 391 0
-390 2049 -381 0
-391 -1971 2051 379 0
-391 -1971 379 392 0
-391 2051 379 392 0
391 1971 -392 0
391 -2051 -392 0
391 -379 0
391 1971 -2051 0
392 1972 -2052 0
392 -2052 -393 0
392 1972 -393 0
-392 2052 393 0
-392 -1972 2052 0
-392 -1972 393 0
393 1973 -2053 0
393 -2053 -394 0
393 1973 -394 0
-393 2053 394 0
-393 -1973 2053 0
-393 -1973 394 0
394 1974 -2054 0
394 1975 -2054 -2055 0
394 1974 1975 -2055 0
-394 -1974 -1975 0
-394 -1975 2054 0
-394 -1974 2054 0
-394 2054 2055 0
-394 -1974 2055 0
395 -2043 2044 0
395 -2043 2045 396 0
-395 2043 0
-395 -2044 -2045 0
-395 -2044 -396 0
396 -2046 -2047 0
396 -2046 -397 0
396 -2046 -2048 0
-396 2046 0
-396 2047 2048 397 0
-397 2049 2050 0
-397 2049 2051 398 0
397 -2049 0
397 -2050 -2051 0
397 -2050 -398 0
-398 2052 2053 0
-398 2052 2054 2055 0
398 -2052 0
398 -2053 -2054 0
398 -2053 -2055 0
-399 400 405 0
399 -400 0
399 -405 0
400 386 -401 0
-400 -386 0
-400 401 0
401 1963 -1964 0
401 1963 -1965 -402 0
-401 -1963 0
-401 1964 402 0
-401 1964 1965 0
-402 1966 1968 0
-402 1966 1967 0
-402 1966 403 0
402 -1966 0
402 -1967 -1968 -403 0
403 -1969 -1970 0
403 -1969 -404 0
-403 1969 0
-403 1970 404 0
404 -1971 -1972 -1973 0
-404 1971 0
-404 1972 0
-404 1973 0
405 370 -406 0
-405 -370 0
-405 406 0
406 2043 -2044 0
406 2043 -2045 -407 0
-406 -2043 0
-406 2044 407 0
-406 2044 2045 0
-407 2046 2048 0
-407 2046 2047 0
-407 2046 408 0
407 -2046 0
407 -2047 -2048 -408 0
408 -2049 -2050 0
408 -2049 -2051 -409 0
-408 2049 0
-408 2050 409 0
-408 2050 2051 0
409 -2052 -2053 0
-409 2052 0
-409 2053 0
-410 -2043 400 0
-410 -1963 411 0
-410 -1963 -2043 0
-410 400 411 0
410 2043 -411 0
410 1963 -400 0
411 400 -405 0
-411 -400 0
-411 405 0
412 1883 -413 0
-412 -1883 0
-412 413 0
413 130 -414 0
413 -130 -399 420 0
-413 -130 399 0
-413 130 414 0
-413 -130 -420 0
414 -111 119 0
414 -119 419 0
414 119 -415 0
-414 -119 -419 0
-414 111 119 415 0
415 106 -110 -418 0
415 106 110 -416 0
-415 -106 0
-415 -110 418 0
-415 110 416 0
416 96 -417 0
416 1963 -96 0
416 -1964 -96 0
-416 96 417 0
-416 -1963 1964 -96 0
-417 2044 362 0
417 -2044 0
417 -362 0
418 1963 -1964 0
-418 -1963 0
-418 1964 0
-419 -2044 366 0
-419 -1964 365 0
-419 -1964 -2044 0
-419 366 365 0
419 2044 -365 0
419 1964 -366 0
-420 -2044 400 0
-420 -1964 411 0
-420 -1964 -2044 0
-420 400 411 0
420 2044 -411 0
420 1964 -400 0
421 1883 -422 0
-421 -1883 0
-421 422 0
422 130 -423 0
422 -130 430 0
-422 -130 -430 0
-422 130 423 0
423 119 -424 0
423 -119 -428 429 0
-423 -119 428 0
-423 119 424 0
-423 -119 -429 0
424 -106 111 0
424 111 -425 0
-424 -111 0
-424 106 425 0
425 -1965 -110 0
425 110 -426 0
425 -110 401 0
-425 110 426 0
-425 1965 -110 -401 0
426 96 -362 0
426 -96 -427 0
426 -2045 96 0
-426 -96 427 0
-426 2045 96 362 0
427 -1963 1964 -1965 0
-427 1963 0
-427 -1964 0
-427 1965 0
-428 366 385 0
428 -366 0
428 -385 0
-429 -2045 366 0
-429 -1965 365 0
-429 -1965 -2045 0
-429 366 365 0
429 2045 -365 0
429 1965 -366 0
-430 -2045 400 0
-430 -1965 411 0
-430 -1965 -2045 0
-430 400 411 0
430 2045 -411 0
430 1965 -400 0
-431 432 450 0
-431 432 441 0
-431 432 459 0
431 -432 0
431 -441 -450 -459 0
432 1883 -433 0
-432 -1883 0
-432 433 0
433 130 -434 0
433 -130 -399 440 0
-433 -130 399 0
-433 130 434 0
-433 -130 -440 0
434 -119 439 0
434 111 119 -435 0
-434 -111 119 0
-434 -119 -439 0
-434 119 435 0
-435 106 -110 438 0
-435 106 110 436 0
435 -106 0
435 -110 -438 0
435 110 -436 0
436 96 -437 0
436 -96 367 0
436 -1966 -96 0
-436 96 437 0
-436 1966 -96 -367 0
-437 2046 362 0
437 -2046 0
437 -362 0
438 -1966 -401 0
-438 1966 0
-438 401 0
-439 -2046 366 0
-439 -1966 365 0
-439 -1966 -2046 0
-439 366 365 0
439 2046 -365 0
439 1966 -366 0
-440 -2046 400 0
-440 -1966 411 0
-440 -1966 -2046 0
-440 400 411 0
440 2046 -411 0
440 1966 -400 0
441 1883 -442 0
-441 -1883 0
-441 442 0
442 130 -443 0
442 -130 449 0
-442 -130 -449 0
-442 130 443 0
443 119 -444 0
443 -119 -428 448 0
-443 -119 428 0
-443 119 444 0
-443 -119 -448 0
-444 111 445 0
-444 -106 111 0
444 -111 0
444 106 -445 0
445 -1967 -110 0
445 110 -446 0
445 -110 401 0
-445 110 446 0
-445 1967 -110 -401 0
446 96 -447 0
446 -1967 -96 -367 0
-446 1967 -96 0
-446 96 447 0
-446 -96 367 0
-447 2047 362 0
447 -2047 0
447 -362 0
-448 -2047 366 0
-448 -1967 365 0
-448 -1967 -2047 0
-448 366 365 0
448 2047 -365 0
448 1967 -366 0
-449 -2047 400 0
-449 -1967 411 0
-449 -1967 -2047 0
-449 400 411 0
449 2047 -411 0
449 1967 -400 0
450 1883 -451 0
-450 -1883 0
-450 451 0
451 130 -452 0
451 -130 458 0
-451 -130 -458 0
-451 130 452 0
452 119 -453 0
452 -119 -428 457 0
-452 -119 428 0
-452 119 453 0
-452 -119 -457 0
-453 111 454 0
-453 -106 111 0
453 -111 0
453 106 -454 0
454 -1968 -110 0
454 110 -455 0
454 -110 401 0
-454 110 455 0
-454 1968 -110 -401 0
455 96 -456 0
455 -1968 -96 -367 0
-455 1968 -96 0
-455 96 456 0
-455 -96 367 0
-456 2048 362 0
456 -2048 0
456 -362 0
-457 -2048 366 0
-457 -1968 365 0
-457 -1968 -2048 0
-457 366 365 0
457 2048 -365 0
457 1968 -366 0
-458 -2048 400 0
-458 -1968 411 0
-458 -1968 -2048 0
-458 400 411 0
458 2048 -411 0
458 1968 -400 0
459 -460 -469 0
459 -460 -478 -487 0
-459 460 0
-459 469 487 0
-459 469 478 0
460 1883 -461 0
-460 -1883 0
-460 461 0
461 130 -462 0
461 -130 468 0
-461 -130 -468 0
-461 130 462 0
462 119 -463 0
462 -119 -428 467 0
-462 -119 428 0
-462 119 463 0
-462 -119 -467 0
-463 111 464 0
-463 -106 111 0
463 -111 0
463 106 -464 0
464 -1969 -110 0
464 110 -465 0
464 -110 401 0
-464 110 465 0
-464 1969 -110 -401 0
465 96 -466 0
465 -1969 -96 -367 0
-465 1969 -96 0
-465 96 466 0
-465 -96 367 0
-466 2049 362 0
466 -2049 0
466 -362 0
-467 -2049 366 0
-467 -1969 365 0
-467 -1969 -2049 0
-467 366 365 0
467 2049 -365 0
467 1969 -366 0
-468 -2049 400 0
-468 -1969 411 0
-468 -1969 -2049 0
-468 400 411 0
468 2049 -411 0
468 1969 -400 0
469 1883 -470 0
-469 -1883 0
-469 470 0
470 130 -471 0
470 -130 -399 477 0
-470 -130 399 0
-470 130 471 0
-470 -130 -477 0
471 -119 476 0
471 111 119 -472 0
-471 -111 119 0
-471 -119 -476 0
-471 119 472 0
-472 106 -110 475 0
-472 106 110 473 0
472 -106 0
472 -110 -475 0
472 110 -473 0
473 96 -474 0
473 -96 367 0
473 -1970 -96 0
-473 96 474 0
-473 1970 -96 -367 0
-474 2050 362 0
474 -2050 0
474 -362 0
475 -1970 -401 0
-475 1970 0
-475 401 0
-476 -2050 366 0
-476 -1970 365 0
-476 -1970 -2050 0
-476 366 365 0
476 2050 -365 0
476 1970 -366 0
-477 -2050 400 0
-477 -1970 411 0
-477 -1970 -2050 0
-477 400 411 0
477 2050 -411 0
477 1970 -400 0
478 1883 -479 0
-478 -1883 0
-478 479 0
479 130 -480 0
479 -130 486 0
-479 -130 -486 0
-479 130 480 0
480 119 -481 0
480 -119 -428 485 0
-480 -119 428 0
-480 119 481 0
-480 -119 -485 0
481 -106 111 0
481 111 -482 0
-481 -111 0
-481 106 482 0
482 -1971 -110 0
482 110 -483 0
482 -110 401 0
-482 110 483 0
-482 1971 -110 -401 0
483 96 -484 0
483 -1971 -96 -367 0
-483 1971 -96 0
-483 96 484 0
-483 -96 367 0
-484 2051 362 0
484 -2051 0
484 -362 0
-485 -2051 366 0
-485 -1971 365 0
-485 -1971 -2051 0
-485 366 365 0
485 2051 -365 0
485 1971 -366 0
-486 -2051 400 0
-486 -1971 411 0
-486 -1971 -2051 0
-486 400 411 0
486 2051 -411 0
486 1971 -400 0
487 -488 -496 0
-487 488 0
-487 496 0
488 130 -489 0
488 -130 495 0
-488 -130 -495 0
-488 130 489 0
489 119 -490 0
489 -119 494 0
489 -111 119 0
-489 -119 -494 0
-489 111 119 490 0
-490 106 -110 -493 0
-490 106 110 491 0
490 -106 0
490 -110 493 0
490 110 -491 0
491 96 -492 0
491 -96 367 0
491 -1973 -96 0
-491 96 492 0
-491 1973 -96 -367 0
-492 2053 362 0
492 -2053 0
492 -362 0
493 1973 -401 0
-493 -1973 0
-493 401 0
-494 -2053 366 0
-494 -1973 365 0
-494 -1973 -2053 0
-494 366 365 0
494 2053 -365 0
494 1973 -366 0
-495 -2053 400 0
-495 -1973 411 0
-495 -1973 -2053 0
-495 400 411 0
495 2053 -411 0
495 1973 -400 0
496 1883 -497 0
-496 -1883 0
-496 497 0
497 130 -498 0
497 -130 504 0
-497 -130 -504 0
-497 130 498 0
498 119 -499 0
498 -119 -428 503 0
-498 -119 428 0
-498 119 499 0
-498 -119 -503 0
499 -106 111 0
499 111 -500 0
-499 -111 0
-499 106 500 0
500 -1972 -110 0
500 110 -501 0
500 -110 401 0
-500 110 501 0
-500 1972 -110 -401 0
501 96 -502 0
501 -1972 -96 -367 0
-501 1972 -96 0
-501 96 502 0
-501 -96 367 0
-502 2052 362 0
502 -2052 0
502 -362 0
-503 -2052 366 0
-503 -1972 365 0
-503 -1972 -2052 0
-503 366 365 0
503 2052 -365 0
503 1972 -366 0
-504 -2052 400 0
-504 -1972 411 0
-504 -1972 -2052 0
-504 400 411 0
504 2052 -411 0
504 1972 -400 0
505 -1891 -1892 -1912 -2179 0
-505 2179 0
-505 1891 0
-505 1912 0
-505 1892 0
506 -2180 -508 0
506 -1871 -2180 -507 0
-506 2180 0
-506 1871 508 0
-506 507 508 0
507 -1872 -1873 0
-507 1872 0
-507 1873 0
-508 1885 509 512 0
-508 509 511 512 0
508 -512 0
508 -509 0
508 -1885 -511 0
509 -1874 -510 0
-509 1874 0
-509 510 0
510 -1875 -1876 0
-510 1875 0
-510 1876 0
-511 1886 1887 0
511 -1886 0
511 -1887 0
-512 1888 513 0
-512 1889 1890 513 0
512 -513 0
512 -1888 -1890 0
512 -1888 -1889 0
-513 1894 514 0
-513 1893 514 0
-513 1895 514 0
513 -514 0
513 -1893 -1894 -1895 0
-514 1896 515 0
-514 1897 1898 515 0
514 -515 0
514 -1896 -1898 0
514 -1896 -1897 0
-515 1901 516 0
-515 1902 1903 516 0
515 -516 0
515 -1901 -1903 0
515 -1901 -1902 0
-516 1982 517 519 0
-516 517 518 519 0
516 -519 0
516 -517 0
516 -1982 -518 0
517 -1904 -1905 0
517 -1904 -1906 0
-517 1904 0
-517 1905 1906 0
518 -1983 -1984 0
-518 1983 0
-518 1984 0
-519 2002 520 522 0
-519 520 521 522 0
519 -522 0
519 -520 0
519 -2002 -521 0
520 -1999 -2000 0
-520 1999 0
-520 2000 0
521 -2003 -2004 0
-521 2003 0
-521 2004 0
-522 2010 523 524 0
-522 2009 523 524 0
522 -524 0
522 -523 0
522 -2009 -2010 0
523 -2006 -2007 0
-523 2006 0
-523 2007 0
-524 2013 525 526 0
-524 2012 525 526 0
524 -526 0
524 -525 0
524 -2012 -2013 0
525 -2015 -2016 -2017 0
-525 2015 0
-525 2016 0
-525 2017 0
-526 2021 527 529 0
-526 527 528 529 0
526 -529 0
526 -527 0
526 -2021 -528 0
527 -2018 -2019 0
-527 2018 0
-527 2019 0
528 -2022 -2023 0
-528 2022 0
-528 2023 0
-529 2029 530 531 0
-529 2028 530 531 0
529 -531 0
529 -530 0
529 -2028 -2029 0
530 -2025 -2026 0
-530 2025 0
-530 2026 0
-531 2032 532 533 0
-531 2031 532 533 0
531 -533 0
531 -532 0
531 -2031 -2032 0
532 -2034 -2035 -2036 0
-532 2034 0
-532 2035 0
-532 2036 0
-533 2041 534 535 0
-533 2040 534 535 0
533 -535 0
533 -534 0
533 -2040 -2041 0
534 -2037 -2038 0
-534 2037 0
-534 2038 0
-535 2125 536 537 0
-535 2124 536 537 0
535 -537 0
535 -536 0
535 -2124 -2125 0
536 -2120 -2121 0
-536 2120 0
-536 2121 0
-537 2127 538 539 0
-537 2126 538 539 0
537 -539 0
537 -538 0
537 -2126 -2127 0
538 -1815 -1816 0
-538 1815 0
-538 1816 0
-539 2133 540 541 0
-539 2132 540 541 0
539 -541 0
539 -540 0
539 -2132 -2133 0
540 -2129 -2130 0
-540 2129 0
-540 2130 0
-541 2143 542 543 0
-541 2142 542 543 0
541 -543 0
541 -542 0
541 -2142 -2143 0
542 -2135 -2136 0
-542 2135 0
-542 2136 0
-543 2152 544 545 0
-543 2151 544 545 0
543 -545 0
543 -544 0
543 -2151 -2152 0
544 -2148 -2149 0
-544 2148 0
-544 2149 0
-545 2158 546 547 0
-545 2157 546 547 0
545 -547 0
545 -546 0
545 -2157 -2158 0
546 -2154 -2155 0
-546 2154 0
-546 2155 0
-547 2161 2163 0
-547 2160 2164 0
-547 2161 2164 0
-547 2160 2163 0
547 -2160 -2161 0
547 -2163 -2164 0
548 -2180 549 551 -553 0
-548 553 0
-548 -551 0
-548 2180 0
-548 -549 0
549 -1908 -79 0
549 1874 -1908 550 0
-549 1908 0
-549 -1874 79 0
-549 79 -550 0
-550 1875 1876 0
550 -1875 0
550 -1876 0
551 1874 -1908 79 -552 0
-551 1908 0
-551 -79 0
-551 -1874 0
-551 552 0
552 1875 -1876 0
-552 -1875 0
-552 1876 0
553 554 560 -582 0
553 554 560 -573 0
-553 -554 0
-553 -560 0
-553 573 582 0
554 -1908 -555 -556 0
554 -1908 -555 -558 0
-554 1908 0
-554 555 0
-554 556 558 0
-555 1874 1876 0
-555 1874 1875 0
-555 -1874 -1875 -1876 0
555 -1874 1875 0
555 1874 -1875 -1876 0
555 -1874 1876 0
556 1982 1983 -1984 557 0
-556 -1982 0
-556 -557 0
-556 1984 0
-556 -1983 0
557 -1985 1986 -1987 0
557 -1985 -1986 1987 0
-557 1985 0
-557 -1986 -1987 0
-557 1986 1987 0
558 1982 -1983 559 0
558 -1982 1984 559 0
558 1983 -1984 559 0
-558 -559 0
-558 1982 1983 1984 0
-558 -1982 -1983 -1984 0
-559 1985 1986 1987 0
559 -1985 0
559 -1987 0
559 -1986 0
560 -1908 -561 0
560 -1908 -570 0
560 -1908 -565 0
-560 1908 0
-560 561 565 570 0
561 64 -562 563 0
-561 -563 0
-561 562 0
-561 -64 0
562 1874 -510 0
-562 -1874 0
-562 510 0
-563 1982 564 0
563 -1982 0
563 -564 0
-564 1983 1984 0
564 -1983 0
564 -1984 0
565 -555 -567 0
565 -566 -555 -569 0
-565 555 0
-565 567 569 0
-565 566 567 0
566 1985 1986 -1987 0
-566 1987 0
-566 -1986 0
-566 -1985 0
567 1982 -1983 1984 -568 0
-567 1983 0
-567 568 0
-567 -1982 0
-567 -1984 0
-568 -1985 1986 -1987 0
-568 -1985 -1986 1987 0
-568 1985 1986 1987 0
568 1985 -1986 0
568 -1986 -1987 0
568 1985 -1987 0
568 -1985 1986 1987 0
-569 1982 1983 0
-569 -1982 -1983 -1984 0
569 1982 -1983 0
569 -1982 1983 0
569 -1983 1984 0
-570 562 0
-570 568 571 0
-570 569 571 0
570 -562 -571 0
570 -562 -568 -569 0
571 -1985 -572 0
-571 1985 0
-571 572 0
572 -1986 1987 0
-572 1986 0
-572 -1987 0
573 -574 575 0
573 -574 -581 0
573 -574 -576 0
-573 574 0
-573 -575 576 581 0
574 -1874 -1908 0
-574 1874 0
-574 1908 0
-575 64 550 563 0
575 -563 0
575 -550 0
575 -64 0
576 510 -578 0
576 -577 510 -580 0
-576 -510 0
-576 578 580 0
-576 577 578 0
577 1985 -572 0
-577 -1985 0
-577 572 0
578 1982 -518 -579 0
-578 -1982 0
-578 518 0
-578 579 0
-579 1986 -1987 0
-579 1985 1986 0
-579 -1985 -1986 1987 0
579 1985 -1986 0
579 -1986 -1987 0
579 -1985 1986 1987 0
-580 1982 1984 0
-580 1982 1983 0
-580 -1982 -1983 -1984 0
580 -1982 1983 0
580 1982 -1983 -1984 0
580 -1982 1984 0
-581 -550 0
-581 571 580 0
-581 571 579 0
581 550 -571 0
581 550 -579 -580 0
-582 1871 583 592 0
582 -1871 0
582 -592 0
582 -583 0
583 -574 -584 0
583 -574 -590 0
583 -574 -585 0
-583 574 0
-583 584 585 590 0
584 64 -552 563 0
-584 -563 0
-584 552 0
-584 -64 0
585 -1875 1876 -1982 -586 0
585 1875 -1876 -1982 -586 0
-585 586 0
-585 1875 1876 0
-585 1982 0
-585 -1875 -1876 0
-586 -1983 -1984 0
-586 -1983 587 0
-586 -1984 587 0
-586 587 588 0
586 1984 -587 0
586 1983 -587 0
586 1983 1984 -588 0
587 1985 -1986 -1987 0
-587 1987 0
-587 1986 0
-587 -1985 0
-588 1986 589 0
-588 1987 589 0
588 -589 0
588 -1986 -1987 0
589 -1985 1986 1987 0
-589 1985 0
-589 -1987 0
-589 -1986 0
-590 552 0
-590 571 591 0
-590 571 588 0
590 -552 -571 0
590 -552 -588 -591 0
591 -1982 518 0
-591 1982 0
-591 -518 0
592 -1908 -593 594 0
-592 1908 0
-592 593 0
-592 -594 0
593 -1874 -1875 1876 0
-593 1874 0
-593 1875 0
-593 -1876 0
594 1985 -563 0
594 -64 595 0
594 1985 -64 0
594 -563 595 0
-594 -1985 -595 0
-594 64 563 0
-595 572 597 0
-595 572 -596 0
-595 1982 572 0
595 -572 0
595 -1982 596 -597 0
596 1986 -1987 0
-596 -1986 0
-596 1987 0
597 1983 -1984 0
597 -1983 1984 0
-597 -1983 -1984 0
-597 1983 1984 0
598 -2180 -549 0
598 -2180 599 0
598 -2180 -551 0
-598 2180 0
-598 549 551 -599 0
-599 554 560 600 0
-599 554 560 -573 0
599 -554 0
599 -560 0
599 573 -600 0
600 -1872 583 0
600 583 -592 0
-600 -583 0
-600 1872 592 0
601 -2180 -549 0
601 -2180 551 602 0
-601 2180 0
-601 549 -602 0
-601 549 -551 0
602 554 -560 0
602 554 573 -603 0
-602 -554 0
-602 560 603 0
-602 560 -573 0
-603 583 -592 0
-603 1873 583 0
603 -583 0
603 -1873 592 0
604 -2180 63 78 -605 0
-604 605 0
-604 -78 0
-604 2180 0
-604 -63 0
605 -61 76 0
605 76 -606 0
605 -49 76 0
-605 -76 0
-605 49 61 606 0
-606 1874 24 0
606 -1874 0
606 -24 0
607 -2180 -63 0
607 -2180 608 0
607 -2180 -78 0
-607 2180 0
-607 63 78 -608 0
-608 -61 76 0
-608 76 609 0
-608 -49 76 0
608 -76 0
608 49 61 -609 0
-609 1875 24 0
609 -1875 0
609 -24 0
610 -2180 -78 0
610 -2180 63 611 0
-610 2180 0
-610 -63 78 0
-610 78 -611 0
-611 -61 76 0
-611 49 76 612 0
611 -76 0
611 -49 61 0
611 61 -612 0
612 -1876 24 0
-612 1876 0
-612 -24 0
613 -2180 614 -620 0
613 -2180 614 -626 0
-613 2180 0
-613 -614 0
-613 620 626 0
614 1877 1878 -1907 -615 0
-614 -1877 0
-614 615 0
-614 1907 0
-614 -1878 0
615 2101 -2102 0
615 2101 -2103 -616 0
-615 -2101 0
-615 2102 616 0
-615 2102 2103 0
-616 2104 2105 0
-616 2104 2106 617 0
616 -2104 0
616 -2105 -2106 0
616 -2105 -617 0
-617 2107 2108 0
-617 2107 2109 618 0
617 -2107 0
617 -2108 -2109 0
617 -2108 -618 0
-618 2110 2111 619 0
618 -619 0
618 -2111 0
618 -2110 0
-619 2112 2113 2114 0
619 -2112 0
619 -2114 0
619 -2113 0
620 2101 -2102 -621 -622 0
-620 -2101 0
-620 622 0
-620 621 0
-620 2102 0
621 1877 -1878 -1907 0
-621 1907 0
-621 1878 0
-621 -1877 0
-622 2103 2104 0
-622 2103 2105 623 0
622 -2103 0
622 -2104 -2105 0
622 -2104 -623 0
-623 2106 2107 2108 624 0
623 -624 0
623 -2108 0
623 -2106 0
623 -2107 0
-624 2109 2110 2111 625 0
624 -625 0
624 -2111 0
624 -2109 0
624 -2110 0
625 -2112 -2113 0
625 -2112 -2114 0
-625 2112 0
-625 2113 2114 0
-626 627 632 -639 0
-626 1877 627 632 0
626 -632 0
626 -627 0
626 -1877 639 0
627 2101 -2102 -628 -629 0
-627 -2101 0
-627 629 0
-627 628 0
-627 2102 0
628 -1877 1878 -1907 0
-628 1877 0
-628 -1878 0
-628 1907 0
629 -2103 -2104 -630 0
629 -2103 -2104 -2105 0
-629 2103 0
-629 2104 0
-629 2105 630 0
630 -2106 -2107 -2108 -631 0
-630 2108 0
-630 631 0
-630 2106 0
-630 2107 0
-631 2109 2110 619 0
-631 2109 2110 2111 0
631 -2109 0
631 -2110 0
631 -2111 -619 0
632 -1877 -1878 -1907 633 0
-632 1907 0
-632 -633 0
-632 1877 0
-632 1878 0
633 2101 -2102 -2103 -634 0
-633 -2101 0
-633 634 0
-633 2103 0
-633 2102 0
634 -2104 -2105 0
634 -2104 -635 0
634 -2104 -2106 0
-634 2104 0
-634 2105 2106 635 0
635 -2107 -2108 -636 0
635 -2107 -2108 -2109 0
-635 2107 0
-635 2108 0
-635 2109 636 0
-636 2110 637 0
-636 2110 2111 0
636 -2110 0
636 -2111 -637 0
637 -2112 -638 0
-637 2112 0
-637 638 0
638 -2113 -2114 -2116 0
638 -2113 -2114 -2115 0
-638 2113 0
-638 2114 0
-638 2115 2116 0
639 -2101 -628 0
639 2102 -628 0
639 -628 640 0
-639 628 0
-639 2101 -2102 -640 0
-640 2103 2104 641 0
-640 2103 2104 2105 0
640 -2103 0
640 -2104 0
640 -2105 -641 0
641 -2106 -2107 0
641 -2106 -642 0
641 -2106 -2108 0
-641 2106 0
-641 2107 2108 642 0
-642 2109 2110 643 0
-642 2109 2110 2111 0
642 -2109 0
642 -2110 0
642 -2111 -643 0
-643 2112 638 0
643 -2112 0
643 -638 0
644 -2180 -614 0
644 -2180 620 -645 0
-644 2180 0
-644 614 645 0
-644 614 -620 0
-645 627 -632 0
-645 627 639 646 0
645 -627 0
645 632 -646 0
645 632 -639 0
646 -1878 647 0
-646 1878 0
-646 -647 0
647 -2101 -621 0
647 2102 -621 648 0
-647 621 0
-647 2101 -648 0
-647 2101 -2102 0
648 -2103 -2104 0
648 -2103 -649 0
648 -2103 -2105 0
-648 2103 0
-648 2104 2105 649 0
649 -2106 -2107 0
649 -2106 -2108 -650 0
-649 2106 0
-649 2107 650 0
-649 2107 2108 0
-650 2109 2110 2111 637 0
650 -637 0
650 -2111 0
650 -2109 0
650 -2110 0
651 -2180 652 0
-651 2180 0
-651 -652 0
652 -1880 1907 0
652 1880 -1907 -669 0
652 -1880 653 0
-652 1880 669 0
-652 -1880 -1907 -653 0
-652 1880 1907 0
653 -1977 -654 0
653 -654 -655 0
653 -1978 -654 0
-653 654 0
-653 1977 1978 655 0
654 -1883 -1884 0
-654 1883 0
-654 1884 0
655 1916 2101 -656 0
655 2101 -2102 -656 0
655 1916 2101 -2102 0
-655 -1916 2102 0
-655 -1916 656 0
-655 -2101 0
-655 2102 656 0
-656 -1917 657 0
-656 -1917 2103 0
-656 2103 657 0
656 -2103 -657 0
656 1917 -657 0
656 1917 -2103 0
-657 -1918 658 0
-657 -1918 2104 0
-657 2104 658 0
657 -2104 -658 0
657 1918 -658 0
657 1918 -2104 0
-658 -1919 659 0
-658 -1919 2105 0
-658 2105 659 0
658 -2105 -659 0
658 1919 -659 0
658 1919 -2105 0
-659 -1920 660 0
-659 -1920 2106 0
-659 2106 660 0
659 -2106 -660 0
659 1920 -660 0
659 1920 -2106 0
-660 -1921 661 0
-660 -1921 2107 0
-660 2107 661 0
660 -2107 -661 0
660 1921 -661 0
660 1921 -2107 0
-661 -1922 662 0
-661 -1922 2108 0
-661 2108 662 0
661 -2108 -662 0
661 1922 -662 0
661 1922 -2108 0
-662 -1923 663 0
-662 -1923 2109 0
-662 2109 663 0
662 -2109 -663 0
662 1923 -663 0
662 1923 -2109 0
-663 -1924 664 0
-663 -1924 2110 0
-663 2110 664 0
663 -2110 -664 0
663 1924 -664 0
663 1924 -2110 0
-664 -1925 665 0
-664 -1925 2111 0
-664 2111 665 0
664 -2111 -665 0
664 1925 -665 0
664 1925 -2111 0
-665 -1926 666 0
-665 -1926 2112 0
-665 2112 666 0
665 -2112 -666 0
665 1926 -666 0
665 1926 -2112 0
-666 -1927 667 0
-666 -1927 2113 0
-666 2113 667 0
666 -2113 -667 0
666 1927 -667 0
666 1927 -2113 0
-667 -1928 668 0
-667 -1928 2114 0
-667 2114 668 0
667 -2114 -668 0
667 1928 -668 0
667 1928 -2114 0
-668 -1929 -1930 0
-668 -1930 2115 0
-668 -1929 2115 0
-668 2115 2116 0
-668 -1929 2116 0
668 1929 -2115 0
668 1930 -2115 -2116 0
668 1929 1930 -2116 0
669 1977 1978 -654 670 0
-669 -1977 0
-669 -670 0
-669 654 0
-669 -1978 0
670 -1976 -655 0
-670 1976 0
-670 655 0
671 -2180 672 0
-671 2180 0
-671 -672 0
-672 1881 -673 0
-672 -1881 -1907 -138 0
-672 1881 1907 0
672 -1881 138 0
672 -1881 1907 0
672 1881 -1907 673 0
-673 139 -317 0
-673 139 -674 0
-673 139 318 0
673 -139 0
673 317 -318 674 0
-674 321 323 325 675 0
674 -675 0
674 -325 0
674 -321 0
674 -323 0
-675 328 330 0
-675 328 332 676 0
675 -328 0
675 -330 -332 0
675 -330 -676 0
-676 335 337 0
-676 335 339 677 0
676 -335 0
676 -337 -339 0
676 -337 -677 0
677 -342 -344 -678 0
-677 342 0
-677 344 0
-677 678 0
-678 -303 -679 346 680 0
-678 303 679 346 680 0
678 -346 0
678 -303 679 0
678 -680 0
678 303 -679 0
-679 -2114 -296 0
-679 2114 296 0
679 2114 -296 0
679 -2114 296 0
-680 -2116 -312 681 0
-680 2116 312 681 0
680 -681 0
680 -2116 312 0
680 2116 -312 0
-681 -2115 -304 0
-681 2115 304 0
681 2115 -304 0
681 -2115 304 0
682 -2180 683 0
-682 2180 0
-682 -683 0
683 -1882 1907 0
683 1882 -1907 349 0
683 -1882 -349 0
683 -1907 1980 0
-683 1882 1907 0
-683 1882 -1980 -349 0
-683 -1882 -1907 -1980 349 0
684 -2180 685 -697 0
684 -2180 685 698 0
-684 2180 0
-684 -685 0
-684 697 -698 0
685 686 689 692 -693 0
-685 693 0
-685 -686 0
-685 -692 0
-685 -689 0
-686 102 103 0
-686 687 688 0
-686 102 688 0
-686 103 687 0
686 -102 -687 0
686 -103 -688 0
-687 -2002 -521 0
-687 2002 521 0
687 2002 -521 0
687 -2002 521 0
-688 -2021 -528 0
-688 2021 528 0
688 2021 -528 0
688 -2021 528 0
-689 690 691 0
689 -690 0
689 -691 0
690 2002 2003 -102 0
-690 102 0
-690 -2003 0
-690 -2002 0
691 2021 2022 -103 0
-691 103 0
-691 -2022 0
-691 -2021 0
-692 90 93 0
-692 687 688 0
-692 90 688 0
-692 93 687 0
692 -90 -687 0
692 -93 -688 0
693 -1998 694 0
-693 1998 0
-693 -694 0
-694 695 696 0
694 -695 0
694 -696 0
695 2002 2003 -90 0
-695 90 0
-695 -2003 0
-695 -2002 0
696 2021 2022 -93 0
-696 93 0
-696 -2022 0
-696 -2021 0
697 -1998 -694 0
-697 1998 0
-697 694 0
698 -1883 699 0
698 699 -700 0
-698 -699 0
-698 1883 700 0
699 -1998 -689 0
-699 1998 0
-699 689 0
700 -1998 -692 0
700 -1998 -686 0
-700 1998 0
-700 686 692 0
701 -2180 685 -697 0
701 -2180 685 702 0
-701 2180 0
-701 -685 0
-701 697 -702 0
-702 699 -700 0
-702 1884 699 0
702 -699 0
702 -1884 700 0
703 704 705 -709 0
-703 -704 0
-703 709 0
-703 -705 0
704 -1998 -686 692 0
-704 1998 0
-704 686 0
-704 -692 0
705 -700 -706 0
-705 700 0
-705 706 0
-706 93 707 0
-706 90 708 0
-706 707 708 0
-706 90 93 0
706 -90 -707 0
706 -93 -708 0
707 2002 -2003 -2004 0
-707 2004 0
-707 2003 0
-707 -2002 0
708 2021 -2022 -2023 0
-708 2023 0
-708 2022 0
-708 -2021 0
-709 710 -719 0
-709 710 -714 0
-709 1885 710 0
709 -710 0
709 -1885 714 719 0
710 -700 706 -711 0
-710 700 0
-710 -706 0
-710 711 0
-711 93 712 0
-711 90 713 0
-711 712 713 0
-711 90 93 0
711 -90 -712 0
711 -93 -713 0
712 -2002 -2003 2004 0
-712 2002 0
-712 2003 0
-712 -2004 0
713 -2021 -2022 2023 0
-713 2021 0
-713 2022 0
-713 -2023 0
714 -700 -715 718 0
-714 700 0
-714 715 0
-714 -718 0
-715 93 716 0
-715 90 717 0
-715 716 717 0
-715 90 93 0
715 -90 -716 0
715 -93 -717 0
716 -2002 2003 2004 0
-716 2002 0
-716 -2004 0
-716 -2003 0
717 -2021 2022 2023 0
-717 2021 0
-717 -2023 0
-717 -2022 0
-718 706 711 0
718 -706 0
718 -711 0
719 -700 715 718 -720 0
-719 -718 0
-719 720 0
-719 700 0
-719 -715 0
-720 93 721 0
-720 90 722 0
-720 721 722 0
-720 90 93 0
720 -90 -721 0
720 -93 -722 0
721 -2002 2003 -2004 0
-721 2002 0
-721 -2003 0
-721 2004 0
722 -2021 2022 -2023 0
-722 2021 0
-722 -2022 0
-722 2023 0
723 704 705 710 -724 0
-723 724 0
-723 -710 0
-723 -704 0
-723 -705 0
-724 1886 714 719 0
724 -1886 0
724 -719 0
724 -714 0
725 704 -705 0
725 704 -726 0
-725 -704 0
-725 705 726 0
726 710 714 -719 0
726 -1887 710 714 0
-726 -714 0
-726 -710 0
-726 1887 719 0
727 728 729 -731 0
-727 -728 0
-727 731 0
-727 -729 0
728 -1998 686 -692 0
-728 1998 0
-728 -686 0
-728 692 0
729 -700 -730 0
-729 700 0
-729 730 0
-730 103 707 0
-730 102 708 0
-730 707 708 0
-730 102 103 0
730 -102 -707 0
730 -103 -708 0
-731 732 -737 0
-731 732 -734 0
-731 1888 732 0
731 -732 0
731 -1888 734 737 0
732 -700 730 -733 0
-732 700 0
-732 -730 0
-732 733 0
-733 103 712 0
-733 102 713 0
-733 712 713 0
-733 102 103 0
733 -102 -712 0
733 -103 -713 0
734 -700 -735 736 0
-734 700 0
-734 735 0
-734 -736 0
-735 103 716 0
-735 102 717 0
-735 716 717 0
-735 102 103 0
735 -102 -716 0
735 -103 -717 0
-736 730 733 0
736 -730 0
736 -733 0
737 -700 735 736 -738 0
-737 -736 0
-737 738 0
-737 700 0
-737 -735 0
-738 103 721 0
-738 102 722 0
-738 721 722 0
-738 102 103 0
738 -102 -721 0
738 -103 -722 0
739 728 729 -740 0
-739 740 0
-739 -729 0
-739 -728 0
740 732 -737 0
740 -1889 732 0
740 732 -734 0
-740 -732 0
-740 1889 734 737 0
741 728 -729 0
741 728 -742 0
-741 -728 0
-741 729 742 0
742 732 734 -737 0
742 -1890 732 734 0
-742 -734 0
-742 -732 0
-742 1890 737 0
743 -2180 -744 0
743 -2180 -837 0
-743 2180 0
-743 744 837 0
744 1891 -1910 -111 0
744 1891 -1910 -745 0
-744 -1891 0
-744 1910 0
-744 111 745 0
-745 -746 749 0
-745 746 752 792 0
745 -746 -749 0
745 746 -792 0
745 746 -752 0
746 1885 1886 -747 748 0
-746 -1885 0
-746 -748 0
-746 747 0
-746 -1886 0
747 -1883 1884 0
-747 1883 0
-747 -1884 0
-748 1888 1889 0
748 -1888 0
748 -1889 0
749 -1963 1965 0
749 -1963 1964 0
749 -1963 750 0
-749 1963 0
-749 -1964 -1965 -750 0
-750 1966 1967 751 0
-750 1966 1967 1968 0
750 -1966 0
750 -1967 0
750 -1968 -751 0
751 -1969 -1970 0
-751 1969 0
-751 1970 0
752 -1963 -753 0
-752 1963 0
-752 753 0
753 -754 790 0
-753 754 0
-753 -790 0
-754 755 788 0
754 -755 0
754 -788 0
-755 756 786 0
755 -756 0
755 -786 0
-756 757 784 0
756 -757 0
756 -784 0
757 -758 -766 0
-757 758 0
-757 766 0
758 759 760 761 -762 0
-758 762 0
-758 -761 0
-758 -759 0
-758 -760 0
-759 1884 -511 0
-759 1884 -1885 0
-759 1883 1884 0
759 -1884 0
759 -1883 1885 511 0
760 1885 -1886 -1887 -747 0
-760 -1885 0
-760 747 0
-760 1887 0
-760 1886 0
761 1885 -1886 1887 -747 0
-761 1886 0
-761 -1887 0
-761 -1885 0
-761 747 0
762 -131 763 764 0
762 -442 763 764 0
-762 -764 0
-762 -763 0
-762 131 442 0
763 -1885 1886 1887 -747 0
-763 747 0
-763 -1887 0
-763 1885 0
-763 -1886 0
764 -747 -765 0
-764 747 0
-764 765 0
765 1885 1886 -1887 0
-765 1887 0
-765 -1886 0
-765 -1885 0
-766 767 782 0
766 -767 0
766 -782 0
-767 768 780 0
767 -768 0
767 -780 0
768 -769 -771 0
-768 769 0
-768 771 0
769 759 -760 0
769 759 761 -770 0
-769 -759 0
-769 760 770 0
-769 760 -761 0
770 -131 763 764 0
770 -470 763 764 0
-770 -764 0
-770 -763 0
-770 131 470 0
-771 772 778 0
771 -772 0
771 -778 0
772 -773 -776 0
-772 773 0
-772 776 0
773 759 -774 0
-773 -759 0
-773 774 0
774 760 -775 0
774 760 -763 0
774 760 -761 0
-774 -760 0
-774 761 763 775 0
775 -497 764 0
775 -131 764 0
-775 -764 0
-775 131 497 0
776 760 761 -777 0
776 760 761 -763 0
-776 -760 0
-776 -761 0
-776 763 777 0
777 -488 764 0
777 -131 764 0
-777 -764 0
-777 131 488 0
778 759 -760 0
778 759 -779 0
778 759 -761 0
-778 -759 0
-778 760 761 779 0
779 -131 763 764 0
779 -479 763 764 0
-779 -764 0
-779 -763 0
-779 131 479 0
780 759 760 761 -781 0
-780 781 0
-780 -761 0
-780 -759 0
-780 -760 0
781 -131 763 764 0
781 -461 763 764 0
-781 -764 0
-781 -763 0
-781 131 461 0
782 759 760 761 -783 0
-782 783 0
-782 -761 0
-782 -759 0
-782 -760 0
783 -131 763 764 0
783 -451 763 764 0
-783 -764 0
-783 -763 0
-783 131 451 0
784 759 760 761 -785 0
-784 785 0
-784 -761 0
-784 -759 0
-784 -760 0
-785 763 -764 0
-785 131 433 763 0
785 -763 0
785 -433 764 0
785 -131 764 0
786 759 760 -761 0
786 759 760 -787 0
-786 -759 0
-786 -760 0
-786 761 787 0
-787 763 -764 0
-787 131 422 763 0
787 -763 0
787 -422 764 0
787 -131 764 0
788 759 -760 0
788 759 -789 0
788 759 -761 0
-788 -759 0
-788 760 761 789 0
-789 763 -764 0
-789 131 413 763 0
789 -763 0
789 -413 764 0
789 -131 764 0
-790 759 760 761 791 0
790 -791 0
790 -761 0
790 -759 0
790 -760 0
-791 763 -764 0
-791 131 358 763 0
791 -763 0
791 -358 764 0
791 -131 764 0
792 -1963 752 793 0
792 -753 752 793 0
-792 -793 0
-792 -752 0
-792 1963 753 0
793 -1963 -795 0
793 -1963 -794 0
793 -794 -795 0
-793 794 795 0
-793 1963 795 0
-793 1963 794 0
-794 754 790 0
-794 -754 -790 0
794 -754 790 0
794 754 -790 0
795 -1964 -797 0
795 -1964 -796 0
795 -796 -797 0
-795 796 797 0
-795 1964 797 0
-795 1964 796 0
-796 -755 -788 0
-796 755 788 0
796 755 -788 0
796 -755 788 0
797 -1965 -799 0
797 -1965 -798 0
797 -798 -799 0
-797 798 799 0
-797 1965 799 0
-797 1965 798 0
-798 -756 -786 0
-798 756 786 0
798 756 -786 0
798 -756 786 0
799 -1966 -801 0
799 -1966 -800 0
799 -800 -801 0
-799 800 801 0
-799 1966 801 0
-799 1966 800 0
-800 -757 -784 0
-800 757 784 0
800 757 -784 0
800 -757 784 0
801 -1967 -803 0
801 -1967 802 0
801 802 -803 0
-801 -802 803 0
-801 1967 803 0
-801 1967 -802 0
802 -758 766 0
802 758 -766 0
-802 758 766 0
-802 -758 -766 0
803 -1968 -805 0
803 -1968 -804 0
803 -804 -805 0
-803 804 805 0
-803 1968 805 0
-803 1968 804 0
-804 -767 -782 0
-804 767 782 0
804 767 -782 0
804 -767 782 0
805 -1969 -807 0
805 -1969 -806 0
805 -806 -807 0
-805 806 807 0
-805 1969 807 0
-805 1969 806 0
-806 -768 -780 0
-806 768 780 0
806 768 -780 0
806 -768 780 0
807 -1970 -809 0
807 -1970 808 0
807 808 -809 0
-807 -808 809 0
-807 1970 809 0
-807 1970 -808 0
808 -769 771 0
808 769 -771 0
-808 769 771 0
-808 -769 -771 0
809 -1971 -811 0
809 -1971 -810 0
809 -810 -811 0
-809 810 811 0
-809 1971 811 0
-809 1971 810 0
-810 -772 -778 0
-810 772 778 0
810 772 -778 0
810 -772 778 0
811 -1972 -814 0
811 -1972 812 0
811 812 -814 0
-811 -812 814 0
-811 1972 814 0
-811 1972 -812 0
812 774 -813 0
812 759 -774 813 0
-812 -759 -774 0
-812 774 813 0
-812 -774 -813 0
813 759 -776 0
-813 -759 0
-813 776 0
814 -1973 -813 0
814 -813 815 0
814 -1973 815 0
-814 1973 -815 0
-814 813 -815 0
-814 1973 813 0
-815 -1974 -1975 0
-815 -1975 816 0
-815 -1974 816 0
-815 816 826 0
-815 -1974 826 0
815 1974 -816 0
815 1975 -816 -826 0
815 1974 1975 -826 0
816 759 760 761 -817 0
-816 817 0
-816 -761 0
-816 -759 0
-816 -760 0
817 763 764 -818 0
817 -131 763 764 0
-817 -764 0
-817 -763 0
-817 131 818 0
818 130 -819 0
818 -130 -399 825 0
-818 -130 399 0
-818 130 819 0
-818 -130 -825 0
819 119 -820 0
819 -119 -428 824 0
-819 -119 428 0
-819 119 820 0
-819 -119 -824 0
820 106 111 -821 0
-820 821 0
-820 -111 0
-820 -106 0
821 110 -822 0
821 -1974 -110 -401 0
-821 110 822 0
-821 -110 401 0
-821 1974 -110 0
822 96 -823 0
822 -1974 -96 -367 0
-822 1974 -96 0
-822 96 823 0
-822 -96 367 0
-823 2054 362 0
823 -2054 0
823 -362 0
-824 -2054 366 0
-824 -1974 365 0
-824 -1974 -2054 0
-824 366 365 0
824 2054 -365 0
824 1974 -366 0
-825 -2054 400 0
-825 -1974 411 0
-825 -1974 -2054 0
-825 400 411 0
825 2054 -411 0
825 1974 -400 0
826 759 760 761 -827 0
-826 827 0
-826 -761 0
-826 -759 0
-826 -760 0
827 763 764 -828 0
827 -131 763 764 0
-827 -764 0
-827 -763 0
-827 131 828 0
828 -130 -835 0
828 130 -829 833 0
-828 130 829 0
-828 -130 835 0
-828 130 -833 0
-829 -111 119 0
-829 119 830 0
-829 -106 119 0
829 -119 0
829 106 111 -830 0
830 110 -831 0
830 -1975 -110 -401 0
-830 110 831 0
-830 -110 401 0
-830 1975 -110 0
831 96 -832 0
831 -1975 -96 -367 0
-831 1975 -96 0
-831 96 832 0
-831 -96 367 0
-832 2055 362 0
832 -2055 0
832 -362 0
833 -119 834 0
833 1975 -119 -366 0
-833 119 0
-833 -1975 -834 0
-833 366 -834 0
834 -2055 -428 0
834 365 -428 0
-834 428 0
-834 2055 -365 0
835 -1975 -399 836 0
835 400 -399 836 0
-835 -836 0
-835 399 0
-835 1975 -400 0
836 2055 -411 0
-836 -2055 0
-836 411 0
837 -1891 1910 0
837 -1891 838 851 0
-837 1891 0
-837 -1910 -838 0
-837 -1910 -851 0
838 -746 749 839 -843 0
-838 843 0
-838 -839 0
-838 746 0
-838 -749 0
839 1963 -1964 0
839 1963 -840 0
839 1963 -1965 0
-839 -1963 0
-839 1964 1965 840 0
-840 1966 1968 0
-840 1966 1967 0
-840 1966 841 0
840 -1966 0
840 -1967 -1968 -841 0
841 -1969 -1970 -1971 -842 0
-841 1971 0
-841 842 0
-841 1969 0
-841 1970 0
-842 1972 1973 0
842 -1972 0
842 -1973 0
-843 121 844 0
843 -121 0
843 -844 0
844 -2037 -845 0
844 -845 -850 0
844 -2037 -850 0
-844 2037 850 0
-844 845 850 0
-844 2037 845 0
845 -2038 848 0
845 -2039 -846 848 0
845 -2038 -2039 -846 0
-845 2038 -848 0
-845 846 -848 0
-845 2038 846 0
-845 2039 -848 0
-845 2038 2039 0
846 -131 847 0
-846 131 0
-846 -847 0
847 -1885 1886 1887 -747 0
847 1885 -1886 -1887 -747 0
-847 -1886 1887 0
-847 -1885 -1887 0
-847 747 0
-847 1885 1886 0
848 -131 -849 0
-848 131 0
-848 849 0
849 -1885 1886 1887 -747 0
849 1885 -1886 1887 -747 0
-849 747 0
-849 1885 1886 0
-849 -1887 0
-849 -1885 -1886 0
850 -131 764 0
-850 131 0
-850 -764 0
-851 -852 0
-851 -746 866 0
-851 844 866 0
851 852 -866 0
851 746 -844 852 0
852 -1963 -855 0
852 -1963 759 853 0
852 759 853 -855 0
-852 -759 855 0
-852 1963 -853 0
-852 -853 855 0
-852 1963 -759 0
-852 1963 855 0
-853 760 761 763 854 0
853 -854 0
853 -763 0
853 -760 0
853 -761 0
854 -358 764 0
854 -131 764 0
-854 -764 0
-854 131 358 0
855 1964 -788 0
855 -788 -856 0
855 1964 -856 0
-855 788 856 0
-855 -1964 788 0
-855 -1964 856 0
856 1965 -786 0
856 -786 -857 0
856 1965 -857 0
-856 786 857 0
-856 -1965 786 0
-856 -1965 857 0
857 1966 -784 0
857 -784 -858 0
857 1966 -858 0
-857 784 858 0
-857 -1966 784 0
-857 -1966 858 0
858 1967 -758 0
858 -758 -859 0
858 1967 -859 0
-858 758 859 0
-858 -1967 758 0
-858 -1967 859 0
859 1968 -782 0
859 -782 -860 0
859 1968 -860 0
-859 782 860 0
-859 -1968 782 0
-859 -1968 860 0
860 1969 -780 0
860 -780 -861 0
860 1969 -861 0
-860 780 861 0
-860 -1969 780 0
-860 -1969 861 0
861 1970 -769 0
861 -769 -862 0
861 1970 -862 0
-861 769 862 0
-861 -1970 769 0
-861 -1970 862 0
862 1971 -778 0
862 -778 -863 0
862 1971 -863 0
-862 778 863 0
-862 -1971 778 0
-862 -1971 863 0
863 1972 -773 0
863 -773 -864 0
863 1972 -864 0
-863 773 864 0
-863 -1972 773 0
-863 -1972 864 0
864 1973 -813 0
864 -813 -865 0
864 1973 -865 0
-864 813 865 0
-864 -1973 813 0
-864 -1973 865 0
865 1974 -816 0
865 1975 -816 -826 0
865 1974 1975 -826 0
-865 -1974 -1975 0
-865 -1975 816 0
-865 -1974 816 0
-865 816 826 0
-865 -1974 826 0
866 -121 746 0
-866 121 0
-866 -746 0
867 -2180 -868 0
-867 2180 0
-867 868 0
-868 1892 869 0
-868 -1892 -1911 -944 0
-868 1892 1911 0
868 -1892 1911 0
868 1892 -1911 -869 0
868 -1892 944 0
-869 106 -746 940 0
-869 106 746 870 0
869 -106 0
869 -746 -940 0
869 746 -870 0
-870 871 912 0
870 -871 0
870 -912 0
871 1963 -872 0
-871 -1963 0
-871 872 0
872 -873 -910 0
-872 873 0
-872 910 0
-873 874 908 0
873 -874 0
873 -908 0
-874 875 906 0
874 -875 0
874 -906 0
-875 876 904 0
875 -876 0
875 -904 0
876 -877 -902 0
-876 877 0
-876 902 0
-877 878 900 0
877 -878 0
877 -900 0
-878 879 898 0
878 -879 0
878 -898 0
879 -880 -896 0
-879 880 0
-879 896 0
-880 881 894 0
880 -881 0
880 -894 0
881 -882 -889 0
-881 882 0
-881 889 0
-882 883 884 886 0
-882 883 884 -885 0
882 -883 0
882 -884 0
882 885 -886 0
883 1888 -1889 -1890 -747 0
-883 -1888 0
-883 747 0
-883 1890 0
-883 1889 0
884 1888 -1889 1890 -747 0
-884 1889 0
-884 -1890 0
-884 -1888 0
-884 747 0
885 -1888 1889 1890 -747 0
-885 747 0
-885 -1890 0
-885 1888 0
-885 -1889 0
-886 -488 887 0
-886 120 887 0
886 -887 0
886 -120 488 0
887 -747 -888 0
-887 747 0
-887 888 0
888 1888 1889 -1890 0
-888 1890 0
-888 -1889 0
-888 -1888 0
889 -890 -892 0
-889 890 0
-889 892 0
890 1883 -1884 0
890 -1883 1884 -1888 0
890 -1883 1884 -891 0
-890 -1883 -1884 0
-890 1883 1884 0
-890 1884 1888 891 0
-891 1889 1890 0
891 -1889 0
891 -1890 0
-892 883 -884 0
-892 883 885 893 0
892 -883 0
892 884 -893 0
892 884 -885 0
-893 -497 887 0
-893 120 887 0
893 -887 0
893 -120 497 0
894 883 -884 -890 0
894 883 -890 -895 0
-894 -883 0
-894 890 0
-894 884 895 0
895 885 -887 0
895 -120 479 885 0
-895 -885 0
-895 -479 887 0
-895 120 887 0
896 -883 -890 0
896 884 -890 -897 0
-896 890 0
-896 883 -884 0
-896 883 897 0
897 885 -887 0
897 -120 470 885 0
-897 -885 0
-897 -470 887 0
-897 120 887 0
898 883 884 -890 -899 0
-898 -883 0
-898 899 0
-898 890 0
-898 -884 0
899 885 -887 0
899 -120 461 885 0
-899 -885 0
-899 -461 887 0
-899 120 887 0
900 883 884 -890 -901 0
-900 -883 0
-900 901 0
-900 890 0
-900 -884 0
901 885 -887 0
901 -120 451 885 0
-901 -885 0
-901 -451 887 0
-901 120 887 0
902 883 884 -890 -903 0
-902 -883 0
-902 903 0
-902 890 0
-902 -884 0
903 885 -887 0
903 -120 442 885 0
-903 -885 0
-903 -442 887 0
-903 120 887 0
904 883 884 -890 -905 0
-904 -883 0
-904 905 0
-904 890 0
-904 -884 0
-905 120 885 887 0
-905 -433 885 887 0
905 -887 0
905 -885 0
905 -120 433 0
906 883 -884 -890 0
906 883 -890 -907 0
-906 -883 0
-906 890 0
-906 884 907 0
-907 120 885 887 0
-907 -422 885 887 0
907 -887 0
907 -885 0
907 -120 422 0
908 -883 -890 0
908 -890 -909 0
908 -884 -890 0
-908 890 0
-908 883 884 909 0
-909 120 885 887 0
-909 -413 885 887 0
909 -887 0
909 -885 0
909 -120 413 0
910 883 884 -890 911 0
-910 -883 0
-910 -911 0
-910 890 0
-910 -884 0
-911 120 885 887 0
-911 -358 885 887 0
911 -887 0
911 -885 0
911 -120 358 0
912 913 -914 0
-912 -913 0
-912 914 0
913 -1963 872 0
-913 1963 0
-913 -872 0
914 -1963 873 0
914 -1963 -915 0
914 -1963 910 0
914 -873 910 -915 0
914 873 -910 -915 0
-914 1963 873 910 0
-914 -873 -910 915 0
-914 1963 915 0
-914 1963 -873 -910 0
-915 1964 -916 0
-915 -916 917 0
-915 1964 917 0
915 916 -917 0
915 -1964 916 0
915 -1964 -917 0
916 874 -908 0
916 -874 908 0
-916 -874 -908 0
-916 874 908 0
-917 1965 -918 0
-917 -918 919 0
-917 1965 919 0
917 918 -919 0
917 -1965 918 0
917 -1965 -919 0
918 875 -906 0
918 -875 906 0
-918 -875 -906 0
-918 875 906 0
-919 1966 -920 0
-919 -920 921 0
-919 1966 921 0
919 920 -921 0
919 -1966 920 0
919 -1966 -921 0
920 876 -904 0
920 -876 904 0
-920 -876 -904 0
-920 876 904 0
-921 1967 922 0
-921 922 923 0
-921 1967 923 0
921 -922 -923 0
921 -1967 -922 0
921 -1967 -923 0
-922 -877 -902 0
-922 877 902 0
922 877 -902 0
922 -877 902 0
-923 1968 -924 0
-923 -924 925 0
-923 1968 925 0
923 924 -925 0
923 -1968 924 0
923 -1968 -925 0
924 878 -900 0
924 -878 900 0
-924 -878 -900 0
-924 878 900 0
-925 1969 -926 0
-925 -926 927 0
-925 1969 927 0
925 926 -927 0
925 -1969 926 0
925 -1969 -927 0
926 879 -898 0
926 -879 898 0
-926 -879 -898 0
-926 879 898 0
-927 1970 928 0
-927 928 929 0
-927 1970 929 0
927 -928 -929 0
927 -1970 -928 0
927 -1970 -929 0
-928 -880 -896 0
-928 880 896 0
928 880 -896 0
928 -880 896 0
-929 1971 -930 0
-929 -930 931 0
-929 1971 931 0
929 930 -931 0
929 -1971 930 0
929 -1971 -931 0
930 881 -894 0
930 -881 894 0
-930 -881 -894 0
-930 881 894 0
-931 1972 932 0
-931 932 933 0
-931 1972 933 0
931 -932 -933 0
931 -1972 -932 0
931 -1972 -933 0
-932 890 0
-932 882 892 0
-932 -882 -892 0
932 -882 -890 892 0
932 882 -890 -892 0
-933 1973 -934 0
-933 -934 935 0
-933 1973 935 0
933 934 -935 0
933 -1973 934 0
933 -1973 -935 0
934 -882 -890 0
-934 882 0
-934 890 0
-935 936 938 0
-935 1974 1975 0
-935 1974 936 0
-935 1975 936 0
-935 1974 938 0
935 -1974 -936 0
935 -1974 -1975 -938 0
935 -1975 -936 -938 0
936 -883 -890 0
936 -890 -937 0
936 -884 -890 0
-936 890 0
-936 883 884 937 0
-937 120 885 887 0
-937 -818 885 887 0
937 -887 0
937 -885 0
937 -120 818 0
938 -883 -890 0
938 -890 -939 0
938 -884 -890 0
-938 890 0
-938 883 884 939 0
-939 120 885 887 0
-939 -828 885 887 0
939 -887 0
939 -885 0
939 -120 828 0
940 1963 -941 0
940 1963 -1965 0
940 1963 -1964 0
-940 -1963 0
-940 1964 1965 941 0
941 -1966 -1967 -942 0
941 -1966 -1967 -1968 0
-941 1966 0
-941 1967 0
-941 1968 942 0
-942 1969 1970 0
-942 1969 1971 943 0
942 -1969 0
942 -1970 -1971 0
942 -1970 -943 0
-943 1972 1973 1974 1975 0
943 -1975 0
943 -1974 0
943 -1972 0
943 -1973 0
-944 945 957 975 0
-944 746 957 975 0
944 -975 0
944 -957 0
944 -746 -945 0
945 -1963 1964 -949 0
945 -1963 946 -949 0
-945 1963 0
-945 949 0
-945 -1964 -946 0
946 -1965 -1966 -947 0
946 -1965 -1966 -1967 0
-946 1965 0
-946 1966 0
-946 1967 947 0
-947 1968 1969 1970 948 0
947 -948 0
947 -1970 0
947 -1968 0
947 -1969 0
-948 1971 1973 0
-948 1971 1972 0
948 -1971 0
948 -1972 -1973 0
-949 -1891 -843 0
-949 121 950 0
-949 -1891 950 0
949 1891 -121 0
949 843 -950 0
949 1891 -950 0
950 -2040 -951 0
950 -951 956 0
950 -2040 956 0
-950 2040 -956 0
-950 951 -956 0
-950 2040 951 0
951 -2041 954 0
951 -2042 952 954 0
951 -2041 -2042 952 0
-951 2041 -954 0
-951 -952 -954 0
-951 2041 -952 0
-951 2042 -954 0
-951 2041 2042 0
-952 120 953 0
952 -120 0
952 -953 0
953 -1888 1889 1890 -747 0
953 1888 -1889 -1890 -747 0
-953 -1889 1890 0
-953 -1888 -1890 0
-953 747 0
-953 1888 1889 0
954 120 -955 0
-954 -120 0
-954 955 0
955 -1888 1889 1890 -747 0
955 1888 -1889 1890 -747 0
-955 747 0
-955 1888 1889 0
-955 -1890 0
-955 -1888 -1889 0
-956 120 887 0
956 -120 0
956 -887 0
957 1891 746 -950 958 0
-957 -1891 0
-957 -958 0
-957 950 0
-957 -746 0
958 1963 -961 0
958 1963 -890 959 0
958 -890 959 -961 0
-958 890 961 0
-958 -1963 -959 0
-958 -1963 961 0
-958 -959 961 0
-958 -1963 890 0
-959 883 884 885 960 0
959 -960 0
959 -885 0
959 -883 0
959 -884 0
-960 -358 887 0
-960 120 887 0
960 -887 0
960 -120 358 0
961 -962 963 0
961 963 -964 0
-961 -963 0
-961 962 964 0
962 -1963 910 0
-962 1963 0
-962 -910 0
963 1963 -910 0
-963 -1963 0
-963 910 0
964 -1964 -908 0
964 -908 -965 0
964 -1964 -965 0
-964 1964 965 0
-964 908 965 0
-964 1964 908 0
965 -1965 -906 0
965 -906 -966 0
965 -1965 -966 0
-965 1965 966 0
-965 906 966 0
-965 1965 906 0
966 -1966 -904 0
966 -904 -967 0
966 -1966 -967 0
-966 1966 967 0
-966 904 967 0
-966 1966 904 0
967 -1967 -902 0
967 -902 -968 0
967 -1967 -968 0
-967 1967 968 0
-967 902 968 0
-967 1967 902 0
968 -1968 -900 0
968 -900 -969 0
968 -1968 -969 0
-968 1968 969 0
-968 900 969 0
-968 1968 900 0
969 -1969 -898 0
969 -898 -970 0
969 -1969 -970 0
-969 1969 970 0
-969 898 970 0
-969 1969 898 0
970 -1970 -896 0
970 -896 -971 0
970 -1970 -971 0
-970 1970 971 0
-970 896 971 0
-970 1970 896 0
971 -1971 -894 0
971 -894 -972 0
971 -1971 -972 0
-971 1971 972 0
-971 894 972 0
-971 1971 894 0
972 -1972 -889 0
972 -889 -973 0
972 -1972 -973 0
-972 1972 973 0
-972 889 973 0
-972 1972 889 0
973 -1973 -934 0
973 -934 -974 0
973 -1973 -974 0
-973 1973 974 0
-973 934 974 0
-973 1973 934 0
974 -1974 -936 0
974 -1974 -1975 -938 0
974 -1975 -936 -938 0
-974 936 938 0
-974 1974 1975 0
-974 1974 936 0
-974 1975 936 0
-974 1974 938 0
-975 950 976 0
-975 -958 976 0
-975 -746 976 0
975 -976 0
975 746 -950 958 0
-976 950 0
-976 -958 0
-976 866 -977 0
976 -950 958 977 0
976 -866 -950 958 0
-977 121 746 844 0
977 -121 0
977 -844 0
977 -746 0
978 -2180 979 987 0
-978 2180 0
-978 -987 0
-978 -979 0
979 980 -981 0
-979 -980 0
-979 981 0
980 124 126 -127 0
980 124 -125 126 0
-980 -124 0
-980 -126 0
-980 125 127 0
981 982 -984 0
-981 -982 0
-981 984 0
-982 127 983 0
-982 -2018 983 0
-982 -2019 983 0
982 -983 0
982 2018 2019 -127 0
983 1999 2000 -125 0
-983 125 0
-983 -2000 0
-983 -1999 0
984 -1912 -654 985 0
-984 1912 0
-984 654 0
-984 -985 0
-985 94 986 0
-985 -2025 986 0
-985 -2026 986 0
985 -986 0
985 2025 2026 -94 0
986 2006 2007 -91 0
-986 91 0
-986 -2007 0
-986 -2006 0
987 988 -989 0
987 1891 1892 -988 0
-987 988 989 0
-987 -1891 -988 0
-987 -1892 -988 0
988 -1912 654 0
-988 1912 0
-988 -654 0
989 990 -992 0
989 -1893 990 993 0
-989 -990 0
-989 992 -993 0
-989 1893 992 0
990 -1912 -654 -985 -991 0
-990 654 0
-990 991 0
-990 1912 0
-990 985 0
-991 -1893 -1894 0
-991 1894 1895 0
-991 -1894 -1895 0
991 1894 -1895 0
991 1893 -1894 1895 0
992 -982 -984 -991 0
-992 982 0
-992 984 0
-992 991 0
993 -980 -981 -991 0
-993 980 0
-993 981 0
-993 991 0
994 -2180 995 1003 -1004 0
-994 1004 0
-994 2180 0
-994 -1003 0
-994 -995 0
-995 996 0
-995 997 1001 1002 0
995 -996 -997 0
995 -996 -1002 0
995 -996 -1001 0
996 -2010 -2028 0
996 -2009 -2029 0
996 -2009 -2028 0
996 -2010 -2029 0
-996 2028 2029 0
-996 2009 2010 0
997 1892 998 -999 0
-997 999 0
-997 -998 0
-997 -1892 0
-998 -2010 2028 0
-998 2009 -2029 0
-998 2009 2028 0
-998 -2010 -2029 0
998 -2009 2010 0
998 -2028 2029 0
999 -1912 89 101 1000 0
-999 -1000 0
-999 1912 0
-999 -101 0
-999 -89 0
-1000 2008 2027 0
1000 -2008 0
1000 -2027 0
1001 -1883 998 -999 0
-1001 1883 0
-1001 -998 0
-1001 999 0
1002 1891 998 -999 0
-1002 999 0
-1002 -998 0
-1002 -1891 0
-1003 1912 0
-1003 89 101 0
1003 -1912 -101 0
1003 -1912 -89 0
1004 1005 1013 -1016 0
1004 -1896 1005 1013 0
-1004 -1013 0
-1004 -1005 0
-1004 1896 1016 0
-1005 996 1009 0
-1005 1006 1008 1009 0
1005 -1009 0
1005 -996 -1008 0
1005 -996 -1006 0
1006 1892 998 -1007 0
-1006 1007 0
-1006 -998 0
-1006 -1892 0
1007 -1912 101 -120 1000 0
-1007 -1000 0
-1007 1912 0
-1007 120 0
-1007 -101 0
1008 1891 998 -1007 0
-1008 1007 0
-1008 -998 0
-1008 -1891 0
-1009 996 0
-1009 -998 0
-1009 1010 1012 0
1009 -996 998 -1012 0
1009 -996 998 -1010 0
1010 1891 -1011 0
-1010 -1891 0
-1010 1011 0
1011 -1912 89 131 1000 0
-1011 -1000 0
-1011 1912 0
-1011 -131 0
-1011 -89 0
1012 1892 -1011 0
-1012 -1892 0
-1012 1011 0
-1013 -1891 0
-1013 -1892 0
-1013 1014 1015 0
1013 1891 1892 -1015 0
1013 1891 1892 -1014 0
1014 -1912 89 131 0
-1014 1912 0
-1014 -89 0
-1014 -131 0
1015 -1912 101 -120 0
-1015 1912 0
-1015 -101 0
-1015 120 0
-1016 1912 0
-1016 1000 0
-1016 1883 1891 0
1016 -1883 -1912 -1000 0
1016 -1891 -1912 -1000 0
1017 -2180 995 1018 0
1017 -2180 995 -1003 0
-1017 2180 0
-1017 -995 0
-1017 1003 -1018 0
1018 1005 -1013 0
1018 -1897 1005 1016 0
-1018 -1005 0
-1018 1013 -1016 0
-1018 1897 1013 0
1019 -2180 995 1003 1020 0
-1019 -1003 0
-1019 -1020 0
-1019 2180 0
-1019 -995 0
1020 -1898 1005 1013 1016 0
-1020 -1016 0
-1020 1898 0
-1020 -1013 0
-1020 -1005 0
1021 -1913 -2180 0
-1021 1913 0
-1021 2180 0
1022 -1912 -2180 0
-1022 1912 0
-1022 2180 0
1023 -2180 -699 0
1023 -2180 -1024 0
1023 -2180 -700 0
-1023 2180 0
-1023 699 700 1024 0
-1024 685 697 0
1024 -685 0
1024 -697 0
1025 -1910 -2180 0
-1025 1910 0
-1025 2180 0
1026 -1911 -2180 0
-1026 1911 0
-1026 2180 0
1027 -1907 -2180 0
-1027 1907 0
-1027 2180 0
1028 -1908 -2180 0
-1028 1908 0
-1028 2180 0
1029 -1914 -2180 0
-1029 1914 0
-1029 2180 0
1030 1914 -2002 0
1030 -1914 2165 -1031 0
-1030 -1914 -2165 0
-1030 1914 2002 0
-1030 -1914 1031 0
-1031 2166 2167 0
1031 -2166 0
1031 -2167 0
1032 1914 -2003 0
1032 -1914 1033 0
-1032 -1914 -1033 0
-1032 1914 2003 0
-1033 -2165 -2171 0
-1033 2165 -2166 -2167 0
-1033 2165 2166 2167 0
1033 -2165 2171 0
1033 2165 -2166 2167 0
1033 2165 2166 -2167 0
1034 1914 -2004 0
1034 -1914 1035 0
-1034 -1914 -1035 0
-1034 1914 2004 0
-1035 2165 2167 0
-1035 -2165 2171 -2172 0
1035 2165 -2167 0
1035 -2165 2172 0
1035 -2165 -2171 0
1036 2180 -1037 0
1036 -2179 -2180 -1060 0
-1036 2179 -2180 0
-1036 2180 1037 0
-1036 -2180 1060 0
1037 -1737 1738 1739 -1038 0
-1037 1038 0
-1037 -1739 0
-1037 1737 0
-1037 -1738 0
1038 1734 -1735 -1736 -1039 0
-1038 -1734 0
-1038 1039 0
-1038 1736 0
-1038 1735 0
1039 -1731 -1732 -1733 -1040 0
-1039 1040 0
-1039 1731 0
-1039 1733 0
-1039 1732 0
1040 1728 -1729 1730 -1041 0
-1040 1729 0
-1040 -1730 0
-1040 -1728 0
-1040 1041 0
1041 1715 1716 1727 -1042 0
-1041 1042 0
-1041 -1727 0
-1041 -1715 0
-1041 -1716 0
1042 1697 1702 1703 -1043 0
-1042 1043 0
-1042 -1703 0
-1042 -1697 0
-1042 -1702 0
1043 1686 1687 1696 -1044 0
-1043 1044 0
-1043 -1696 0
-1043 -1686 0
-1043 -1687 0
1044 1592 1593 1594 -1045 0
1044 -1592 1593 1594 1045 0
-1044 -1593 0
-1044 1592 1045 0
-1044 -1594 0
-1044 -1592 -1045 0
-1045 1665 1046 0
-1045 1665 -1785 0
-1045 1664 1665 0
1045 -1665 0
1045 -1664 1785 -1046 0
-1046 -1604 1047 0
-1046 -1604 1786 0
-1046 1786 1047 0
1046 -1786 -1047 0
1046 1604 -1047 0
1046 1604 -1786 0
-1047 -1605 1048 0
-1047 -1605 1787 0
-1047 1787 1048 0
1047 -1787 -1048 0
1047 1605 -1048 0
1047 1605 -1787 0
-1048 -1606 1049 0
-1048 -1606 1788 0
-1048 1788 1049 0
1048 -1788 -1049 0
1048 1606 -1049 0
1048 1606 -1788 0
-1049 -1607 1050 0
-1049 -1607 1789 0
-1049 1789 1050 0
1049 -1789 -1050 0
1049 1607 -1050 0
1049 1607 -1789 0
-1050 -1608 1051 0
-1050 -1608 1790 0
-1050 1790 1051 0
1050 -1790 -1051 0
1050 1608 -1051 0
1050 1608 -1790 0
-1051 -1609 1052 0
-1051 -1609 1791 0
-1051 1791 1052 0
1051 -1791 -1052 0
1051 1609 -1052 0
1051 1609 -1791 0
-1052 -1610 1053 0
-1052 -1610 1792 0
-1052 1792 1053 0
1052 -1792 -1053 0
1052 1610 -1053 0
1052 1610 -1792 0
-1053 -1611 1054 0
-1053 -1611 1793 0
-1053 1793 1054 0
1053 -1793 -1054 0
1053 1611 -1054 0
1053 1611 -1793 0
-1054 -1612 1055 0
-1054 -1612 1794 0
-1054 1794 1055 0
1054 -1794 -1055 0
1054 1612 -1055 0
1054 1612 -1794 0
-1055 -1613 1056 0
-1055 -1613 1795 0
-1055 1795 1056 0
1055 -1795 -1056 0
1055 1613 -1056 0
1055 1613 -1795 0
-1056 -1614 1057 0
-1056 -1614 1796 0
-1056 1796 1057 0
1056 -1796 -1057 0
1056 1614 -1057 0
1056 1614 -1796 0
-1057 -1615 1058 0
-1057 -1615 1797 0
-1057 1797 1058 0
1057 -1797 -1058 0
1057 1615 -1058 0
1057 1615 -1797 0
-1058 -1616 1059 0
-1058 -1616 1798 0
-1058 1798 1059 0
1058 -1798 -1059 0
1058 1616 -1059 0
1058 1616 -1798 0
-1059 -1617 -1618 0
-1059 -1618 1799 0
-1059 -1617 1799 0
-1059 1799 1800 0
-1059 -1617 1800 0
1059 1617 -1799 0
1059 1618 -1799 -1800 0
1059 1617 1618 -1800 0
1060 -1592 -1061 -1093 -1589 0
1060 1592 -1061 -1093 1589 0
-1060 1061 0
-1060 1592 -1589 0
-1060 1093 0
-1060 -1592 1589 0
1061 2171 -1062 0
1061 -2171 1062 0
-1061 -2171 -1062 0
-1061 2171 1062 0
1062 -4 -1063 1092 0
1062 -4 1063 1068 0
-1062 4 0
-1062 -1063 -1092 0
-1062 1063 -1068 0
1063 -1879 1881 1064 0
-1063 1879 0
-1063 -1064 0
-1063 -1881 0
1064 -1880 -695 1065 0
-1064 1880 0
-1064 695 0
-1064 -1065 0
1065 1963 -1964 -1965 0
1065 1963 -1964 -1066 0
-1065 -1963 0
-1065 1964 0
-1065 1965 1066 0
-1066 1966 1968 0
-1066 1966 1967 0
-1066 1966 1067 0
1066 -1966 0
1066 -1967 -1968 -1067 0
1067 -1969 -1970 0
1067 -1969 -842 0
1067 -1969 -1971 0
-1067 1969 0
-1067 1970 1971 842 0
1068 1069 -1075 0
1068 1688 -1069 0
1068 -2118 -1069 0
-1068 1069 1075 0
-1068 -1688 2118 -1069 0
1069 1879 -1881 1070 0
-1069 -1879 0
-1069 1881 0
-1069 -1070 0
1070 -1882 -690 1071 0
-1070 1882 0
-1070 690 0
-1070 -1071 0
1071 -1963 1964 1072 0
1071 -1963 1964 1965 0
-1071 1963 0
-1071 -1964 0
-1071 -1965 -1072 0
1072 -1966 -1967 0
1072 -1966 -1073 0
1072 -1966 -1968 0
-1072 1966 0
-1072 1967 1968 1073 0
-1073 1969 1971 0
-1073 1969 1970 0
-1073 1969 1074 0
1073 -1969 0
1073 -1970 -1971 -1074 0
1074 -1972 -1973 -1975 0
1074 -1972 -1973 -1974 0
-1074 1972 0
-1074 1973 0
-1074 1974 1975 0
1075 -2119 -1076 0
1075 1076 -1079 0
-1075 2119 -1076 0
-1075 1076 1079 0
1076 1077 -1078 0
-1076 -1077 0
-1076 1078 0
1077 -1881 -1070 0
-1077 1881 0
-1077 1070 0
1078 -1879 -1881 1064 0
-1078 1879 0
-1078 1881 0
-1078 -1064 0
1079 1080 -1081 0
1079 -1688 -1080 0
1079 -2120 -1080 0
-1079 1080 1081 0
-1079 1688 2120 -1080 0
1080 -1879 1881 -1064 0
-1080 1879 0
-1080 -1881 0
-1080 1064 0
-1081 1082 0
1081 -1082 0
1082 1083 -1084 0
1082 1688 -1083 0
1082 -2124 -1083 0
-1082 1083 1084 0
-1082 -1688 2124 -1083 0
1083 1879 -1881 -1070 0
-1083 1070 0
-1083 1881 0
-1083 -1879 0
-1084 1085 0
1084 -1085 0
1085 1086 -1087 0
1085 -1086 1090 -1091 0
-1085 -1086 -1090 0
-1085 1086 1087 0
-1085 -1086 1091 0
1086 -1077 -1078 0
-1086 1077 0
-1086 1078 0
1087 -1088 -1089 0
1087 -2135 1088 0
-1087 -1088 1089 0
-1087 2135 1088 0
1088 -1879 -1881 1077 -1064 0
-1088 1064 0
-1088 1879 0
-1088 1881 0
-1088 -1077 0
1089 1688 -2132 0
1089 -1688 -2134 0
-1089 -1688 2134 0
-1089 1688 2132 0
1090 -1688 2129 0
-1090 1688 0
-1090 -2129 0
-1091 1688 2131 0
1091 -1688 0
1091 -2131 0
-1092 1688 2117 0
1092 -1688 0
1092 -2117 0
1093 2173 1094 -1107 -1114 0
1093 -2173 1094 1107 -1114 0
-1093 1114 0
-1093 -2173 -1107 0
-1093 -1094 0
-1093 2173 1107 0
-1094 -2172 -1095 0
-1094 2172 1095 0
1094 2172 -1095 0
1094 -2172 1095 0
1095 -4 -1096 0
-1095 4 0
-1095 1096 0
1096 1063 -1097 0
1096 1688 2117 -1063 0
-1096 1063 1097 0
-1096 -1688 -1063 0
-1096 -2117 -1063 0
1097 1069 -1098 0
1097 -1688 2118 -1069 0
-1097 1069 1098 0
-1097 1688 -1069 0
-1097 -2118 -1069 0
1098 2119 -1076 0
1098 1076 -1099 0
-1098 -2119 -1076 0
-1098 1076 1099 0
1099 1080 -1100 0
1099 1688 -2121 -1080 0
-1099 1080 1100 0
-1099 -1688 -1080 0
-1099 2121 -1080 0
-1100 1101 0
1100 -1101 0
1101 1083 -1102 0
1101 -1688 -2125 -1083 0
-1101 1083 1102 0
-1101 2125 -1083 0
-1101 1688 -1083 0
-1102 1103 0
1102 -1103 0
1103 1086 -1104 0
1103 -1086 1106 0
-1103 -1086 -1106 0
-1103 1086 1104 0
1104 -1088 -1105 0
1104 -2136 1088 0
-1104 -1088 1105 0
-1104 2136 1088 0
1105 1688 -2133 0
1105 -1688 2134 0
-1105 -1688 -2134 0
-1105 1688 2133 0
-1106 -1688 -2130 0
-1106 1688 2131 0
1106 -1688 2130 0
1106 1688 -2131 0
1107 -1879 1108 -1110 1111 0
-1107 -1111 0
-1107 1879 0
-1107 1110 0
-1107 -1108 0
1108 -1686 1687 -1688 1109 0
-1108 -1109 0
-1108 1686 0
-1108 1688 0
-1108 -1687 0
-1109 1030 1032 0
1109 -1030 0
1109 -1032 0
1110 -1880 -696 1065 0
-1110 1880 0
-1110 696 0
-1110 -1065 0
-1111 1686 0
-1111 1112 0
-1111 -1687 0
1111 -1686 1687 -1112 0
-1112 -1030 -1113 0
-1112 1030 1113 0
1112 1030 -1113 0
1112 -1030 1113 0
1113 -1032 -1034 0
-1113 1032 0
-1113 1034 0
1114 2174 -1115 -1118 -1120 0
1114 -2174 1115 -1118 -1120 0
-1114 1120 0
-1114 2174 1115 0
-1114 1118 0
-1114 -2174 -1115 0
1115 -1881 1111 1116 -1117 0
-1115 1117 0
-1115 1881 0
-1115 -1111 0
-1115 -1116 0
1116 -1686 1687 1688 1109 0
-1116 -1109 0
-1116 -1688 0
-1116 1686 0
-1116 -1687 0
1117 -1882 -691 1071 0
-1117 1882 0
-1117 691 0
-1117 -1071 0
1118 2175 -1119 0
1118 -2175 1119 0
-1118 -2175 -1119 0
-1118 2175 1119 0
1119 -1881 1111 1116 0
-1119 1881 0
-1119 -1111 0
-1119 -1116 0
1120 2176 -1121 1122 1160 0
1120 -2176 1121 1122 1160 0
-1120 -1160 0
-1120 2176 1121 0
-1120 -1122 0
-1120 -2176 -1121 0
1121 -1879 1108 1111 0
-1121 1879 0
-1121 -1108 0
-1121 -1111 0
-1122 2177 1123 0
-1122 -2177 -1123 0
1122 -2177 1123 0
1122 2177 -1123 0
-1123 1124 -1125 1159 0
-1123 1124 1125 1126 0
1123 -1124 0
1123 -1125 -1159 0
1123 1125 -1126 0
1124 -2173 -2174 -2175 -2176 0
-1124 2176 0
-1124 2173 0
-1124 2175 0
-1124 2174 0
1125 -2173 -2174 -2175 2176 0
-1125 2175 0
-1125 -2176 0
-1125 2173 0
-1125 2174 0
1126 1127 -1128 0
1126 1704 -1127 0
1126 -2138 -1127 0
-1126 1127 1128 0
-1126 -1704 2138 -1127 0
1127 -2173 -2174 2175 -2176 0
-1127 2176 0
-1127 2173 0
-1127 2174 0
-1127 -2175 0
1128 1129 -1130 0
1128 -1704 -1129 0
1128 -2139 -1129 0
-1128 1129 1130 0
-1128 1704 2139 -1129 0
1129 2173 -2174 -2175 -2176 0
-1129 -2173 0
-1129 2176 0
-1129 2175 0
-1129 2174 0
1130 1131 -1132 0
1130 1704 -1131 0
1130 -2140 -1131 0
-1130 1131 1132 0
-1130 -1704 2140 -1131 0
1131 -2173 2174 -2175 -2176 0
-1131 2176 0
-1131 2173 0
-1131 2175 0
-1131 -2174 0
1132 -2141 -1133 0
1132 1133 -1134 0
-1132 2141 -1133 0
-1132 1133 1134 0
1133 -2173 -2174 2175 2176 0
-1133 2174 0
-1133 -2176 0
-1133 2173 0
-1133 -2175 0
1134 1135 -1136 0
1134 -1704 -1135 0
1134 -2142 -1135 0
-1134 1135 1136 0
-1134 1704 2142 -1135 0
1135 2173 -2174 -2175 2176 0
-1135 -2173 0
-1135 -2176 0
-1135 2175 0
-1135 2174 0
1136 1137 -1138 0
1136 -1137 1157 -1158 0
-1136 -1137 -1157 0
-1136 1137 1138 0
-1136 -1137 1158 0
1137 -2173 2174 -2175 2176 0
-1137 2175 0
-1137 -2176 0
-1137 2173 0
-1137 -2174 0
1138 1139 -1140 0
1138 -1139 -1156 0
-1138 -1139 1156 0
-1138 1139 1140 0
1139 2173 -2174 2175 -2176 0
-1139 2174 0
-1139 -2175 0
-1139 -2173 0
-1139 2176 0
1140 1141 -1142 0
1140 1704 -1141 0
1140 -2148 -1141 0
-1140 1141 1142 0
-1140 -1704 2148 -1141 0
1141 -2173 2174 2175 -2176 0
-1141 2176 0
-1141 -2175 0
-1141 2173 0
-1141 -2174 0
1142 -2150 -1143 0
1142 1143 -1144 0
-1142 2150 -1143 0
-1142 1143 1144 0
1143 2173 2174 -2175 -2176 0
-1143 -2173 0
-1143 2176 0
-1143 2175 0
-1143 -2174 0
1144 1145 -1146 0
1144 -1145 -1155 0
-1144 -1145 1155 0
-1144 1145 1146 0
1145 2173 2174 2175 -2176 0
-1145 2176 0
-1145 -2175 0
-1145 -2173 0
-1145 -2174 0
1146 1147 -1148 0
1146 -1147 -1154 0
-1146 -1147 1154 0
-1146 1147 1148 0
1147 2173 2174 -2175 2176 0
-1147 -2173 0
-1147 -2176 0
-1147 2175 0
-1147 -2174 0
1148 1149 -1150 0
1148 -1149 -1153 0
-1148 -1149 1153 0
-1148 1149 1150 0
1149 -2173 2174 2175 2176 0
-1149 -2176 0
-1149 -2175 0
-1149 2173 0
-1149 -2174 0
1150 -1151 -1152 0
1150 -2163 1151 0
-1150 -1151 1152 0
-1150 2163 1151 0
1151 2173 -2174 2175 2176 0
-1151 2174 0
-1151 -2176 0
-1151 -2173 0
-1151 -2175 0
1152 1704 -2160 0
1152 -1704 -2162 0
-1152 -1704 2162 0
-1152 1704 2160 0
1153 -1704 -2157 0
1153 1704 -2159 0
-1153 1704 2159 0
-1153 -1704 2157 0
1154 1704 -2154 0
1154 -1704 -2156 0
-1154 -1704 2156 0
-1154 1704 2154 0
1155 -1704 -2151 0
1155 1704 -2153 0
-1155 1704 2153 0
-1155 -1704 2151 0
1156 1704 -2146 0
1156 -1704 -2147 0
-1156 -1704 2147 0
-1156 1704 2146 0
1157 -1704 2144 0
-1157 1704 0
-1157 -2144 0
-1158 1704 2145 0
1158 -1704 0
1158 -2145 0
-1159 1704 2137 0
1159 -1704 0
1159 -2137 0
-1160 2178 1161 1176 1178 0
-1160 -2178 -1161 1176 1178 0
1160 -1178 0
1160 -2178 1161 0
1160 -1176 0
1160 2178 -1161 0
1161 1124 1125 -1162 0
1161 1124 -1125 1159 0
-1161 -1124 0
-1161 -1125 -1159 0
-1161 1125 1162 0
1162 -1127 -1163 0
1162 1127 1129 -1164 0
-1162 1127 -1129 0
-1162 -1127 1163 0
-1162 1127 1164 0
1163 -1704 2138 0
-1163 1704 0
-1163 -2138 0
1164 1131 1133 -1165 0
1164 2141 1131 -1133 0
-1164 -1131 0
-1164 1133 1165 0
-1164 -2141 -1133 0
1165 1135 -1166 0
1165 1704 -2143 -1135 0
-1165 1135 1166 0
-1165 -1704 -1135 0
-1165 2143 -1135 0
1166 1137 -1167 0
1166 1704 2145 -1137 0
-1166 1137 1167 0
-1166 -1704 -1137 0
-1166 -2145 -1137 0
1167 1139 -1168 0
1167 -1704 2147 -1139 0
-1167 1139 1168 0
-1167 1704 -1139 0
-1167 -2147 -1139 0
1168 1141 -1169 0
1168 -1704 -2149 -1141 0
-1168 1141 1169 0
-1168 2149 -1141 0
-1168 1704 -1141 0
1169 1143 -1170 0
-1169 -1143 0
-1169 1170 0
1170 1145 -1171 0
1170 -1704 -2152 -1145 0
-1170 1145 1171 0
-1170 2152 -1145 0
-1170 1704 -1145 0
1171 1147 -1172 0
1171 1704 -2155 -1147 0
-1171 1147 1172 0
-1171 -1704 -1147 0
-1171 2155 -1147 0
1172 1149 -1173 0
1172 -1149 1175 0
-1172 -1149 -1175 0
-1172 1149 1173 0
1173 -1151 -1174 0
1173 -2164 1151 0
-1173 -1151 1174 0
-1173 2164 1151 0
1174 1704 -2161 0
1174 -1704 2162 0
-1174 -1704 -2162 0
-1174 1704 2161 0
-1175 -1704 -2158 0
-1175 1704 2159 0
1175 -1704 2158 0
1175 1704 -2159 0
-1176 -1595 -1177 0
-1176 1595 1177 0
1176 1595 -1177 0
1176 -1595 1177 0
1177 -1603 -1883 0
1177 1603 -1899 0
-1177 1603 1899 0
-1177 -1603 1883 0
-1178 1596 1179 1180 1182 0
-1178 -1596 -1179 1180 1182 0
1178 -1182 0
1178 -1596 1179 0
1178 -1180 0
1178 1596 -1179 0
1179 -1603 -1884 0
1179 1603 -1900 0
-1179 1603 1900 0
-1179 -1603 1884 0
-1180 -1597 -1181 0
-1180 1597 1181 0
1180 1597 -1181 0
1180 -1597 1181 0
1181 -1603 -1885 0
1181 1603 -1901 0
-1181 1603 1901 0
-1181 -1603 1885 0
-1182 1598 1183 1184 1186 0
-1182 -1598 -1183 1184 1186 0
1182 -1186 0
1182 -1598 1183 0
1182 -1184 0
1182 1598 -1183 0
1183 -1603 -1886 0
1183 1603 -1902 0
-1183 1603 1902 0
-1183 -1603 1886 0
-1184 -1599 -1185 0
-1184 1599 1185 0
1184 1599 -1185 0
1184 -1599 1185 0
1185 -1603 -1887 0
1185 1603 -1903 0
-1185 1603 1903 0
-1185 -1603 1887 0
-1186 1600 1187 1188 1190 0
-1186 -1600 -1187 1188 1190 0
1186 -1190 0
1186 -1600 1187 0
1186 -1188 0
1186 1600 -1187 0
1187 -1603 -1888 0
1187 1603 -1904 0
-1187 1603 1904 0
-1187 -1603 1888 0
-1188 -1601 -1189 0
-1188 1601 1189 0
1188 1601 -1189 0
1188 -1601 1189 0
1189 -1603 -1889 0
1189 1603 -1905 0
-1189 1603 1905 0
-1189 -1603 1889 0
-1190 1602 1191 1192 1194 0
-1190 -1602 -1191 1192 1194 0
1190 -1194 0
1190 -1602 1191 0
1190 -1192 0
1190 1602 -1191 0
1191 -1603 -1890 0
1191 1603 -1906 0
-1191 1603 1906 0
-1191 -1603 1890 0
-1192 -1676 -1193 0
-1192 1676 1193 0
1192 1676 -1193 0
1192 -1676 1193 0
1193 -1603 -1980 0
1193 1603 -1988 0
-1193 1603 1988 0
-1193 -1603 1980 0
-1194 1677 1195 1196 1198 0
-1194 -1677 -1195 1196 1198 0
1194 -1198 0
1194 -1677 1195 0
1194 -1196 0
1194 1677 -1195 0
1195 -1603 -1988 0
1195 1603 -1989 0
-1195 1603 1989 0
-1195 -1603 1988 0
-1196 -1678 -1197 0
-1196 1678 1197 0
1196 1678 -1197 0
1196 -1678 1197 0
1197 -1603 -1989 0
1197 1603 -1990 0
-1197 1603 1990 0
-1197 -1603 1989 0
-1198 1679 1199 1200 1202 0
-1198 -1679 -1199 1200 1202 0
1198 -1202 0
1198 -1679 1199 0
1198 -1200 0
1198 1679 -1199 0
1199 -1603 -1990 0
1199 1603 -1991 0
-1199 1603 1991 0
-1199 -1603 1990 0
-1200 -1680 -1201 0
-1200 1680 1201 0
1200 1680 -1201 0
1200 -1680 1201 0
1201 -1603 -1991 0
1201 1603 -1992 0
-1201 1603 1992 0
-1201 -1603 1991 0
-1202 1681 1203 1204 1206 0
-1202 -1681 -1203 1204 1206 0
1202 -1206 0
1202 -1681 1203 0
1202 -1204 0
1202 1681 -1203 0
1203 -1603 -1992 0
1203 1603 -1993 0
-1203 1603 1993 0
-1203 -1603 1992 0
-1204 -1682 -1205 0
-1204 1682 1205 0
1204 1682 -1205 0
1204 -1682 1205 0
1205 -1603 -1993 0
1205 1603 -1994 0
-1205 1603 1994 0
-1205 -1603 1993 0
-1206 1683 1207 1208 1210 0
-1206 -1683 -1207 1208 1210 0
1206 -1210 0
1206 -1683 1207 0
1206 -1208 0
1206 1683 -1207 0
1207 -1603 -1994 0
1207 1603 -1995 0
-1207 1603 1995 0
-1207 -1603 1994 0
-1208 -1684 -1209 0
-1208 1684 1209 0
1208 1684 -1209 0
1208 -1684 1209 0
1209 -1603 -1995 0
1209 1603 -1996 0
-1209 1603 1996 0
-1209 -1603 1995 0
-1210 1685 1211 1212 1214 0
-1210 -1685 -1211 1212 1214 0
1210 -1214 0
1210 -1685 1211 0
1210 -1212 0
1210 1685 -1211 0
1211 -1603 -1996 0
1211 1603 -1997 0
-1211 1603 1997 0
-1211 -1603 1996 0
-1212 -1695 -1213 0
-1212 1695 1213 0
1212 1695 -1213 0
1212 -1695 1213 0
1213 -1603 -2005 0
1213 1603 -2011 0
-1213 1603 2011 0
-1213 -1603 2005 0
-1214 1696 1215 1216 1218 0
-1214 -1696 -1215 1216 1218 0
1214 -1218 0
1214 -1696 1215 0
1214 -1216 0
1214 1696 -1215 0
1215 -1603 -1999 0
1215 1603 -2012 0
-1215 1603 2012 0
-1215 -1603 1999 0
-1216 -1697 -1217 0
-1216 1697 1217 0
1216 1697 -1217 0
1216 -1697 1217 0
1217 -1603 -2000 0
1217 1603 -2013 0
-1217 1603 2013 0
-1217 -1603 2000 0
-1218 1698 1219 1220 1222 0
-1218 -1698 -1219 1220 1222 0
1218 -1222 0
1218 -1698 1219 0
1218 -1220 0
1218 1698 -1219 0
1219 -1603 -2001 0
1219 1603 -2014 0
-1219 1603 2014 0
-1219 -1603 2001 0
-1220 -1699 -1221 0
-1220 1699 1221 0
1220 1699 -1221 0
1220 -1699 1221 0
1221 -1603 -2002 0
1221 1603 -2015 0
-1221 1603 2015 0
-1221 -1603 2002 0
-1222 1700 1223 1224 1226 0
-1222 -1700 -1223 1224 1226 0
1222 -1226 0
1222 -1700 1223 0
1222 -1224 0
1222 1700 -1223 0
1223 -1603 -2003 0
1223 1603 -2016 0
-1223 1603 2016 0
-1223 -1603 2003 0
-1224 -1701 -1225 0
-1224 1701 1225 0
1224 1701 -1225 0
1224 -1701 1225 0
1225 -1603 -2004 0
1225 1603 -2017 0
-1225 1603 2017 0
-1225 -1603 2004 0
-1226 1692 1227 1228 1230 0
-1226 -1692 -1227 1228 1230 0
1226 -1230 0
1226 -1692 1227 0
1226 -1228 0
1226 1692 -1227 0
1227 1914 -2008 0
1227 1688 -1914 -2001 0
1227 -1688 -1914 2001 0
-1227 1914 2008 0
-1227 1688 -1914 2001 0
-1227 -1688 -1914 -2001 0
-1228 -1714 -1229 0
-1228 1714 1229 0
1228 1714 -1229 0
1228 -1714 1229 0
1229 -1603 -2024 0
1229 1603 -2030 0
-1229 1603 2030 0
-1229 -1603 2024 0
-1230 1715 1231 1232 1234 0
-1230 -1715 -1231 1232 1234 0
1230 -1234 0
1230 -1715 1231 0
1230 -1232 0
1230 1715 -1231 0
1231 -1603 -2018 0
1231 1603 -2031 0
-1231 1603 2031 0
-1231 -1603 2018 0
-1232 -1716 -1233 0
-1232 1716 1233 0
1232 1716 -1233 0
1232 -1716 1233 0
1233 -1603 -2019 0
1233 1603 -2032 0
-1233 1603 2032 0
-1233 -1603 2019 0
-1234 1717 1235 1236 1238 0
-1234 -1717 -1235 1236 1238 0
1234 -1238 0
1234 -1717 1235 0
1234 -1236 0
1234 1717 -1235 0
1235 -1603 -2020 0
1235 1603 -2033 0
-1235 1603 2033 0
-1235 -1603 2020 0
-1236 -1718 -1237 0
-1236 1718 1237 0
1236 1718 -1237 0
1236 -1718 1237 0
1237 -1603 -2021 0
1237 1603 -2034 0
-1237 1603 2034 0
-1237 -1603 2021 0
-1238 1719 1239 1240 1242 0
-1238 -1719 -1239 1240 1242 0
1238 -1242 0
1238 -1719 1239 0
1238 -1240 0
1238 1719 -1239 0
1239 -1603 -2022 0
1239 1603 -2035 0
-1239 1603 2035 0
-1239 -1603 2022 0
-1240 -1720 -1241 0
-1240 1720 1241 0
1240 1720 -1241 0
1240 -1720 1241 0
1241 -1603 -2023 0
1241 1603 -2036 0
-1241 1603 2036 0
-1241 -1603 2023 0
-1242 1705 1243 1246 1250 0
-1242 -1705 -1243 1246 1250 0
1242 -1250 0
1242 -1705 1243 0
1242 -1246 0
1242 1705 -1243 0
1243 1914 -2021 0
1243 -1914 1244 -1245 0
-1243 -1914 1245 0
-1243 1914 2021 0
-1243 -1914 -1244 0
-1244 1686 0
-1244 -1687 0
-1244 -1109 0
1244 -1686 1687 1109 0
1245 2168 -2169 0
1245 2168 -2170 0
-1245 -2168 0
-1245 2169 2170 0
-1246 -1706 -1247 0
-1246 1706 1247 0
1246 1706 -1247 0
1246 -1706 1247 0
1247 -2022 1248 0
1247 -1914 1248 0
-1247 -1248 0
-1247 1914 2022 0
-1248 1914 0
-1248 -2177 -1244 0
-1248 1244 1249 0
1248 -1914 1244 -1249 0
1248 -1914 2177 -1244 0
-1249 -2168 -2177 0
-1249 2168 -2169 -2170 0
-1249 2168 2169 2170 0
1249 -2168 2177 0
1249 2168 -2169 2170 0
1249 2168 2169 -2170 0
-1250 1711 1251 1252 1584 0
-1250 -1711 -1251 1252 1584 0
1250 -1584 0
1250 -1711 1251 0
1250 -1252 0
1250 1711 -1251 0
1251 1914 -2027 0
1251 1704 -1914 -2020 0
1251 -1704 -1914 2020 0
-1251 1914 2027 0
-1251 1704 -1914 2020 0
-1251 -1704 -1914 -2020 0
-1252 1721 1253 1254 1256 0
-1252 -1721 -1253 1254 1256 0
1252 -1256 0
1252 -1721 1253 0
1252 -1254 0
1252 1721 -1253 0
1253 1603 -2037 0
1253 -1603 850 0
-1253 -1603 -850 0
-1253 1603 2037 0
-1254 -1722 -1255 0
-1254 1722 1255 0
1254 1722 -1255 0
1254 -1722 1255 0
1255 1603 -2038 0
1255 -1603 -848 0
-1255 -1603 848 0
-1255 1603 2038 0
-1256 1723 1257 1258 1260 0
-1256 -1723 -1257 1258 1260 0
1256 -1260 0
1256 -1723 1257 0
1256 -1258 0
1256 1723 -1257 0
1257 1603 -2039 0
1257 -1603 846 0
-1257 -1603 -846 0
-1257 1603 2039 0
-1258 -1724 -1259 0
-1258 1724 1259 0
1258 1724 -1259 0
1258 -1724 1259 0
1259 1603 -2040 0
1259 -1603 -956 0
-1259 -1603 956 0
-1259 1603 2040 0
-1260 1725 1261 1262 1264 0
-1260 -1725 -1261 1262 1264 0
1260 -1264 0
1260 -1725 1261 0
1260 -1262 0
1260 1725 -1261 0
1261 1603 -2041 0
1261 -1603 -954 0
-1261 -1603 954 0
-1261 1603 2041 0
-1262 -1726 -1263 0
-1262 1726 1263 0
1262 1726 -1263 0
1262 -1726 1263 0
1263 1603 -2042 0
1263 -1603 -952 0
-1263 -1603 952 0
-1263 1603 2042 0
-1264 1727 1265 1266 1268 0
-1264 -1727 -1265 1266 1268 0
1264 -1268 0
1264 -1727 1265 0
1264 -1266 0
1264 1727 -1265 0
1265 1603 -2043 0
1265 -1603 -357 0
-1265 -1603 357 0
-1265 1603 2043 0
-1266 -1728 -1267 0
-1266 1728 1267 0
1266 1728 -1267 0
1266 -1728 1267 0
1267 1603 -2044 0
1267 -1603 -412 0
-1267 -1603 412 0
-1267 1603 2044 0
-1268 1729 1269 1270 1272 0
-1268 -1729 -1269 1270 1272 0
1268 -1272 0
1268 -1729 1269 0
1268 -1270 0
1268 1729 -1269 0
1269 1603 -2045 0
1269 -1603 -421 0
-1269 -1603 421 0
-1269 1603 2045 0
-1270 -1730 -1271 0
-1270 1730 1271 0
1270 1730 -1271 0
1270 -1730 1271 0
1271 1603 -2046 0
1271 -1603 -432 0
-1271 -1603 432 0
-1271 1603 2046 0
-1272 1731 1273 1274 1276 0
-1272 -1731 -1273 1274 1276 0
1272 -1276 0
1272 -1731 1273 0
1272 -1274 0
1272 1731 -1273 0
1273 1603 -2047 0
1273 -1603 -441 0
-1273 -1603 441 0
-1273 1603 2047 0
-1274 -1732 -1275 0
-1274 1732 1275 0
1274 1732 -1275 0
1274 -1732 1275 0
1275 1603 -2048 0
1275 -1603 -450 0
-1275 -1603 450 0
-1275 1603 2048 0
-1276 1733 1277 1278 1280 0
-1276 -1733 -1277 1278 1280 0
1276 -1280 0
1276 -1733 1277 0
1276 -1278 0
1276 1733 -1277 0
1277 1603 -2049 0
1277 -1603 -460 0
-1277 -1603 460 0
-1277 1603 2049 0
-1278 -1734 -1279 0
-1278 1734 1279 0
1278 1734 -1279 0
1278 -1734 1279 0
1279 1603 -2050 0
1279 -1603 -469 0
-1279 -1603 469 0
-1279 1603 2050 0
-1280 1735 1281 1282 1284 0
-1280 -1735 -1281 1282 1284 0
1280 -1284 0
1280 -1735 1281 0
1280 -1282 0
1280 1735 -1281 0
1281 1603 -2051 0
1281 -1603 -478 0
-1281 -1603 478 0
-1281 1603 2051 0
-1282 -1736 -1283 0
-1282 1736 1283 0
1282 1736 -1283 0
1282 -1736 1283 0
1283 1603 -2052 0
1283 -1603 -496 0
-1283 -1603 496 0
-1283 1603 2052 0
-1284 1737 1285 1286 1288 0
-1284 -1737 -1285 1286 1288 0
1284 -1288 0
1284 -1737 1285 0
1284 -1286 0
1284 1737 -1285 0
1285 1603 -2053 0
1285 -1603 1883 -488 0
-1285 -1603 -1883 0
-1285 1603 2053 0
-1285 -1603 488 0
-1286 -1738 -1287 0
-1286 1738 1287 0
1286 1738 -1287 0
1286 -1738 1287 0
1287 1603 -2054 0
1287 -1603 1883 -818 0
-1287 -1603 -1883 0
-1287 1603 2054 0
-1287 -1603 818 0
-1288 1739 1289 1290 1292 0
-1288 -1739 -1289 1290 1292 0
1288 -1292 0
1288 -1739 1289 0
1288 -1290 0
1288 1739 -1289 0
1289 1603 -2055 0
1289 -1603 1883 -828 0
-1289 -1603 -1883 0
-1289 1603 2055 0
-1289 -1603 828 0
-1290 -1740 -1291 0
-1290 1740 1291 0
1290 1740 -1291 0
1290 -1740 1291 0
1291 1603 -2056 0
1291 -1603 194 0
-1291 -1603 -194 0
-1291 1603 2056 0
-1292 1741 1293 1294 1296 0
-1292 -1741 -1293 1294 1296 0
1292 -1296 0
1292 -1741 1293 0
1292 -1294 0
1292 1741 -1293 0
1293 1603 -2057 0
1293 -1603 -200 0
-1293 -1603 200 0
-1293 1603 2057 0
-1294 -1742 -1295 0
-1294 1742 1295 0
1294 1742 -1295 0
1294 -1742 1295 0
1295 1603 -2058 0
1295 -1603 -208 0
-1295 -1603 208 0
-1295 1603 2058 0
-1296 1743 1297 1298 1300 0
-1296 -1743 -1297 1298 1300 0
1296 -1300 0
1296 -1743 1297 0
1296 -1298 0
1296 1743 -1297 0
1297 1603 -2059 0
1297 -1603 -216 0
-1297 -1603 216 0
-1297 1603 2059 0
-1298 -1744 -1299 0
-1298 1744 1299 0
1298 1744 -1299 0
1298 -1744 1299 0
1299 1603 -2060 0
1299 -1603 -224 0
-1299 -1603 224 0
-1299 1603 2060 0
-1300 1745 1301 1302 1304 0
-1300 -1745 -1301 1302 1304 0
1300 -1304 0
1300 -1745 1301 0
1300 -1302 0
1300 1745 -1301 0
1301 1603 -2061 0
1301 -1603 -232 0
-1301 -1603 232 0
-1301 1603 2061 0
-1302 -1746 -1303 0
-1302 1746 1303 0
1302 1746 -1303 0
1302 -1746 1303 0
1303 1603 -2062 0
1303 -1603 -240 0
-1303 -1603 240 0
-1303 1603 2062 0
-1304 1747 1305 1306 1308 0
-1304 -1747 -1305 1306 1308 0
1304 -1308 0
1304 -1747 1305 0
1304 -1306 0
1304 1747 -1305 0
1305 1603 -2063 0
1305 -1603 -248 0
-1305 -1603 248 0
-1305 1603 2063 0
-1306 -1748 -1307 0
-1306 1748 1307 0
1306 1748 -1307 0
1306 -1748 1307 0
1307 1603 -2064 0
1307 -1603 -256 0
-1307 -1603 256 0
-1307 1603 2064 0
-1308 1749 1309 1310 1312 0
-1308 -1749 -1309 1310 1312 0
1308 -1312 0
1308 -1749 1309 0
1308 -1310 0
1308 1749 -1309 0
1309 1603 -2065 0
1309 -1603 -264 0
-1309 -1603 264 0
-1309 1603 2065 0
-1310 -1750 -1311 0
-1310 1750 1311 0
1310 1750 -1311 0
1310 -1750 1311 0
1311 1603 -2066 0
1311 -1603 -272 0
-1311 -1603 272 0
-1311 1603 2066 0
-1312 1751 1313 1314 1316 0
-1312 -1751 -1313 1314 1316 0
1312 -1316 0
1312 -1751 1313 0
1312 -1314 0
1312 1751 -1313 0
1313 1603 -2067 0
1313 -1603 -280 0
-1313 -1603 280 0
-1313 1603 2067 0
-1314 -1752 -1315 0
-1314 1752 1315 0
1314 1752 -1315 0
1314 -1752 1315 0
1315 1603 -2068 0
1315 -1603 -288 0
-1315 -1603 288 0
-1315 1603 2068 0
-1316 1753 1317 1318 1320 0
-1316 -1753 -1317 1318 1320 0
1316 -1320 0
1316 -1753 1317 0
1316 -1318 0
1316 1753 -1317 0
1317 1603 -2069 0
1317 -1603 -296 0
-1317 -1603 296 0
-1317 1603 2069 0
-1318 -1754 -1319 0
-1318 1754 1319 0
1318 1754 -1319 0
1318 -1754 1319 0
1319 1603 -2070 0
1319 -1603 -304 0
-1319 -1603 304 0
-1319 1603 2070 0
-1320 1755 1321 1322 1324 0
-1320 -1755 -1321 1322 1324 0
1320 -1324 0
1320 -1755 1321 0
1320 -1322 0
1320 1755 -1321 0
1321 1603 -2071 0
1321 -1603 -312 0
-1321 -1603 312 0
-1321 1603 2071 0
-1322 -1756 -1323 0
-1322 1756 1323 0
1322 1756 -1323 0
1322 -1756 1323 0
1323 -1603 -1963 0
1323 1603 -2072 0
-1323 1603 2072 0
-1323 -1603 1963 0
-1324 1757 1325 1326 1328 0
-1324 -1757 -1325 1326 1328 0
1324 -1328 0
1324 -1757 1325 0
1324 -1326 0
1324 1757 -1325 0
1325 -1603 -1964 0
1325 1603 -2073 0
-1325 1603 2073 0
-1325 -1603 1964 0
-1326 -1758 -1327 0
-1326 1758 1327 0
1326 1758 -1327 0
1326 -1758 1327 0
1327 -1603 -1965 0
1327 1603 -2074 0
-1327 1603 2074 0
-1327 -1603 1965 0
-1328 1759 1329 1330 1332 0
-1328 -1759 -1329 1330 1332 0
1328 -1332 0
1328 -1759 1329 0
1328 -1330 0
1328 1759 -1329 0
1329 -1603 -1966 0
1329 1603 -2075 0
-1329 1603 2075 0
-1329 -1603 1966 0
-1330 -1760 -1331 0
-1330 1760 1331 0
1330 1760 -1331 0
1330 -1760 1331 0
1331 -1603 -1967 0
1331 1603 -2076 0
-1331 1603 2076 0
-1331 -1603 1967 0
-1332 1761 1333 1334 1336 0
-1332 -1761 -1333 1334 1336 0
1332 -1336 0
1332 -1761 1333 0
1332 -1334 0
1332 1761 -1333 0
1333 -1603 -1968 0
1333 1603 -2077 0
-1333 1603 2077 0
-1333 -1603 1968 0
-1334 -1762 -1335 0
-1334 1762 1335 0
1334 1762 -1335 0
1334 -1762 1335 0
1335 -1603 -1969 0
1335 1603 -2078 0
-1335 1603 2078 0
-1335 -1603 1969 0
-1336 1763 1337 1338 1340 0
-1336 -1763 -1337 1338 1340 0
1336 -1340 0
1336 -1763 1337 0
1336 -1338 0
1336 1763 -1337 0
1337 -1603 -1970 0
1337 1603 -2079 0
-1337 1603 2079 0
-1337 -1603 1970 0
-1338 -1764 -1339 0
-1338 1764 1339 0
1338 1764 -1339 0
1338 -1764 1339 0
1339 -1603 -1971 0
1339 1603 -2080 0
-1339 1603 2080 0
-1339 -1603 1971 0
-1340 1765 1341 1342 1344 0
-1340 -1765 -1341 1342 1344 0
1340 -1344 0
1340 -1765 1341 0
1340 -1342 0
1340 1765 -1341 0
1341 -1603 -1972 0
1341 1603 -2081 0
-1341 1603 2081 0
-1341 -1603 1972 0
-1342 -1766 -1343 0
-1342 1766 1343 0
1342 1766 -1343 0
1342 -1766 1343 0
1343 -1603 -1973 0
1343 1603 -2082 0
-1343 1603 2082 0
-1343 -1603 1973 0
-1344 1767 1345 1346 1348 0
-1344 -1767 -1345 1346 1348 0
1344 -1348 0
1344 -1767 1345 0
1344 -1346 0
1344 1767 -1345 0
1345 -1603 -1974 0
1345 1603 -2083 0
-1345 1603 2083 0
-1345 -1603 1974 0
-1346 -1768 -1347 0
-1346 1768 1347 0
1346 1768 -1347 0
1346 -1768 1347 0
1347 -1603 -1975 0
1347 1603 -2084 0
-1347 1603 2084 0
-1347 -1603 1975 0
-1348 1769 1349 1350 1352 0
-1348 -1769 -1349 1350 1352 0
1348 -1352 0
1348 -1769 1349 0
1348 -1350 0
1348 1769 -1349 0
1349 1603 -2085 0
1349 -1603 -2101 0
-1349 -1603 2101 0
-1349 1603 2085 0
-1350 -1770 -1351 0
-1350 1770 1351 0
1350 1770 -1351 0
1350 -1770 1351 0
1351 1603 -2086 0
1351 -1603 -2102 0
-1351 -1603 2102 0
-1351 1603 2086 0
-1352 1771 1353 1354 1356 0
-1352 -1771 -1353 1354 1356 0
1352 -1356 0
1352 -1771 1353 0
1352 -1354 0
1352 1771 -1353 0
1353 1603 -2087 0
1353 -1603 -2103 0
-1353 -1603 2103 0
-1353 1603 2087 0
-1354 -1772 -1355 0
-1354 1772 1355 0
1354 1772 -1355 0
1354 -1772 1355 0
1355 1603 -2088 0
1355 -1603 -2104 0
-1355 -1603 2104 0
-1355 1603 2088 0
-1356 1773 1357 1358 1360 0
-1356 -1773 -1357 1358 1360 0
1356 -1360 0
1356 -1773 1357 0
1356 -1358 0
1356 1773 -1357 0
1357 1603 -2089 0
1357 -1603 -2105 0
-1357 -1603 2105 0
-1357 1603 2089 0
-1358 -1774 -1359 0
-1358 1774 1359 0
1358 1774 -1359 0
1358 -1774 1359 0
1359 1603 -2090 0
1359 -1603 -2106 0
-1359 -1603 2106 0
-1359 1603 2090 0
-1360 1775 1361 1362 1364 0
-1360 -1775 -1361 1362 1364 0
1360 -1364 0
1360 -1775 1361 0
1360 -1362 0
1360 1775 -1361 0
1361 1603 -2091 0
1361 -1603 -2107 0
-1361 -1603 2107 0
-1361 1603 2091 0
-1362 -1776 -1363 0
-1362 1776 1363 0
1362 1776 -1363 0
1362 -1776 1363 0
1363 1603 -2092 0
1363 -1603 -2108 0
-1363 -1603 2108 0
-1363 1603 2092 0
-1364 1777 1365 1366 1368 0
-1364 -1777 -1365 1366 1368 0
1364 -1368 0
1364 -1777 1365 0
1364 -1366 0
1364 1777 -1365 0
1365 1603 -2093 0
1365 -1603 -2109 0
-1365 -1603 2109 0
-1365 1603 2093 0
-1366 -1778 -1367 0
-1366 1778 1367 0
1366 1778 -1367 0
1366 -1778 1367 0
1367 1603 -2094 0
1367 -1603 -2110 0
-1367 -1603 2110 0
-1367 1603 2094 0
-1368 1779 1369 1370 1372 0
-1368 -1779 -1369 1370 1372 0
1368 -1372 0
1368 -1779 1369 0
1368 -1370 0
1368 1779 -1369 0
1369 1603 -2095 0
1369 -1603 -2111 0
-1369 -1603 2111 0
-1369 1603 2095 0
-1370 -1780 -1371 0
-1370 1780 1371 0
1370 1780 -1371 0
1370 -1780 1371 0
1371 1603 -2096 0
1371 -1603 -2112 0
-1371 -1603 2112 0
-1371 1603 2096 0
-1372 1781 1373 1374 1376 0
-1372 -1781 -1373 1374 1376 0
1372 -1376 0
1372 -1781 1373 0
1372 -1374 0
1372 1781 -1373 0
1373 1603 -2097 0
1373 -1603 -2113 0
-1373 -1603 2113 0
-1373 1603 2097 0
-1374 -1782 -1375 0
-1374 1782 1375 0
1374 1782 -1375 0
1374 -1782 1375 0
1375 1603 -2098 0
1375 -1603 -2114 0
-1375 -1603 2114 0
-1375 1603 2098 0
-1376 -1783 -1377 1378 0
-1376 1783 1377 1378 0
1376 -1378 0
1376 -1783 1377 0
1376 1783 -1377 0
1377 1603 -2099 0
1377 -1603 -2115 0
-1377 -1603 2115 0
-1377 1603 2099 0
-1378 1784 1379 1380 1383 0
-1378 -1784 -1379 1380 1383 0
1378 -1380 0
1378 1784 -1379 0
1378 -1383 0
1378 -1784 1379 0
1379 1603 -2100 0
1379 -1603 -2116 0
-1379 -1603 2116 0
-1379 1603 2100 0
1380 -1907 -1915 0
1380 -1907 -1381 0
1380 -1907 -1998 0
-1380 1907 0
-1380 1915 1998 1381 0
-1381 1912 1913 1914 1382 0
1381 -1382 0
1381 -1914 0
1381 -1912 0
1381 -1913 0
-1382 1908 1909 1910 1911 0
1382 -1911 0
1382 -1910 0
1382 -1908 0
1382 -1909 0
-1383 1908 1384 0
-1383 1909 1910 1384 0
1383 -1384 0
1383 -1908 -1910 0
1383 -1908 -1909 0
-1384 1908 1385 0
-1384 1911 1912 1385 0
1384 -1385 0
1384 -1908 -1912 0
1384 -1908 -1911 0
-1385 1908 1386 0
-1385 1913 1914 1386 0
1385 -1386 0
1385 -1908 -1914 0
1385 -1908 -1913 0
-1386 1908 1387 0
-1386 1915 1998 1387 0
1386 -1387 0
1386 -1908 -1998 0
1386 -1908 -1915 0
-1387 1909 1388 0
-1387 1910 1911 1388 0
1387 -1388 0
1387 -1909 -1911 0
1387 -1909 -1910 0
-1388 1909 1389 0
-1388 1912 1913 1389 0
1388 -1389 0
1388 -1909 -1913 0
1388 -1909 -1912 0
-1389 1909 1390 0
-1389 1914 1998 1390 0
1389 -1390 0
1389 -1909 -1998 0
1389 -1909 -1914 0
-1390 1910 1391 0
-1390 1911 1912 1391 0
1390 -1391 0
1390 -1910 -1912 0
1390 -1910 -1911 0
-1391 1910 1392 0
-1391 1913 1914 1392 0
1391 -1392 0
1391 -1910 -1914 0
1391 -1910 -1913 0
-1392 1910 1393 0
-1392 1915 1998 1393 0
1392 -1393 0
1392 -1910 -1998 0
1392 -1910 -1915 0
-1393 1911 1394 0
-1393 1912 1913 1394 0
1393 -1394 0
1393 -1911 -1913 0
1393 -1911 -1912 0
-1394 1911 1395 0
-1394 1914 1915 1395 0
1394 -1395 0
1394 -1911 -1915 0
1394 -1911 -1914 0
-1395 1998 1396 0
-1395 1911 1396 0
1395 -1396 0
1395 -1911 -1998 0
-1396 1912 1397 0
-1396 1913 1914 1397 0
1396 -1397 0
1396 -1912 -1914 0
1396 -1912 -1913 0
-1397 1912 1398 0
-1397 1915 1998 1398 0
1397 -1398 0
1397 -1912 -1998 0
1397 -1912 -1915 0
-1398 1913 1399 0
-1398 1914 1915 1399 0
1398 -1399 0
1398 -1913 -1915 0
1398 -1913 -1914 0
-1399 1998 1400 0
-1399 1913 1400 0
1399 -1400 0
1399 -1913 -1998 0
-1400 1914 1915 1401 0
-1400 1915 1998 1401 0
-1400 1914 1998 1401 0
1400 -1914 -1915 0
1400 -1915 -1998 0
1400 -1401 0
1400 -1914 -1998 0
-1401 1402 1405 0
-1401 -1800 -2116 1405 0
-1401 1800 2116 1405 0
1401 -1405 0
1401 1800 -2116 -1402 0
1401 -1800 2116 -1402 0
-1402 1910 1911 1912 1403 0
1402 -1403 0
1402 -1912 0
1402 -1910 0
1402 -1911 0
-1403 1908 1913 1914 1404 0
1403 -1404 0
1403 -1914 0
1403 -1908 0
1403 -1913 0
-1404 1907 1998 0
1404 -1907 0
1404 -1998 0
-1405 1402 1406 0
-1405 -1799 -2115 1406 0
-1405 1799 2115 1406 0
1405 -1406 0
1405 1799 -2115 -1402 0
1405 -1799 2115 -1402 0
-1406 1402 1407 0
-1406 -1798 -2114 1407 0
-1406 1798 2114 1407 0
1406 -1407 0
1406 1798 -2114 -1402 0
1406 -1798 2114 -1402 0
-1407 1402 1408 0
-1407 -1797 -2113 1408 0
-1407 1797 2113 1408 0
1407 -1408 0
1407 1797 -2113 -1402 0
1407 -1797 2113 -1402 0
-1408 1402 1409 0
-1408 -1796 -2112 1409 0
-1408 1796 2112 1409 0
1408 -1409 0
1408 1796 -2112 -1402 0
1408 -1796 2112 -1402 0
-1409 1402 1410 0
-1409 -1795 -2111 1410 0
-1409 1795 2111 1410 0
1409 -1410 0
1409 1795 -2111 -1402 0
1409 -1795 2111 -1402 0
-1410 1402 1411 0
-1410 -1794 -2110 1411 0
-1410 1794 2110 1411 0
1410 -1411 0
1410 1794 -2110 -1402 0
1410 -1794 2110 -1402 0
-1411 1402 1412 0
-1411 -1793 -2109 1412 0
-1411 1793 2109 1412 0
1411 -1412 0
1411 1793 -2109 -1402 0
1411 -1793 2109 -1402 0
-1412 1402 1413 0
-1412 -1792 -2108 1413 0
-1412 1792 2108 1413 0
1412 -1413 0
1412 1792 -2108 -1402 0
1412 -1792 2108 -1402 0
-1413 1402 1414 0
-1413 -1791 -2107 1414 0
-1413 1791 2107 1414 0
1413 -1414 0
1413 1791 -2107 -1402 0
1413 -1791 2107 -1402 0
-1414 1402 1415 0
-1414 -1790 -2106 1415 0
-1414 1790 2106 1415 0
1414 -1415 0
1414 1790 -2106 -1402 0
1414 -1790 2106 -1402 0
-1415 1402 1416 0
-1415 -1789 -2105 1416 0
-1415 1789 2105 1416 0
1415 -1416 0
1415 1789 -2105 -1402 0
1415 -1789 2105 -1402 0
-1416 1402 1417 0
-1416 -1788 -2104 1417 0
-1416 1788 2104 1417 0
1416 -1417 0
1416 1788 -2104 -1402 0
1416 -1788 2104 -1402 0
-1417 1402 1418 0
-1417 -1787 -2103 1418 0
-1417 1787 2103 1418 0
1417 -1418 0
1417 1787 -2103 -1402 0
1417 -1787 2103 -1402 0
-1418 1402 1419 0
-1418 -1786 -2102 1419 0
-1418 1786 2102 1419 0
1418 -1419 0
1418 1786 -2102 -1402 0
1418 -1786 2102 -1402 0
-1419 1402 1420 0
-1419 -1785 -2101 1420 0
-1419 1785 2101 1420 0
1419 -1420 0
1419 1785 -2101 -1402 0
1419 -1785 2101 -1402 0
-1420 1402 1421 0
-1420 -1604 -1916 1421 0
-1420 1604 1916 1421 0
1420 -1421 0
1420 1604 -1916 -1402 0
1420 -1604 1916 -1402 0
-1421 1402 1422 0
-1421 -1605 -1917 1422 0
-1421 1605 1917 1422 0
1421 -1422 0
1421 1605 -1917 -1402 0
1421 -1605 1917 -1402 0
-1422 1402 1423 0
-1422 -1606 -1918 1423 0
-1422 1606 1918 1423 0
1422 -1423 0
1422 1606 -1918 -1402 0
1422 -1606 1918 -1402 0
-1423 1402 1424 0
-1423 -1607 -1919 1424 0
-1423 1607 1919 1424 0
1423 -1424 0
1423 1607 -1919 -1402 0
1423 -1607 1919 -1402 0
-1424 1402 1425 0
-1424 -1608 -1920 1425 0
-1424 1608 1920 1425 0
1424 -1425 0
1424 1608 -1920 -1402 0
1424 -1608 1920 -1402 0
-1425 1402 1426 0
-1425 -1609 -1921 1426 0
-1425 1609 1921 1426 0
1425 -1426 0
1425 1609 -1921 -1402 0
1425 -1609 1921 -1402 0
-1426 1402 1427 0
-1426 -1610 -1922 1427 0
-1426 1610 1922 1427 0
1426 -1427 0
1426 1610 -1922 -1402 0
1426 -1610 1922 -1402 0
-1427 1402 1428 0
-1427 -1611 -1923 1428 0
-1427 1611 1923 1428 0
1427 -1428 0
1427 1611 -1923 -1402 0
1427 -1611 1923 -1402 0
-1428 1402 1429 0
-1428 -1612 -1924 1429 0
-1428 1612 1924 1429 0
1428 -1429 0
1428 1612 -1924 -1402 0
1428 -1612 1924 -1402 0
-1429 1402 1430 0
-1429 -1613 -1925 1430 0
-1429 1613 1925 1430 0
1429 -1430 0
1429 1613 -1925 -1402 0
1429 -1613 1925 -1402 0
-1430 1402 1431 0
-1430 -1614 -1926 1431 0
-1430 1614 1926 1431 0
1430 -1431 0
1430 1614 -1926 -1402 0
1430 -1614 1926 -1402 0
-1431 1402 1432 0
-1431 -1615 -1927 1432 0
-1431 1615 1927 1432 0
1431 -1432 0
1431 1615 -1927 -1402 0
1431 -1615 1927 -1402 0
-1432 1402 1433 0
-1432 -1616 -1928 1433 0
-1432 1616 1928 1433 0
1432 -1433 0
1432 1616 -1928 -1402 0
1432 -1616 1928 -1402 0
-1433 1402 1434 0
-1433 -1617 -1929 1434 0
-1433 1617 1929 1434 0
1433 -1434 0
1433 1617 -1929 -1402 0
1433 -1617 1929 -1402 0
-1434 1402 1435 0
-1434 -1618 -1930 1435 0
-1434 1618 1930 1435 0
1434 -1435 0
1434 1618 -1930 -1402 0
1434 -1618 1930 -1402 0
-1435 1402 1436 0
-1435 -1619 -1931 1436 0
-1435 1619 1931 1436 0
1435 -1436 0
1435 1619 -1931 -1402 0
1435 -1619 1931 -1402 0
-1436 1402 1437 0
-1436 -1620 -1932 1437 0
-1436 1620 1932 1437 0
1436 -1437 0
1436 1620 -1932 -1402 0
1436 -1620 1932 -1402 0
-1437 1402 1438 0
-1437 -1621 -1933 1438 0
-1437 1621 1933 1438 0
1437 -1438 0
1437 1621 -1933 -1402 0
1437 -1621 1933 -1402 0
-1438 1402 1439 0
-1438 -1622 -1934 1439 0
-1438 1622 1934 1439 0
1438 -1439 0
1438 1622 -1934 -1402 0
1438 -1622 1934 -1402 0
-1439 1402 1440 0
-1439 -1623 -1935 1440 0
-1439 1623 1935 1440 0
1439 -1440 0
1439 1623 -1935 -1402 0
1439 -1623 1935 -1402 0
-1440 1402 1441 0
-1440 -1624 -1936 1441 0
-1440 1624 1936 1441 0
1440 -1441 0
1440 1624 -1936 -1402 0
1440 -1624 1936 -1402 0
-1441 1402 1442 0
-1441 -1625 -1937 1442 0
-1441 1625 1937 1442 0
1441 -1442 0
1441 1625 -1937 -1402 0
1441 -1625 1937 -1402 0
-1442 1402 1443 0
-1442 -1626 -1938 1443 0
-1442 1626 1938 1443 0
1442 -1443 0
1442 1626 -1938 -1402 0
1442 -1626 1938 -1402 0
-1443 1402 1444 0
-1443 -1627 -1939 1444 0
-1443 1627 1939 1444 0
1443 -1444 0
1443 1627 -1939 -1402 0
1443 -1627 1939 -1402 0
-1444 1402 1445 0
-1444 -1628 -1940 1445 0
-1444 1628 1940 1445 0
1444 -1445 0
1444 1628 -1940 -1402 0
1444 -1628 1940 -1402 0
-1445 1402 1446 0
-1445 -1629 -1941 1446 0
-1445 1629 1941 1446 0
1445 -1446 0
1445 1629 -1941 -1402 0
1445 -1629 1941 -1402 0
-1446 1402 1447 0
-1446 -1630 -1942 1447 0
-1446 1630 1942 1447 0
1446 -1447 0
1446 1630 -1942 -1402 0
1446 -1630 1942 -1402 0
-1447 1402 1448 0
-1447 -1631 -1943 1448 0
-1447 1631 1943 1448 0
1447 -1448 0
1447 1631 -1943 -1402 0
1447 -1631 1943 -1402 0
-1448 1402 1449 0
-1448 -1632 -1944 1449 0
-1448 1632 1944 1449 0
1448 -1449 0
1448 1632 -1944 -1402 0
1448 -1632 1944 -1402 0
-1449 1402 1450 0
-1449 -1633 -1945 1450 0
-1449 1633 1945 1450 0
1449 -1450 0
1449 1633 -1945 -1402 0
1449 -1633 1945 -1402 0
-1450 1402 1451 0
-1450 -1634 -1946 1451 0
-1450 1634 1946 1451 0
1450 -1451 0
1450 1634 -1946 -1402 0
1450 -1634 1946 -1402 0
-1451 1402 1452 0
-1451 -1635 -1947 1452 0
-1451 1635 1947 1452 0
1451 -1452 0
1451 1635 -1947 -1402 0
1451 -1635 1947 -1402 0
-1452 1402 1453 0
-1452 -1636 -1948 1453 0
-1452 1636 1948 1453 0
1452 -1453 0
1452 1636 -1948 -1402 0
1452 -1636 1948 -1402 0
-1453 1402 1454 0
-1453 -1637 -1949 1454 0
-1453 1637 1949 1454 0
1453 -1454 0
1453 1637 -1949 -1402 0
1453 -1637 1949 -1402 0
-1454 1402 1455 0
-1454 -1638 -1950 1455 0
-1454 1638 1950 1455 0
1454 -1455 0
1454 1638 -1950 -1402 0
1454 -1638 1950 -1402 0
-1455 1402 1456 0
-1455 -1639 -1951 1456 0
-1455 1639 1951 1456 0
1455 -1456 0
1455 1639 -1951 -1402 0
1455 -1639 1951 -1402 0
-1456 1402 1457 0
-1456 -1640 -1952 1457 0
-1456 1640 1952 1457 0
1456 -1457 0
1456 1640 -1952 -1402 0
1456 -1640 1952 -1402 0
-1457 1402 1458 0
-1457 -1641 -1953 1458 0
-1457 1641 1953 1458 0
1457 -1458 0
1457 1641 -1953 -1402 0
1457 -1641 1953 -1402 0
-1458 1402 1459 0
-1458 -1642 -1954 1459 0
-1458 1642 1954 1459 0
1458 -1459 0
1458 1642 -1954 -1402 0
1458 -1642 1954 -1402 0
-1459 1402 1460 0
-1459 -1643 -1955 1460 0
-1459 1643 1955 1460 0
1459 -1460 0
1459 1643 -1955 -1402 0
1459 -1643 1955 -1402 0
-1460 1402 1461 0
-1460 -1644 -1956 1461 0
-1460 1644 1956 1461 0
1460 -1461 0
1460 1644 -1956 -1402 0
1460 -1644 1956 -1402 0
-1461 1402 1462 0
-1461 -1645 -1957 1462 0
-1461 1645 1957 1462 0
1461 -1462 0
1461 1645 -1957 -1402 0
1461 -1645 1957 -1402 0
-1462 1402 1463 0
-1462 -1646 -1958 1463 0
-1462 1646 1958 1463 0
1462 -1463 0
1462 1646 -1958 -1402 0
1462 -1646 1958 -1402 0
-1463 1402 1464 0
-1463 -1647 -1959 1464 0
-1463 1647 1959 1464 0
1463 -1464 0
1463 1647 -1959 -1402 0
1463 -1647 1959 -1402 0
-1464 1402 1465 0
-1464 -1648 -1960 1465 0
-1464 1648 1960 1465 0
1464 -1465 0
1464 1648 -1960 -1402 0
1464 -1648 1960 -1402 0
-1465 1402 1466 0
-1465 -1649 -1961 1466 0
-1465 1649 1961 1466 0
1465 -1466 0
1465 1649 -1961 -1402 0
1465 -1649 1961 -1402 0
-1466 1402 1467 0
-1466 -1650 -1962 1467 0
-1466 1650 1962 1467 0
1466 -1467 0
1466 1650 -1962 -1402 0
1466 -1650 1962 -1402 0
-1467 1402 1468 0
-1467 -1651 -1963 1468 0
-1467 1651 1963 1468 0
1467 -1468 0
1467 1651 -1963 -1402 0
1467 -1651 1963 -1402 0
-1468 1402 1469 0
-1468 -1652 -1964 1469 0
-1468 1652 1964 1469 0
1468 -1469 0
1468 1652 -1964 -1402 0
1468 -1652 1964 -1402 0
-1469 1402 1470 0
-1469 -1653 -1965 1470 0
-1469 1653 1965 1470 0
1469 -1470 0
1469 1653 -1965 -1402 0
1469 -1653 1965 -1402 0
-1470 1402 1471 0
-1470 -1654 -1966 1471 0
-1470 1654 1966 1471 0
1470 -1471 0
1470 1654 -1966 -1402 0
1470 -1654 1966 -1402 0
-1471 1402 1472 0
-1471 -1655 -1967 1472 0
-1471 1655 1967 1472 0
1471 -1472 0
1471 1655 -1967 -1402 0
1471 -1655 1967 -1402 0
-1472 1402 1473 0
-1472 -1656 -1968 1473 0
-1472 1656 1968 1473 0
1472 -1473 0
1472 1656 -1968 -1402 0
1472 -1656 1968 -1402 0
-1473 1402 1474 0
-1473 -1657 -1969 1474 0
-1473 1657 1969 1474 0
1473 -1474 0
1473 1657 -1969 -1402 0
1473 -1657 1969 -1402 0
-1474 1402 1475 0
-1474 -1658 -1970 1475 0
-1474 1658 1970 1475 0
1474 -1475 0
1474 1658 -1970 -1402 0
1474 -1658 1970 -1402 0
-1475 1402 1476 0
-1475 -1659 -1971 1476 0
-1475 1659 1971 1476 0
1475 -1476 0
1475 1659 -1971 -1402 0
1475 -1659 1971 -1402 0
-1476 1402 1477 0
-1476 -1660 -1972 1477 0
-1476 1660 1972 1477 0
1476 -1477 0
1476 1660 -1972 -1402 0
1476 -1660 1972 -1402 0
-1477 1402 1478 0
-1477 -1661 -1973 1478 0
-1477 1661 1973 1478 0
1477 -1478 0
1477 1661 -1973 -1402 0
1477 -1661 1973 -1402 0
-1478 1402 1479 0
-1478 -1662 -1974 1479 0
-1478 1662 1974 1479 0
1478 -1479 0
1478 1662 -1974 -1402 0
1478 -1662 1974 -1402 0
-1479 1402 1480 0
-1479 -1663 -1975 1480 0
-1479 1663 1975 1480 0
1479 -1480 0
1479 1663 -1975 -1402 0
1479 -1663 1975 -1402 0
-1480 1402 1481 0
-1480 1664 1665 1481 0
1480 -1481 0
1480 -1665 -1402 0
1480 -1664 -1402 0
-1481 1666 1482 1483 0
-1481 1402 1482 1483 0
1481 -1483 0
1481 -1482 0
1481 -1666 -1402 0
1482 1667 -1979 -1402 0
1482 -1667 1979 -1402 0
-1482 1402 0
-1482 1667 1979 0
-1482 -1667 -1979 0
-1483 1402 1484 0
-1483 -1668 -1980 1484 0
-1483 1668 1980 1484 0
1483 -1484 0
1483 1668 -1980 -1402 0
1483 -1668 1980 -1402 0
-1484 1669 1485 1502 0
-1484 1402 1485 1502 0
1484 -1502 0
1484 -1485 0
1484 -1669 -1402 0
1485 -1487 1496 0
1485 1670 -1486 1496 0
1485 -1670 1486 1496 0
-1485 -1496 0
-1485 1670 1486 1487 0
-1485 -1670 -1486 1487 0
1486 -1982 -1402 0
-1486 1982 0
-1486 1402 0
1487 1490 -1492 0
1487 -1488 1494 0
-1487 1488 1492 0
-1487 -1490 -1494 0
-1487 1488 -1490 0
-1487 1492 -1494 0
-1488 -1672 -1489 0
-1488 1672 1489 0
1488 1672 -1489 0
1488 -1672 1489 0
1489 -1984 -1402 0
-1489 1984 0
-1489 1402 0
1490 1671 -1491 0
1490 -1671 1491 0
-1490 -1671 -1491 0
-1490 1671 1491 0
1491 1983 -1402 0
-1491 -1983 0
-1491 1402 0
-1492 -1671 -1493 0
-1492 1671 1493 0
1492 1671 -1493 0
1492 -1671 1493 0
1493 -1983 -1402 0
-1493 1983 0
-1493 1402 0
1494 1672 -1495 0
1494 -1672 1495 0
-1494 -1672 -1495 0
-1494 1672 1495 0
1495 1984 -1402 0
-1495 -1984 0
-1495 1402 0
-1496 -1488 1500 0
-1496 1497 1500 1501 0
1496 -1500 0
1496 1488 -1501 0
1496 1488 -1497 0
1497 1492 -1498 0
-1497 -1492 0
-1497 1498 0
1498 1670 -1499 0
1498 -1670 1499 0
-1498 -1670 -1499 0
-1498 1670 1499 0
1499 1982 -1402 0
-1499 -1982 0
-1499 1402 0
1500 1492 -1494 -1498 0
-1500 -1492 0
-1500 1494 0
-1500 1498 0
1501 -1490 -1498 0
-1501 1490 0
-1501 1498 0
-1502 1514 1522 0
-1502 -1503 -1505 1522 0
1502 -1522 0
1502 1505 -1514 0
1502 1503 -1514 0
1503 1673 -1504 0
1503 -1673 1504 0
-1503 -1673 -1504 0
-1503 1673 1504 0
1504 1985 -1402 0
-1504 -1985 0
-1504 1402 0
-1505 -1508 1510 0
-1505 1506 -1512 0
-1505 1506 1510 0
1505 -1506 1508 0
1505 -1510 1512 0
1505 -1506 -1510 0
1506 1674 -1507 0
1506 -1674 1507 0
-1506 -1674 -1507 0
-1506 1674 1507 0
1507 1986 -1402 0
-1507 -1986 0
-1507 1402 0
-1508 -1675 -1509 0
-1508 1675 1509 0
1508 1675 -1509 0
1508 -1675 1509 0
1509 -1987 -1402 0
-1509 1987 0
-1509 1402 0
1510 1675 -1511 0
1510 -1675 1511 0
-1510 -1675 -1511 0
-1510 1675 1511 0
1511 1987 -1402 0
-1511 -1987 0
-1511 1402 0
-1512 -1674 -1513 0
-1512 1674 1513 0
1512 1674 -1513 0
1512 -1674 1513 0
1513 -1986 -1402 0
-1513 1986 0
-1513 1402 0
1514 -1515 1518 1519 0
1514 -1512 1518 1519 0
-1514 -1519 0
-1514 -1518 0
-1514 1512 1515 0
-1515 1508 1516 0
1515 -1508 0
1515 -1516 0
-1516 -1673 -1517 0
-1516 1673 1517 0
1516 1673 -1517 0
1516 -1673 1517 0
1517 -1985 -1402 0
-1517 1985 0
-1517 1402 0
1518 -1510 1512 1516 0
-1518 1510 0
-1518 -1512 0
-1518 -1516 0
-1519 1506 1520 1521 0
-1519 -1515 1520 1521 0
1519 -1521 0
1519 -1520 0
1519 -1506 1515 0
1520 -1506 -1510 1516 0
-1520 1506 0
-1520 1510 0
-1520 -1516 0
1521 -1503 1508 1512 0
-1521 1503 0
-1521 -1508 0
-1521 -1512 0
-1522 1523 1530 1531 1538 0
1522 -1538 0
1522 -1531 0
1522 -1523 0
1522 -1530 0
1523 -1524 -1526 0
1523 -1686 -1526 1529 0
1523 1686 -1526 -1529 0
-1523 1526 0
-1523 1686 1524 1529 0
-1523 -1686 1524 -1529 0
-1524 -1687 -1525 0
-1524 1687 1525 0
1524 1687 -1525 0
1524 -1687 1525 0
1525 1914 -2000 0
-1525 -1914 0
-1525 2000 0
-1526 -1914 1527 0
-1526 1687 2000 1527 0
-1526 -1687 -2000 1527 0
1526 -1527 0
1526 1687 1914 -2000 0
1526 -1687 1914 2000 0
-1527 -1686 -1528 0
-1527 1686 1528 0
1527 1686 -1528 0
1527 -1686 1528 0
1528 1914 -1999 0
-1528 -1914 0
-1528 1999 0
-1529 1914 1999 0
1529 -1914 0
1529 -1999 0
1530 -1688 1914 2001 0
1530 1688 1914 -2001 0
-1530 -1914 0
-1530 -1688 -2001 0
-1530 1688 2001 0
1531 -1532 -1535 0
1531 1690 -1534 -1535 0
1531 -1690 1534 -1535 0
-1531 1535 0
-1531 1690 1532 1534 0
-1531 -1690 1532 -1534 0
-1532 -1691 -1533 0
-1532 1691 1533 0
1532 1691 -1533 0
1532 -1691 1533 0
1533 1914 -2007 0
-1533 -1914 0
-1533 2007 0
-1534 1914 2006 0
1534 -1914 0
1534 -2006 0
1535 -1536 0
1535 1691 1914 -2007 0
1535 -1691 1914 2007 0
-1535 -1914 1536 0
-1535 1691 2007 1536 0
-1535 -1691 -2007 1536 0
-1536 -1690 -1537 0
-1536 1690 1537 0
1536 1690 -1537 0
1536 -1690 1537 0
1537 1914 -2006 0
-1537 -1914 0
-1537 2006 0
-1538 1539 1546 1547 1554 0
1538 -1554 0
1538 -1547 0
1538 -1539 0
1538 -1546 0
1539 -1540 -1542 0
1539 -1694 -1542 1545 0
1539 1694 -1542 -1545 0
-1539 1542 0
-1539 1694 1540 1545 0
-1539 -1694 1540 -1545 0
-1540 -1693 -1541 0
-1540 1693 1541 0
1540 1693 -1541 0
1540 -1693 1541 0
1541 1914 -2009 0
-1541 -1914 0
-1541 2009 0
-1542 -1914 1543 0
-1542 1693 2009 1543 0
-1542 -1693 -2009 1543 0
1542 -1543 0
1542 1693 1914 -2009 0
1542 -1693 1914 2009 0
-1543 -1694 -1544 0
-1543 1694 1544 0
1543 1694 -1544 0
1543 -1694 1544 0
1544 1914 -2010 0
-1544 -1914 0
-1544 2010 0
-1545 1914 2010 0
1545 -1914 0
1545 -2010 0
1546 -1689 1914 2005 0
1546 1689 1914 -2005 0
-1546 -1914 0
-1546 -1689 -2005 0
-1546 1689 2005 0
1547 -1548 -1550 0
1547 -1702 -1550 1553 0
1547 1702 -1550 -1553 0
-1547 1550 0
-1547 1702 1548 1553 0
-1547 -1702 1548 -1553 0
-1548 -1703 -1549 0
-1548 1703 1549 0
1548 1703 -1549 0
1548 -1703 1549 0
1549 1914 -2019 0
-1549 -1914 0
-1549 2019 0
-1550 -1914 1551 0
-1550 1703 2019 1551 0
-1550 -1703 -2019 1551 0
1550 -1551 0
1550 1703 1914 -2019 0
1550 -1703 1914 2019 0
-1551 -1702 -1552 0
-1551 1702 1552 0
1551 1702 -1552 0
1551 -1702 1552 0
1552 1914 -2018 0
-1552 -1914 0
-1552 2018 0
-1553 1914 2018 0
1553 -1914 0
1553 -2018 0
-1554 -1914 1555 0
-1554 1704 2020 1555 0
-1554 -1704 -2020 1555 0
1554 -1555 0
1554 1704 1914 -2020 0
1554 -1704 1914 2020 0
-1555 1556 1563 1570 1571 0
1555 -1571 0
1555 -1570 0
1555 -1556 0
1555 -1563 0
1556 -1557 -1560 0
1556 1709 -1559 -1560 0
1556 -1709 1559 -1560 0
-1556 1560 0
-1556 1709 1557 1559 0
-1556 -1709 1557 -1559 0
-1557 -1710 -1558 0
-1557 1710 1558 0
1557 1710 -1558 0
1557 -1710 1558 0
1558 1914 -2026 0
-1558 -1914 0
-1558 2026 0
-1559 1914 2025 0
1559 -1914 0
1559 -2025 0
1560 -1561 0
1560 1710 1914 -2026 0
1560 -1710 1914 2026 0
-1560 -1914 1561 0
-1560 1710 2026 1561 0
-1560 -1710 -2026 1561 0
-1561 -1709 -1562 0
-1561 1709 1562 0
1561 1709 -1562 0
1561 -1709 1562 0
1562 1914 -2025 0
-1562 -1914 0
-1562 2025 0
1563 -1564 -1566 0
1563 -1713 -1566 1569 0
1563 1713 -1566 -1569 0
-1563 1566 0
-1563 1713 1564 1569 0
-1563 -1713 1564 -1569 0
-1564 -1712 -1565 0
-1564 1712 1565 0
1564 1712 -1565 0
1564 -1712 1565 0
1565 1914 -2028 0
-1565 -1914 0
-1565 2028 0
-1566 -1914 1567 0
-1566 1712 2028 1567 0
-1566 -1712 -2028 1567 0
1566 -1567 0
1566 1712 1914 -2028 0
1566 -1712 1914 2028 0
-1567 -1713 -1568 0
-1567 1713 1568 0
1567 1713 -1568 0
1567 -1713 1568 0
1568 1914 -2029 0
-1568 -1914 0
-1568 2029 0
-1569 1914 2029 0
1569 -1914 0
1569 -2029 0
1570 -1708 1914 2024 0
1570 1708 1914 -2024 0
-1570 -1914 0
-1570 -1708 -2024 0
-1570 1708 2024 0
-1571 1402 1581 0
-1571 1603 1572 0
-1571 1402 1572 0
-1571 1603 1581 0
1571 -1572 -1581 0
1571 -1603 -1402 0
-1572 -1593 1594 1573 -1578 0
-1572 -1593 -1594 -1573 -1578 0
-1572 1593 1594 1573 1578 0
-1572 1593 -1594 -1573 1578 0
1572 1593 -1578 0
1572 -1593 1578 0
1572 -1594 1573 0
1572 1594 -1573 0
1573 979 -1574 0
1573 979 -1576 0
-1573 -979 0
-1573 1574 1576 0
1574 -1891 -1575 0
-1574 1891 0
-1574 1575 0
1575 -1892 -988 0
-1575 1892 0
-1575 988 0
-1576 988 1577 0
-1576 1891 -1892 -988 0
1576 988 -1577 0
1576 -1891 -988 0
1576 1892 -988 0
1577 990 992 -993 0
1577 -1895 990 992 0
-1577 -992 0
-1577 -990 0
-1577 1895 993 0
1578 979 1574 -1579 0
-1578 1579 0
-1578 -1574 0
-1578 -979 0
1579 988 -1580 0
1579 1891 -1892 -988 0
-1579 988 1580 0
-1579 -1891 -988 0
-1579 1892 -988 0
1580 990 -993 0
1580 -1894 990 0
1580 990 -992 0
-1580 -990 0
-1580 1894 992 993 0
-1581 -1593 1594 1582 -1583 0
-1581 -1593 -1594 -1582 -1583 0
-1581 1593 1594 1582 1583 0
-1581 1593 -1594 -1582 1583 0
1581 1593 -1583 0
1581 -1593 1583 0
1581 -1594 1582 0
1581 1594 -1582 0
1582 979 1574 -1576 0
-1582 -979 0
-1582 1576 0
-1582 -1574 0
1583 979 -1574 0
1583 979 -1579 0
-1583 -979 0
-1583 1574 1579 0
-1584 -1707 -1585 0
-1584 1707 1585 0
1584 1707 -1585 0
1584 -1707 1585 0
1585 -2023 1586 0
1585 -1914 1586 0
-1585 -1586 0
-1585 1914 2023 0
-1586 1914 0
-1586 1244 1588 0
-1586 -1244 -1587 0
1586 -1914 1244 -1588 0
1586 -1914 -1244 1587 0
1587 2177 -2178 0
-1587 -2177 0
-1587 2178 0
-1588 2168 2170 0
-1588 -2168 2177 -2178 0
1588 2168 -2170 0
1588 -2168 2178 0
1588 -2168 -2177 0
1589 -1879 1907 0
1589 1879 -1907 -1591 0
1589 -1879 1590 0
-1589 1879 1591 0
-1589 -1879 -1907 -1590 0
-1589 1879 1907 0
1590 -1977 -654 0
1590 -654 -670 0
-1590 654 0
-1590 1977 670 0
1591 1879 1977 -654 670 0
-1591 -1879 0
-1591 -670 0
-1591 654 0
-1591 -1977 0
-2181 0
2 0
81 0
137 0
348 0
355 0
505 0
506 0
548 0
-598 0
-601 0
604 0
-607 0
-610 0
613 0
644 0
1592 0
-651 0
-671 0
-682 0
-684 0
-701 0
703 0
723 0
725 0
727 0
739 0
741 0
743 0
867 0
-978 0
1593 0
1594 0
994 0
-1017 0
-1019 0
1595 0
1596 0
1597 0
1598 0
1599 0
1600 0
1601 0
1602 0
1603 0
1021 0
1022 0
1023 0
1025 0
1026 0
1027 0
1028 0
1022 0
1604 0
1605 0
1606 0
1607 0
1608 0
1609 0
1610 0
1611 0
1612 0
1613 0
1614 0
1615 0
1616 0
1617 0
1618 0
1619 0
1620 0
1621 0
1622 0
1623 0
1624 0
1625 0
1626 0
1627 0
1628 0
1629 0
1630 0
1631 0
1632 0
1633 0
1634 0
1635 0
1636 0
1637 0
1638 0
1639 0
1640 0
1641 0
1642 0
1643 0
1644 0
1645 0
1646 0
1647 0
1648 0
1649 0
1650 0
1651 0
1652 0
1653 0
1654 0
1655 0
1656 0
1657 0
1658 0
1659 0
1660 0
1661 0
1662 0
1663 0
1664 0
1665 0
1666 0
1667 0
1668 0
1669 0
1670 0
1671 0
1672 0
1673 0
1674 0
1675 0
1676 0
1677 0
1678 0
1679 0
1680 0
1681 0
1682 0
1683 0
1684 0
1685 0
1029 0
1686 0
1687 0
1688 0
1030 0
1032 0
1034 0
1689 0
1690 0
1691 0
1692 0
1693 0
1694 0
1695 0
1696 0
1697 0
1698 0
1699 0
1700 0
1701 0
1702 0
1703 0
1704 0
1705 0
1706 0
1707 0
1708 0
1709 0
1710 0
1711 0
1712 0
1713 0
1714 0
1715 0
1716 0
1717 0
1718 0
1719 0
1720 0
1721 0
1722 0
1723 0
1724 0
1725 0
1726 0
1727 0
1728 0
1729 0
1730 0
1731 0
1732 0
1733 0
1734 0
1735 0
1736 0
1737 0
1738 0
1739 0
1740 0
1741 0
1742 0
1743 0
1744 0
1745 0
1746 0
1747 0
1748 0
1749 0
1750 0
1751 0
1752 0
1753 0
1754 0
1755 0
1756 0
1757 0
1758 0
1759 0
1760 0
1761 0
1762 0
1763 0
1764 0
1765 0
1766 0
1767 0
1768 0
1769 0
1770 0
1771 0
1772 0
1773 0
1774 0
1775 0
1776 0
1777 0
1778 0
1779 0
1780 0
1781 0
1782 0
1783 0
1784 0
1785 0
1786 0
1787 0
1788 0
1789 0
1790 0
1791 0
1792 0
1793 0
1794 0
1795 0
1796 0
1797 0
1798 0
1799 0
1800 0
1801 0
1802 0
1805 0
1806 0
1807 0
1808 0
1809 0
1812 0
1813 0
1818 0
1819 0
1820 0
1821 0
1822 0
1823 0
1824 0
1825 0
1826 0
1827 0
1828 0
1829 0
1830 0
1831 0
1832 0
1833 0
1834 0
1835 0
1836 0
1837 0
1838 0
1839 0
1840 0
1841 0
1842 0
1843 0
1844 0
1845 0
1846 0
1847 0
1848 0
1849 0
1850 0
1851 0
1852 0
1853 0
1854 0
1855 0
1856 0
1857 0
1858 0
1859 0
1860 0
1861 0
1862 0
1863 0
1864 0
1865 0
1866 0
1867 0
1868 0
1869 0
1870 0
1036 0
-2181 0

