c Result of efficient AIG-to-CNF conversion using package CNF
p cnf 3917 17291
2 -3915 3 6 -13 0
-2 13 0
-2 -6 0
-2 3915 0
-2 -3 0
3 -3880 -4 0
-3 3880 0
-3 4 0
4 3881 -5 0
-4 -3881 0
-4 5 0
5 3882 3883 -3884 0
-5 3884 0
-5 -3883 0
-5 -3882 0
6 3880 -3881 -7 0
6 3880 -3881 10 0
-6 -3880 0
-6 3881 0
-6 7 -10 0
7 -3884 8 0
7 -3884 -9 0
-7 3884 0
-7 -8 9 0
-8 3882 3883 0
8 -3882 0
8 -3883 0
9 -3882 -3883 0
-9 3882 0
-9 3883 0
10 -11 12 0
-10 11 0
-10 -12 0
-11 3882 3883 3884 0
11 -3882 0
11 -3884 0
11 -3883 0
12 -3882 -3883 3884 0
-12 3882 0
-12 3883 0
-12 -3884 0
13 14 -16 18 20 0
-13 -20 0
-13 -18 0
-13 -14 0
-13 16 0
14 3880 3881 -15 0
-14 15 0
-14 -3881 0
-14 -3880 0
15 3882 -3883 3884 0
-15 -3882 0
-15 3883 0
-15 -3884 0
-16 3880 17 0
16 -3880 0
16 -17 0
-17 3881 11 0
17 -3881 0
17 -11 0
18 3880 3881 -19 0
-18 19 0
-18 -3881 0
-18 -3880 0
19 -3882 3883 -3884 0
-19 3882 0
-19 -3883 0
-19 3884 0
-20 21 22 23 24 0
20 -24 0
20 -23 0
20 -21 0
20 -22 0
21 -3880 17 0
-21 3880 0
-21 -17 0
22 3880 3881 -12 0
-22 12 0
-22 -3881 0
-22 -3880 0
23 3880 -4 0
-23 -3880 0
-23 4 0
-24 25 27 28 29 0
24 -29 0
24 -28 0
24 -25 0
24 -27 0
25 3880 3881 -26 0
-25 26 0
-25 -3881 0
-25 -3880 0
26 3882 -3883 -3884 0
-26 3884 0
-26 3883 0
-26 -3882 0
27 3880 -3881 -15 0
-27 15 0
-27 3881 0
-27 -3880 0
28 3880 -3881 -26 0
-28 26 0
-28 3881 0
-28 -3880 0
-29 30 32 33 34 0
29 -34 0
29 -33 0
29 -30 0
29 -32 0
30 3880 3881 -31 0
-30 31 0
-30 -3881 0
-30 -3880 0
31 -3882 3883 3884 0
-31 3882 0
-31 -3884 0
-31 -3883 0
32 3880 -3881 -19 0
-32 19 0
-32 3881 0
-32 -3880 0
33 3880 -3881 -31 0
-33 31 0
-33 3881 0
-33 -3880 0
34 3880 3881 -35 0
-34 35 0
-34 -3881 0
-34 -3880 0
35 -3882 -3883 -3884 0
-35 3882 0
-35 3883 0
-35 3884 0
36 -3915 -37 -75 0
36 -3915 41 -75 0
-36 75 0
-36 3915 0
-36 37 -41 0
37 3828 -38 0
-37 -3828 0
-37 38 0
38 -3829 39 0
-38 3829 0
-38 -39 0
-39 3830 40 0
39 -3830 0
39 -40 0
-40 3831 3832 0
40 -3831 0
40 -3832 0
41 42 45 48 -50 0
-41 50 0
-41 -48 0
-41 -42 0
-41 -45 0
42 3828 -43 0
-42 -3828 0
-42 43 0
43 3829 -44 0
-43 -3829 0
-43 44 0
44 -3830 -3831 -3832 0
-44 3830 0
-44 3831 0
-44 3832 0
45 3828 -46 0
-45 -3828 0
-45 46 0
46 3829 -47 0
-46 -3829 0
-46 47 0
47 3830 -3831 3832 0
-47 -3830 0
-47 3831 0
-47 -3832 0
48 -3828 49 0
-48 3828 0
-48 -49 0
-49 3829 39 0
49 -3829 0
49 -39 0
50 51 54 56 -58 0
-50 58 0
-50 -56 0
-50 -51 0
-50 -54 0
51 3828 -52 0
-51 -3828 0
-51 52 0
52 3829 -53 0
-52 -3829 0
-52 53 0
53 -3830 -3831 3832 0
-53 3830 0
-53 3831 0
-53 -3832 0
54 3828 -55 0
-54 -3828 0
-54 55 0
55 -3829 -44 0
-55 3829 0
-55 44 0
56 3828 -57 0
-56 -3828 0
-56 57 0
57 3829 -3830 3831 -3832 0
-57 3830 0
-57 -3831 0
-57 -3829 0
-57 3832 0
58 59 61 64 -65 0
-58 65 0
-58 -64 0
-58 -59 0
-58 -61 0
59 3828 -60 0
-59 -3828 0
-59 60 0
60 -3829 -53 0
-60 3829 0
-60 53 0
61 3828 -62 0
-61 -3828 0
-61 62 0
62 3829 -63 0
-62 -3829 0
-62 63 0
63 -3830 40 0
-63 3830 0
-63 -40 0
64 -3828 -46 0
-64 3828 0
-64 46 0
65 66 69 72 -74 0
-65 74 0
-65 -72 0
-65 -66 0
-65 -69 0
66 3828 -67 0
-66 -3828 0
-66 67 0
67 3829 -68 0
-67 -3829 0
-67 68 0
68 3830 -3831 -3832 0
-68 3832 0
-68 3831 0
-68 -3830 0
69 -3828 -70 0
-69 3828 0
-69 70 0
70 3829 -71 0
-70 -3829 0
-70 71 0
71 3830 3831 -3832 0
-71 3832 0
-71 -3831 0
-71 -3830 0
72 3828 -3829 -63 0
72 3828 -3829 -73 0
-72 -3828 0
-72 3829 0
-72 63 73 0
73 3830 -3831 0
-73 -3830 0
-73 3831 0
-74 -3870 -3871 0
-74 3870 3871 3872 0
74 3870 -3871 0
74 -3870 3871 0
74 3871 -3872 0
75 -74 -79 0
75 76 78 -79 0
-75 79 0
-75 74 -78 0
-75 74 -76 0
76 3828 -77 0
-76 -3828 0
-76 77 0
77 -3829 -68 0
-77 3829 0
-77 68 0
78 3828 -3829 -47 0
-78 47 0
-78 3829 0
-78 -3828 0
79 -74 -82 0
79 69 80 -82 0
-79 82 0
-79 74 -80 0
-79 -69 74 0
80 3828 -81 0
-80 -3828 0
-80 81 0
81 -3829 -63 0
-81 3829 0
-81 63 0
82 -74 -83 0
82 59 66 -83 0
-82 83 0
-82 -66 74 0
-82 -59 74 0
83 -74 -84 0
83 61 64 -84 0
-83 84 0
-83 -64 74 0
-83 -61 74 0
84 -74 -85 0
84 54 56 -85 0
-84 85 0
-84 -56 74 0
-84 -54 74 0
85 -74 -86 0
85 48 51 -86 0
-85 86 0
-85 -51 74 0
-85 -48 74 0
86 -74 -87 0
86 45 -87 0
-86 87 0
-86 -45 74 0
87 -42 -74 0
87 37 42 -88 0
87 -37 -74 0
-87 -37 74 0
-87 37 42 88 0
-87 -42 74 0
-88 45 48 51 89 0
88 -89 0
88 -51 0
88 -45 0
88 -48 0
-89 54 56 59 90 0
89 -90 0
89 -59 0
89 -54 0
89 -56 0
-90 61 64 66 91 0
90 -91 0
90 -66 0
90 -61 0
90 -64 0
-91 69 78 80 92 0
91 -92 0
91 -80 0
91 -69 0
91 -78 0
-92 74 76 0
92 -74 0
92 -76 0
93 -3915 94 95 0
-93 3915 0
-93 -94 0
-93 -95 0
-94 3870 3871 3872 0
94 -3870 0
94 -3872 0
94 -3871 0
95 3829 3830 -3832 -96 0
95 -3829 -3830 3832 -96 0
-95 -3829 -3832 0
-95 3830 3832 0
-95 96 0
-95 3829 -3830 0
96 3828 -3831 0
-96 -3828 0
-96 3831 0
-97 0
98 3880 -3915 -99 -155 0
-98 3915 0
-98 99 0
-98 -3880 0
-98 155 0
-99 48 51 56 100 0
99 -100 0
99 -56 0
99 -48 0
99 -51 0
-100 37 44 101 0
-100 -3828 37 101 0
100 -101 0
100 -37 0
100 3828 -44 0
-101 61 76 80 102 0
101 -102 0
101 -80 0
101 -61 0
101 -76 0
-102 64 69 95 103 0
102 -103 0
102 -95 0
102 -64 0
102 -69 0
103 3828 104 105 -111 0
-103 111 0
-103 -105 0
-103 -3828 0
-103 -104 0
104 -3829 -3830 -3831 0
-104 3829 0
-104 3830 0
-104 3831 0
105 45 -106 107 -108 0
-105 108 0
-105 -107 0
-105 -45 0
-105 106 0
-106 3828 49 0
106 -3828 0
106 -49 0
107 3828 -70 0
-107 -3828 0
-107 70 0
108 57 61 66 -109 0
-108 109 0
-108 -66 0
-108 -57 0
-108 -61 0
109 3828 -110 0
-109 -3828 0
-109 110 0
-110 3829 3831 0
-110 3829 3830 0
-110 -3829 -3830 -3831 0
110 -3829 3830 0
110 3829 -3830 -3831 0
110 -3829 3831 0
111 -106 107 -112 -122 0
-111 106 0
-111 122 0
-111 112 0
-111 -107 0
112 45 61 66 -113 0
-112 113 0
-112 -66 0
-112 -45 0
-112 -61 0
113 -51 56 0
113 56 -114 0
113 -42 56 0
-113 -56 0
-113 42 51 114 0
-114 37 -78 115 0
-114 37 115 117 0
114 -37 0
114 -115 0
114 78 -117 0
115 3828 -116 0
-115 -3828 0
-115 116 0
116 -3829 -71 0
-116 3829 0
-116 71 0
117 76 80 118 -120 0
-117 120 0
-117 -118 0
-117 -76 0
-117 -80 0
118 3828 -3829 -119 0
-118 119 0
-118 3829 0
-118 -3828 0
119 -3830 3831 -3832 0
-119 3830 0
-119 -3831 0
-119 3832 0
-120 -3828 54 121 0
-120 54 60 121 0
120 -121 0
120 -54 0
120 3828 -60 0
121 -3828 3829 3830 3831 0
-121 -3831 0
-121 -3830 0
-121 3828 0
-121 -3829 0
122 -3831 -3848 123 -140 0
122 -3831 3848 123 140 0
-122 -123 0
-122 -3848 140 0
-122 3831 0
-122 3848 -140 0
123 -3828 125 0
123 124 125 -139 0
-123 -125 0
-123 3828 139 0
-123 3828 -124 0
124 3829 3830 -3832 0
-124 3832 0
-124 -3830 0
-124 -3829 0
125 56 61 -127 0
125 56 61 -126 0
-125 -56 0
-125 -61 0
-125 126 127 0
126 3828 3829 -3830 -3832 0
-126 -3828 0
-126 3832 0
-126 3830 0
-126 -3829 0
-127 128 129 0
-127 -3828 129 0
-127 -3829 129 0
127 -129 0
127 3828 3829 -128 0
128 -3830 3832 0
-128 3830 0
-128 -3832 0
129 37 115 -131 0
129 37 115 -130 0
-129 -37 0
-129 -115 0
-129 130 131 0
130 3828 -3829 3830 -3832 0
-130 3829 0
-130 -3830 0
-130 -3828 0
-130 3832 0
-131 132 -138 0
-131 3829 132 0
-131 -3828 132 0
131 -132 0
131 3828 -3829 138 0
132 80 118 -133 0
-132 -80 0
-132 133 0
-132 -118 0
-133 -3828 136 0
-133 134 135 136 0
133 -136 0
133 3828 -134 0
133 3828 -135 0
134 -3829 -3830 3832 0
-134 3829 0
-134 3830 0
-134 -3832 0
135 -3829 -3830 -3832 0
-135 3829 0
-135 3830 0
-135 3832 0
136 48 70 -137 0
-136 137 0
-136 -70 0
-136 -48 0
137 -3828 3829 3830 0
-137 3828 0
-137 -3830 0
-137 -3829 0
-138 3830 3832 0
138 -3830 0
138 -3832 0
-139 3829 138 0
139 -3829 0
139 -138 0
140 -3832 -106 141 0
140 -3832 -106 -142 0
-140 3832 0
-140 106 0
-140 -141 142 0
-141 3828 3829 3830 3831 0
141 -3831 0
141 -3830 0
141 -3828 0
141 -3829 0
142 45 -144 0
142 3828 45 -143 0
-142 -45 0
-142 -3828 144 0
-142 143 144 0
143 3829 3830 -3831 0
-143 3831 0
-143 -3830 0
-143 -3829 0
144 61 -145 0
144 51 61 -146 0
-144 -61 0
-144 -51 145 0
-144 145 146 0
145 3828 3829 -3830 3831 0
-145 -3828 0
-145 -3831 0
-145 3830 0
-145 -3829 0
-146 -37 147 0
-146 147 148 149 0
146 -147 0
146 37 -149 0
146 37 -148 0
147 3828 3829 -3830 -3831 0
-147 -3828 0
-147 3831 0
-147 3830 0
-147 -3829 0
148 3828 -3829 3830 3831 0
-148 3829 0
-148 -3831 0
-148 -3828 0
-148 -3830 0
149 78 -150 0
149 78 80 -151 0
-149 -78 0
-149 -80 150 0
-149 150 151 0
150 3828 -3829 3830 -3831 0
-150 3829 0
-150 -3830 0
-150 -3828 0
-150 3831 0
-151 -59 152 0
-151 152 153 154 0
151 -152 0
151 59 -154 0
151 59 -153 0
152 3828 -3829 -3830 3831 0
-152 -3828 0
-152 -3831 0
-152 3830 0
-152 3829 0
153 3828 -3829 -3830 -3831 0
-153 -3828 0
-153 3831 0
-153 3830 0
-153 3829 0
154 3831 48 -137 0
154 48 64 -137 0
-154 137 0
-154 -48 0
-154 -3831 -64 0
155 3881 -3883 -3884 0
155 -3881 3882 -3883 3884 0
-155 -3881 -3882 0
-155 3881 3884 0
-155 3883 0
-155 -3881 -3884 0
156 -3916 -158 0
156 -3828 -3916 -157 0
-156 3916 0
-156 3828 158 0
-156 157 158 0
-157 3829 3830 0
-157 3829 40 0
157 -3829 0
157 -3830 -40 0
-158 3833 160 0
-158 3834 159 160 0
158 -160 0
158 -3833 -159 0
158 -3833 -3834 0
159 -3835 -3836 0
159 -3835 -3837 0
-159 3835 0
-159 3836 3837 0
-160 3841 161 0
-160 3840 161 0
-160 3842 161 0
160 -161 0
160 -3840 -3841 -3842 0
-161 3868 162 0
-161 3867 162 0
-161 3869 162 0
161 -162 0
161 -3867 -3868 -3869 0
-162 3871 163 0
-162 3870 163 0
-162 3872 163 0
162 -163 0
162 -3870 -3871 -3872 0
-163 3885 164 165 0
-163 3886 164 165 0
163 -165 0
163 -164 0
163 -3885 -3886 0
164 -3873 -3874 0
164 -3873 -3875 0
-164 3873 0
-164 3874 3875 0
165 -3880 -3881 0
165 -3880 -3883 0
165 -3880 -3882 0
-165 3880 0
-165 3881 3882 3883 0
166 3828 -3916 0
-166 -3828 0
-166 3916 0
167 -3829 -3916 0
-167 3829 0
-167 3916 0
168 3830 -3916 0
-168 -3830 0
-168 3916 0
169 -3831 -3916 0
-169 3831 0
-169 3916 0
170 -3832 -3916 0
-170 3832 0
-170 3916 0
171 -3916 -255 0
171 3827 3916 -172 0
-171 3916 172 0
-171 -3916 255 0
-171 -3827 3916 0
172 3824 3825 3826 -173 0
-172 173 0
-172 -3826 0
-172 -3824 0
-172 -3825 0
173 3821 3822 3823 -174 0
-173 174 0
-173 -3823 0
-173 -3821 0
-173 -3822 0
174 3816 3817 3819 -175 0
-174 175 0
-174 -3819 0
-174 -3816 0
-174 -3817 0
175 3806 3807 -3815 -176 0
-175 -3806 0
-175 176 0
-175 3815 0
-175 -3807 0
176 -3784 -3785 3786 -177 0
-176 177 0
-176 3784 0
-176 3785 0
-176 -3786 0
177 3769 -3777 178 -180 0
177 3769 3777 -178 -180 0
-177 180 0
-177 -3777 -178 0
-177 -3769 0
-177 3777 178 0
178 -3781 179 0
-178 3781 0
-178 -179 0
179 -3781 3782 3783 0
-179 3781 0
-179 -3783 0
-179 -3782 0
180 3763 3768 181 -182 0
180 -3763 3768 -181 -182 0
-180 182 0
-180 3763 -181 0
-180 -3768 0
-180 -3763 181 0
181 3754 -3755 -3756 0
-181 3756 0
-181 3755 0
-181 -3754 0
182 3762 183 -184 -186 0
182 -3762 -183 -184 -186 0
-182 186 0
-182 -3762 183 0
-182 184 0
-182 3762 -183 0
183 -3754 -3755 3756 0
-183 3754 0
-183 3755 0
-183 -3756 0
184 -3761 185 0
184 3761 -185 0
-184 3761 185 0
-184 -3761 -185 0
-185 3754 3755 3756 0
185 -3754 0
185 -3756 0
185 -3755 0
186 3760 187 188 -190 0
186 -3760 -187 188 -190 0
-186 190 0
-186 -3760 187 0
-186 -188 0
-186 3760 -187 0
187 3754 -3755 3756 0
-187 -3754 0
-187 3755 0
-187 -3756 0
-188 -3759 -189 0
-188 3759 189 0
188 3759 -189 0
188 -3759 189 0
189 -3754 3755 3756 0
-189 3754 0
-189 -3756 0
-189 -3755 0
190 -3758 -191 -253 -254 0
190 3758 -191 -253 254 0
-190 191 0
-190 3758 -254 0
-190 253 0
-190 -3758 254 0
191 3751 3753 192 -194 0
191 3751 -3753 -192 -194 0
-191 194 0
-191 -3753 192 0
-191 -3751 0
-191 3753 -192 0
192 -3752 193 0
-192 3752 0
-192 -193 0
193 -3754 3755 -3756 0
-193 3754 0
-193 -3755 0
-193 3756 0
194 3748 -3749 3750 -195 0
-194 3749 0
-194 -3750 0
-194 -3748 0
-194 195 0
195 -3747 -196 249 0
195 -3747 -228 249 0
-195 -249 0
-195 3747 0
-195 196 228 0
196 -197 203 0
196 -197 224 226 0
-196 197 0
-196 -203 -226 0
-196 -203 -224 0
197 3795 -198 0
197 -3795 198 0
-197 -3795 -198 0
-197 3795 198 0
198 3805 -199 0
198 -199 201 202 0
-198 199 0
-198 -3805 -202 0
-198 -3805 -201 0
-199 3779 200 0
199 -3779 0
199 -200 0
-200 3799 3800 3801 0
200 -3799 0
200 -3801 0
200 -3800 0
201 3799 -3800 -3801 0
-201 3801 0
-201 3800 0
-201 -3799 0
-202 3799 -3801 0
-202 3779 3800 3801 0
-202 -3799 3801 0
-202 -3800 -3801 0
202 -3779 3799 3801 0
202 -3799 3800 -3801 0
202 3799 -3800 3801 0
-203 3794 204 0
-203 3794 213 215 0
203 -3794 0
203 -204 -215 0
203 -204 -213 0
-204 205 210 0
204 -205 0
204 -210 0
-205 206 209 0
205 -206 0
205 -209 0
-206 -3798 -207 0
-206 3798 207 0
206 3798 -207 0
206 -3798 207 0
207 -199 -208 0
207 -199 -202 0
207 3805 -199 0
-207 199 0
-207 -3805 202 208 0
208 3799 3800 -3801 -3805 0
-208 -3799 0
-208 3805 0
-208 3801 0
-208 -3800 0
-209 3797 199 0
-209 -3797 -199 0
209 -3797 199 0
209 3797 -199 0
-210 -3796 -211 0
-210 3796 211 0
210 3796 -211 0
210 -3796 211 0
211 3805 -199 0
211 -199 202 212 0
-211 199 0
-211 -3805 -202 0
-211 -3805 -212 0
212 3799 -3801 0
-212 -3799 0
-212 3801 0
-213 -3796 -214 0
-213 3796 214 0
213 3796 -214 0
213 -3796 214 0
214 3805 -199 0
-214 -3805 0
-214 199 0
215 -206 -219 0
215 -209 -216 -219 0
-215 219 0
-215 206 216 0
-215 206 209 0
-216 -3797 -217 0
-216 3797 217 0
216 3797 -217 0
216 -3797 217 0
217 -199 218 0
-217 199 0
-217 -218 0
218 -3799 -3805 202 0
218 3801 -3805 202 0
-218 -202 0
-218 3805 0
-218 3799 -3801 0
-219 216 220 0
219 -216 0
219 -220 0
-220 3798 221 0
-220 -3798 -221 0
220 -3798 221 0
220 3798 -221 0
-221 3799 -223 0
-221 3779 3799 222 0
221 -3799 0
221 -3779 223 0
221 -222 223 0
-222 3800 3801 0
222 -3800 0
222 -3801 0
223 -3800 -3801 -3805 202 0
-223 -202 0
-223 3800 0
-223 3805 0
-223 3801 0
-224 213 225 0
224 -213 0
224 -225 0
-225 206 216 0
225 -206 0
225 -216 0
-226 -3794 -227 0
-226 3794 227 0
226 3794 -227 0
226 -3794 227 0
227 -199 -218 0
-227 199 0
-227 218 0
-228 -229 233 0
-228 231 233 0
-228 -3794 233 0
228 -233 0
228 3794 229 -231 0
-229 213 230 0
229 -213 0
229 -230 0
-230 209 220 0
230 -209 0
230 -220 0
231 3795 -232 0
231 -3795 232 0
-231 -3795 -232 0
-231 3795 232 0
232 3805 -199 0
232 -199 202 -208 0
-232 199 0
-232 -3805 208 0
-232 -3805 -202 0
-233 -3794 236 0
-233 234 235 236 0
233 -236 0
233 3794 -234 0
233 3794 -235 0
234 205 213 -231 0
-234 -205 0
-234 -213 0
-234 231 0
235 -197 229 0
-235 197 0
-235 -229 0
-236 197 238 0
-236 -237 238 0
-236 -3794 238 0
236 -238 0
236 3794 -197 237 0
-237 210 230 0
237 -210 0
237 -230 0
-238 231 240 0
-238 -239 240 0
-238 -3794 240 0
238 -240 0
238 3794 -231 239 0
-239 210 225 0
239 -210 0
239 -225 0
-240 231 242 0
-240 -241 242 0
-240 -3794 242 0
240 -242 0
240 3794 -231 241 0
-241 210 219 0
241 -210 0
241 -219 0
-242 231 244 0
-242 -243 244 0
-242 -3794 244 0
242 -244 0
242 3794 -231 243 0
-243 213 219 0
243 -213 0
243 -219 0
-244 231 245 0
-244 -237 245 0
-244 -3794 245 0
244 -245 0
244 3794 -231 237 0
-245 -224 246 0
-245 231 246 0
-245 -3794 246 0
245 -246 0
245 3794 224 -231 0
-246 -204 247 0
-246 231 247 0
-246 -3794 247 0
246 -247 0
246 3794 204 -231 0
-247 -226 248 0
-247 197 248 0
-247 -243 248 0
247 -248 0
247 -197 226 243 0
-248 -3794 0
-248 197 0
-248 -239 -241 0
248 3794 -197 239 0
248 3794 -197 241 0
-249 -250 251 0
-249 3799 251 0
249 -251 0
249 -3799 250 0
250 -3799 3800 -3801 0
-250 3799 0
-250 -3800 0
-250 3801 0
-251 3765 252 0
-251 3766 252 0
251 -252 0
251 -3765 -3766 0
252 3752 -3755 0
252 -3754 -3755 -3756 0
252 3752 -3754 0
252 3752 -3756 0
-252 -3752 3756 0
-252 3754 3755 3756 0
-252 -3752 3755 0
-252 -3752 3754 0
253 3756 -3757 0
253 -3756 3757 0
-253 -3756 -3757 0
-253 3756 3757 0
254 -3752 3754 3755 -3756 0
254 -3752 -3754 -3755 -3756 0
-254 3756 0
-254 -3754 3755 0
-254 3752 0
-254 3754 -3755 0
255 3794 -3915 256 -821 0
255 -3794 -3915 -256 -821 0
-255 821 0
-255 -3794 256 0
-255 3915 0
-255 3794 -256 0
256 257 259 263 -267 0
-256 267 0
-256 -263 0
-256 -257 0
-256 -259 0
257 -3864 3892 -3897 -258 0
-257 258 0
-257 3864 0
-257 3897 0
-257 -3892 0
258 -3802 3888 16 0
-258 3802 0
-258 -3888 0
-258 -16 0
259 -3813 -3897 3899 -260 0
-259 260 0
-259 3813 0
-259 3897 0
-259 -3899 0
260 -3864 3892 261 262 0
-260 -261 0
-260 -262 0
-260 3864 0
-260 -3892 0
-261 3888 16 0
261 -3888 0
261 -16 0
262 3885 -3886 3887 0
-262 -3885 0
-262 3886 0
-262 -3887 0
263 -3813 -3898 3899 -264 0
-263 264 0
-263 3813 0
-263 3898 0
-263 -3899 0
264 -3892 -265 0
-264 3892 0
-264 265 0
265 3893 -266 0
-265 -3893 0
-265 266 0
266 -3864 16 0
-266 3864 0
-266 -16 0
267 268 272 274 -275 0
-267 275 0
-267 -274 0
-267 -268 0
-267 -272 0
268 -3898 -3909 -269 0
-268 3898 0
-268 3909 0
-268 269 0
269 -270 -271 0
-269 270 0
-269 271 0
270 3799 -3800 3801 0
-270 -3799 0
-270 3800 0
-270 -3801 0
271 262 -265 0
-271 -262 0
-271 265 0
272 3893 -3909 -273 0
-272 273 0
-272 3909 0
-272 -3893 0
273 3778 -266 0
-273 -3778 0
-273 266 0
274 3811 -3897 -3909 -265 0
-274 -3811 0
-274 265 0
-274 3909 0
-274 3897 0
275 276 -277 0
275 276 280 -281 0
-275 -276 0
-275 277 281 0
-275 277 -280 0
276 3898 -3909 -269 0
-276 269 0
-276 3909 0
-276 -3898 0
277 -3898 -3900 3909 -278 0
-277 278 0
-277 3898 0
-277 3900 0
-277 -3909 0
278 3799 -3800 3801 -279 0
-278 3800 0
-278 -3801 0
-278 -3799 0
-278 279 0
279 262 -266 0
-279 -262 0
-279 266 0
280 3909 -273 0
-280 -3909 0
-280 273 0
281 282 283 285 -286 0
-281 286 0
-281 -285 0
-281 -282 0
-281 -283 0
282 3811 -3897 3909 -266 0
-282 3897 0
-282 -3909 0
-282 -3811 0
-282 266 0
283 3898 3909 -284 0
-283 284 0
-283 -3909 0
-283 -3898 0
284 3799 -3800 3801 -279 0
-284 3800 0
-284 -3801 0
-284 -3799 0
-284 279 0
285 3900 3909 -284 0
-285 284 0
-285 -3909 0
-285 -3900 0
286 287 289 292 -293 0
-286 293 0
-286 -292 0
-286 -287 0
-286 -289 0
287 -201 -266 288 0
-287 201 0
-287 266 0
-287 -288 0
288 3885 -3886 -3887 0
-288 3887 0
-288 3886 0
-288 -3885 0
289 -290 -266 291 0
-289 290 0
-289 266 0
-289 -291 0
290 3799 3800 -3801 0
-290 3801 0
-290 -3800 0
-290 -3799 0
291 3885 3886 -3887 0
-291 3887 0
-291 -3886 0
-291 -3885 0
292 3810 -3896 -266 0
-292 266 0
-292 3896 0
-292 -3810 0
293 294 297 298 -300 0
-293 300 0
-293 -298 0
-293 -294 0
-293 -297 0
294 -3898 -3909 -295 0
-294 3898 0
-294 3909 0
-294 295 0
295 3799 -3800 3801 -296 0
-295 3800 0
-295 -3801 0
-295 -3799 0
-295 296 0
296 -3893 262 -266 0
-296 3893 0
-296 -262 0
-296 266 0
297 -3893 -3909 -273 0
-297 3893 0
-297 3909 0
-297 273 0
298 3811 -3897 -3909 -299 0
-298 -3811 0
-298 299 0
-298 3909 0
-298 3897 0
299 -3893 -266 0
-299 3893 0
-299 266 0
300 301 302 303 -307 0
-300 307 0
-300 -303 0
-300 -301 0
-300 -302 0
301 3898 -3909 -295 0
-301 295 0
-301 3909 0
-301 -3898 0
302 -3802 -3864 3888 -14 0
-302 14 0
-302 3802 0
-302 3864 0
-302 -3888 0
303 -3897 -3898 -304 0
-303 3897 0
-303 3898 0
-303 304 0
304 3799 -3800 3801 -305 0
-304 3800 0
-304 -3801 0
-304 -3799 0
-304 305 0
305 262 -306 0
-305 -262 0
-305 306 0
306 -3864 -14 0
-306 3864 0
-306 14 0
307 308 310 311 -312 0
-307 312 0
-307 -311 0
-307 -308 0
-307 -310 0
308 -3806 -3864 3892 -309 0
-308 309 0
-308 3806 0
-308 3864 0
-308 -3892 0
309 3888 -14 0
-309 -3888 0
-309 14 0
310 3778 -306 0
-310 -3778 0
-310 306 0
311 3811 3892 -3897 -306 0
-311 -3811 0
-311 306 0
-311 3897 0
-311 -3892 0
312 313 314 316 -318 0
-312 318 0
-312 -316 0
-312 -313 0
-312 -314 0
313 3898 -304 0
-313 -3898 0
-313 304 0
314 3799 -3800 -3801 -315 0
-314 -3799 0
-314 315 0
-314 3801 0
-314 3800 0
315 288 -306 0
-315 -288 0
-315 306 0
316 3799 3800 -3801 -317 0
-316 -3799 0
-316 317 0
-316 3801 0
-316 -3800 0
317 291 -306 0
-317 -291 0
-317 306 0
318 319 320 324 -326 0
-318 326 0
-318 -324 0
-318 -319 0
-318 -320 0
319 3810 -3896 -306 0
-319 306 0
-319 3896 0
-319 -3810 0
320 3908 -250 321 -322 0
-320 250 0
-320 -321 0
-320 -3908 0
-320 322 0
321 -3885 3886 -3887 0
-321 3885 0
-321 -3886 0
-321 3887 0
322 3893 -323 0
-322 -3893 0
-322 323 0
323 -3864 -23 0
-323 3864 0
-323 23 0
324 3908 200 -322 -325 0
-324 -3908 0
-324 325 0
-324 322 0
-324 -200 0
-325 3885 3886 3887 0
325 -3885 0
325 -3887 0
325 -3886 0
326 327 329 330 -332 0
-326 332 0
-326 -330 0
-326 -327 0
-326 -329 0
327 -3897 -321 -328 0
-327 3897 0
-327 321 0
-327 328 0
328 -3802 -3864 3888 -23 0
-328 23 0
-328 3802 0
-328 3864 0
-328 -3888 0
329 -3897 325 -328 0
-329 3897 0
-329 -325 0
-329 328 0
330 -3799 3892 -3908 -331 0
-330 331 0
-330 3799 0
-330 3908 0
-330 -3892 0
331 3800 -3801 321 -323 0
-331 3801 0
-331 -321 0
-331 -3800 0
-331 323 0
332 333 335 338 -340 0
-332 340 0
-332 -338 0
-332 -333 0
-332 -335 0
333 3799 3892 -3908 -334 0
-333 -3799 0
-333 334 0
-333 3908 0
-333 -3892 0
334 3800 3801 -323 -325 0
-334 -3800 0
-334 325 0
-334 323 0
-334 -3801 0
335 3806 -3897 -3908 -336 0
-335 -3806 0
-335 336 0
-335 3908 0
-335 3897 0
336 -3892 -321 -337 0
-336 3892 0
-336 321 0
-336 337 0
337 -3864 3888 -23 0
-337 3864 0
-337 -3888 0
-337 23 0
338 3806 -3897 -3908 -339 0
-338 -3806 0
-338 339 0
-338 3908 0
-338 3897 0
339 -3892 325 -337 0
-339 3892 0
-339 -325 0
-339 337 0
340 341 342 343 -344 0
-340 344 0
-340 -343 0
-340 -341 0
-340 -342 0
341 3778 -323 0
-341 -3778 0
-341 323 0
342 3811 -3897 -323 0
-342 323 0
-342 3897 0
-342 -3811 0
343 3812 -3898 -262 -323 0
-343 -3812 0
-343 323 0
-343 262 0
-343 3898 0
344 345 -347 0
344 345 349 -350 0
-344 -345 0
-344 347 350 0
-344 347 -349 0
345 3799 -3800 3898 -346 0
-345 3800 0
-345 -3898 0
-345 -3799 0
-345 346 0
346 3801 262 -323 0
-346 323 0
-346 -262 0
-346 -3801 0
347 -3900 -348 0
-347 3900 0
-347 348 0
348 -262 -328 0
-348 262 0
-348 328 0
349 3900 -348 0
-349 -3900 0
-349 348 0
350 351 353 355 -356 0
-350 356 0
-350 -355 0
-350 -351 0
-350 -353 0
351 3799 -3800 -3801 -352 0
-351 -3799 0
-351 352 0
-351 3801 0
-351 3800 0
352 288 -323 0
-352 -288 0
-352 323 0
353 3799 3800 -3801 -354 0
-353 -3799 0
-353 354 0
-353 3801 0
-353 -3800 0
354 291 -323 0
-354 -291 0
-354 323 0
355 3810 -3896 -323 0
-355 323 0
-355 3896 0
-355 -3810 0
356 357 358 360 -362 0
-356 362 0
-356 -360 0
-356 -357 0
-356 -358 0
357 -3807 -322 0
-357 3807 0
-357 322 0
358 3778 3865 325 -359 0
-358 -3778 0
-358 359 0
-358 -325 0
-358 -3865 0
359 -3864 -22 0
-359 3864 0
-359 22 0
360 -3811 3897 3908 -361 0
-360 361 0
-360 -3908 0
-360 3811 0
-360 -3897 0
361 325 -359 0
-361 -325 0
-361 359 0
362 363 365 368 -371 0
-362 371 0
-362 -368 0
-362 -363 0
-362 -365 0
363 -3811 3897 3908 -364 0
-363 364 0
-363 -3908 0
-363 3811 0
-363 -3897 0
364 -321 -359 0
-364 321 0
-364 359 0
365 -3897 3908 -366 0
-365 3897 0
-365 -3908 0
-365 366 0
366 3799 3800 3801 -367 0
-366 367 0
-366 -3801 0
-366 -3799 0
-366 -3800 0
367 -325 -359 0
-367 325 0
-367 359 0
368 -3897 3908 -369 0
-368 3897 0
-368 -3908 0
-368 369 0
369 -3799 3800 -3801 -370 0
-369 370 0
-369 3799 0
-369 3801 0
-369 -3800 0
370 321 -359 0
-370 -321 0
-370 359 0
371 372 375 377 -378 0
-371 378 0
-371 -377 0
-371 -372 0
-371 -375 0
372 -3811 3897 -3908 -373 0
-372 373 0
-372 3811 0
-372 3908 0
-372 -3897 0
373 3892 325 -374 0
-373 374 0
-373 -325 0
-373 -3892 0
374 -3864 3888 -22 0
-374 3864 0
-374 -3888 0
-374 22 0
375 -3811 3897 -3908 -376 0
-375 376 0
-375 3811 0
-375 3908 0
-375 -3897 0
376 3892 -321 -374 0
-376 374 0
-376 321 0
-376 -3892 0
377 3892 -3897 -3908 -366 0
-377 -3892 0
-377 366 0
-377 3908 0
-377 3897 0
378 379 380 384 -387 0
-378 387 0
-378 -384 0
-378 -379 0
-378 -380 0
379 3892 -3897 -3908 -369 0
-379 -3892 0
-379 369 0
-379 3908 0
-379 3897 0
380 -3892 -3897 -3908 -381 0
-380 381 0
-380 3892 0
-380 3908 0
-380 3897 0
381 3799 3800 3801 -382 0
-381 382 0
-381 -3801 0
-381 -3799 0
-381 -3800 0
382 -325 -383 0
-382 325 0
-382 383 0
383 3893 -359 0
-383 -3893 0
-383 359 0
384 -3892 -3897 -3908 -385 0
-384 385 0
-384 3892 0
-384 3908 0
-384 3897 0
385 -3799 3800 -3801 -386 0
-385 386 0
-385 3799 0
-385 3801 0
-385 -3800 0
386 321 -383 0
-386 -321 0
-386 383 0
387 388 391 393 -395 0
-387 395 0
-387 -393 0
-387 -388 0
-387 -391 0
388 -3811 -3892 3897 -389 0
-388 389 0
-388 3811 0
-388 3892 0
-388 -3897 0
389 325 -390 0
-389 -325 0
-389 390 0
390 3893 -374 0
-390 -3893 0
-390 374 0
391 -3811 -3892 3897 -392 0
-391 392 0
-391 3811 0
-391 3892 0
-391 -3897 0
392 -321 -390 0
-392 321 0
-392 390 0
393 -3811 3897 -3898 -394 0
-393 394 0
-393 3811 0
-393 3898 0
-393 -3897 0
394 -262 -390 0
-394 262 0
-394 390 0
395 396 397 399 -401 0
-395 401 0
-395 -399 0
-395 -396 0
-395 -397 0
396 -3812 -3897 3898 -394 0
-396 394 0
-396 3812 0
-396 3897 0
-396 -3898 0
397 -3864 -398 0
-397 3864 0
-397 398 0
398 -3802 3888 -22 0
-398 3802 0
-398 -3888 0
-398 22 0
399 3799 -3800 -3801 -400 0
-399 -3799 0
-399 400 0
-399 3801 0
-399 3800 0
400 288 -359 0
-400 -288 0
-400 359 0
401 402 404 405 -406 0
-401 406 0
-401 -405 0
-401 -402 0
-401 -404 0
402 3799 3800 -3801 -403 0
-402 -3799 0
-402 403 0
-402 3801 0
-402 -3800 0
403 291 -359 0
-403 -291 0
-403 359 0
404 3810 -3896 -359 0
-404 359 0
-404 3896 0
-404 -3810 0
405 -3807 -383 0
-405 3807 0
-405 383 0
406 407 411 413 -415 0
-406 415 0
-406 -413 0
-406 -407 0
-406 -411 0
407 3903 -408 0
-407 -3903 0
-407 408 0
408 3799 3800 3801 -409 0
-408 409 0
-408 -3801 0
-408 -3799 0
-408 -3800 0
409 3865 -325 -410 0
-409 410 0
-409 325 0
-409 -3865 0
410 3864 -22 0
-410 -3864 0
-410 22 0
411 3865 325 -412 0
-411 412 0
-411 -325 0
-411 -3865 0
412 3864 -398 0
-412 -3864 0
-412 398 0
413 -3894 -414 0
-413 3894 0
-413 414 0
414 -3865 325 -412 0
-414 3865 0
-414 -325 0
-414 412 0
-415 416 -417 0
-415 416 419 0
-415 416 -418 0
415 -416 0
415 417 418 -419 0
416 3901 -3903 -408 0
-416 408 0
-416 3903 0
-416 -3901 0
417 -3768 3854 3865 -410 0
-417 410 0
-417 -3865 0
-417 3768 0
-417 -3854 0
418 -321 -412 0
-418 321 0
-418 412 0
419 420 421 422 -424 0
-419 424 0
-419 -422 0
-419 -420 0
-419 -421 0
420 -262 -412 0
-420 262 0
-420 412 0
421 3894 -414 0
-421 -3894 0
-421 414 0
422 3799 -3800 -3801 -423 0
-422 -3799 0
-422 423 0
-422 3801 0
-422 3800 0
423 288 -410 0
-423 -288 0
-423 410 0
424 425 427 428 -429 0
-424 429 0
-424 -428 0
-424 -425 0
-424 -427 0
425 3799 3800 -3801 -426 0
-425 -3799 0
-425 426 0
-425 3801 0
-425 -3800 0
426 291 -410 0
-426 -291 0
-426 410 0
427 3805 3890 -3891 -410 0
-427 -3805 0
-427 410 0
-427 3891 0
-427 -3890 0
428 -3807 3893 -410 0
-428 3807 0
-428 -3893 0
-428 410 0
429 430 431 434 -436 0
-429 436 0
-429 -434 0
-429 -430 0
-429 -431 0
430 -3804 3890 -410 0
-430 3804 0
-430 -3890 0
-430 410 0
431 -3799 3800 -3897 -432 0
-431 432 0
-431 3799 0
-431 3897 0
-431 -3800 0
432 -3801 321 -433 0
-432 3801 0
-432 -321 0
-432 433 0
433 -3864 -21 0
-433 3864 0
-433 21 0
434 3799 3800 -3897 -435 0
-434 -3799 0
-434 435 0
-434 3897 0
-434 -3800 0
435 3801 -325 -433 0
-435 433 0
-435 325 0
-435 -3801 0
436 437 438 439 -440 0
-436 440 0
-436 -439 0
-436 -437 0
-436 -438 0
437 3814 -3900 -325 -433 0
-437 3900 0
-437 325 0
-437 -3814 0
-437 433 0
438 3778 -433 0
-438 -3778 0
-438 433 0
439 3811 -3897 -433 0
-439 433 0
-439 3897 0
-439 -3811 0
440 441 442 444 -446 0
-440 446 0
-440 -444 0
-440 -441 0
-440 -442 0
441 3812 -3898 -433 0
-441 433 0
-441 3898 0
-441 -3812 0
442 3799 -3800 -3801 -443 0
-442 -3799 0
-442 443 0
-442 3801 0
-442 3800 0
443 288 -433 0
-443 -288 0
-443 433 0
444 3799 3800 -3801 -445 0
-444 -3799 0
-444 445 0
-444 3801 0
-444 -3800 0
445 291 -433 0
-445 -291 0
-445 433 0
446 447 448 450 -451 0
-446 451 0
-446 -450 0
-446 -447 0
-446 -448 0
447 3810 -3896 -433 0
-447 433 0
-447 3896 0
-447 -3810 0
448 -3811 3897 325 -449 0
-448 449 0
-448 3811 0
-448 -325 0
-448 -3897 0
449 -3864 -28 0
-449 3864 0
-449 28 0
450 -3811 3897 -321 -449 0
-450 449 0
-450 3811 0
-450 321 0
-450 -3897 0
451 452 454 -458 0
451 452 454 -456 0
-451 -452 0
-451 -454 0
-451 456 458 0
452 3799 3800 -3897 -453 0
-452 -3799 0
-452 453 0
-452 3897 0
-452 -3800 0
453 3801 -325 -449 0
-453 449 0
-453 325 0
-453 -3801 0
454 -3799 3800 -3897 -455 0
-454 455 0
-454 3799 0
-454 3897 0
-454 -3800 0
455 -3801 321 -449 0
-455 3801 0
-455 -321 0
-455 449 0
456 -3811 -3898 -3900 -457 0
-456 457 0
-456 3811 0
-456 3900 0
-456 3898 0
457 3897 -262 -449 0
-457 449 0
-457 262 0
-457 -3897 0
-458 459 461 465 0
-458 459 461 -463 0
458 -459 0
458 -461 0
458 463 -465 0
459 -3812 3898 -3900 -460 0
-459 460 0
-459 3812 0
-459 3900 0
-459 -3898 0
460 -3897 -262 -449 0
-460 3897 0
-460 262 0
-460 449 0
461 -3814 -3898 3900 -462 0
-461 462 0
-461 3814 0
-461 3898 0
-461 -3900 0
462 -3897 -449 0
-462 3897 0
-462 449 0
463 3799 -3800 -3801 -464 0
-463 -3799 0
-463 464 0
-463 3801 0
-463 3800 0
464 288 -449 0
-464 -288 0
-464 449 0
465 466 468 469 -472 0
-465 472 0
-465 -469 0
-465 -466 0
-465 -468 0
466 3799 3800 -3801 -467 0
-466 -3799 0
-466 467 0
-466 3801 0
-466 -3800 0
467 291 -449 0
-467 -291 0
-467 449 0
468 3810 -3896 -449 0
-468 449 0
-468 3896 0
-468 -3810 0
469 3799 3800 3801 -470 0
-469 470 0
-469 -3801 0
-469 -3799 0
-469 -3800 0
470 3865 -325 -471 0
-470 471 0
-470 325 0
-470 -3865 0
471 3864 -28 0
-471 -3864 0
-471 28 0
472 473 475 476 -478 0
-472 478 0
-472 -476 0
-472 -473 0
-472 -475 0
473 -3865 -3894 325 -474 0
-473 474 0
-473 3865 0
-473 -325 0
-473 3894 0
474 -3802 3864 3888 -28 0
-474 28 0
-474 -3888 0
-474 3802 0
-474 -3864 0
475 -3768 3854 3865 -471 0
-475 471 0
-475 -3865 0
-475 3768 0
-475 -3854 0
476 3799 -3800 -3801 -477 0
-476 -3799 0
-476 477 0
-476 3801 0
-476 3800 0
477 288 -471 0
-477 -288 0
-477 471 0
478 479 481 482 -483 0
-478 483 0
-478 -482 0
-478 -479 0
-478 -481 0
479 3799 3800 -3801 -480 0
-479 -3799 0
-479 480 0
-479 3801 0
-479 -3800 0
480 291 -471 0
-480 -291 0
-480 471 0
481 3805 3890 -3891 -471 0
-481 -3805 0
-481 471 0
-481 3891 0
-481 -3890 0
482 -3804 3890 -471 0
-482 3804 0
-482 -3890 0
-482 471 0
483 484 488 -494 0
483 484 488 -491 0
-483 -484 0
-483 -488 0
-483 491 494 0
484 -3897 -485 0
-484 3897 0
-484 485 0
485 3799 3800 3801 -486 0
-485 486 0
-485 -3801 0
-485 -3799 0
-485 -3800 0
486 -325 -487 0
-486 325 0
-486 487 0
487 -3864 -27 0
-487 3864 0
-487 27 0
488 -3897 -489 0
-488 3897 0
-488 489 0
489 -3799 3800 -3801 -490 0
-489 490 0
-489 3799 0
-489 3801 0
-489 -3800 0
490 321 -487 0
-490 -321 0
-490 487 0
491 -3897 -3898 -3900 -492 0
-491 492 0
-491 3897 0
-491 3900 0
-491 3898 0
492 3799 -3800 3801 -493 0
-492 3800 0
-492 -3801 0
-492 -3799 0
-492 493 0
493 262 -487 0
-493 -262 0
-493 487 0
494 495 -496 0
494 -3897 -3898 -496 0
-494 496 0
-494 3898 -495 0
-494 3897 -495 0
495 3799 -3800 3801 -493 0
-495 3800 0
-495 -3801 0
-495 -3799 0
-495 493 0
496 497 498 499 -500 0
-496 500 0
-496 -499 0
-496 -497 0
-496 -498 0
497 3900 -495 0
-497 -3900 0
-497 495 0
498 3897 -485 0
-498 -3897 0
-498 485 0
499 3897 -489 0
-499 -3897 0
-499 489 0
500 501 503 504 -507 0
-500 507 0
-500 -504 0
-500 -501 0
-500 -503 0
501 3799 3800 -3801 -502 0
-501 -3799 0
-501 502 0
-501 3801 0
-501 -3800 0
502 291 -487 0
-502 -291 0
-502 487 0
503 3810 -3896 -487 0
-503 487 0
-503 3896 0
-503 -3810 0
504 3799 3800 3801 -505 0
-504 505 0
-504 -3801 0
-504 -3799 0
-504 -3800 0
505 3865 -325 -506 0
-505 506 0
-505 325 0
-505 -3865 0
506 3864 -27 0
-506 -3864 0
-506 27 0
507 508 510 512 -514 0
-507 514 0
-507 -512 0
-507 -508 0
-507 -510 0
508 3799 -3800 3801 -509 0
-508 3800 0
-508 -3801 0
-508 -3799 0
-508 509 0
509 262 -506 0
-509 -262 0
-509 506 0
510 -3799 3800 -3801 -511 0
-510 511 0
-510 3799 0
-510 3801 0
-510 -3800 0
511 321 -506 0
-511 -321 0
-511 506 0
512 3799 3800 3801 -513 0
-512 513 0
-512 -3801 0
-512 -3799 0
-512 -3800 0
513 -3865 -325 -506 0
-513 3865 0
-513 325 0
-513 506 0
514 515 517 518 -519 0
-514 519 0
-514 -518 0
-514 -515 0
-514 -517 0
515 3799 3800 -3801 -516 0
-515 -3799 0
-515 516 0
-515 3801 0
-515 -3800 0
516 291 -506 0
-516 -291 0
-516 506 0
517 3805 3890 -3891 -506 0
-517 -3805 0
-517 506 0
-517 3891 0
-517 -3890 0
518 -3804 3890 -506 0
-518 3804 0
-518 -3890 0
-518 506 0
519 520 524 -530 0
519 520 524 -527 0
-519 -520 0
-519 -524 0
-519 527 530 0
520 -3897 -521 0
-520 3897 0
-520 521 0
521 3799 3800 3801 -522 0
-521 522 0
-521 -3801 0
-521 -3799 0
-521 -3800 0
522 -325 -523 0
-522 325 0
-522 523 0
523 -3864 -25 0
-523 3864 0
-523 25 0
524 -3897 -525 0
-524 3897 0
-524 525 0
525 -3799 3800 -3801 -526 0
-525 526 0
-525 3799 0
-525 3801 0
-525 -3800 0
526 321 -523 0
-526 -321 0
-526 523 0
527 -3897 -3898 -3900 -528 0
-527 528 0
-527 3897 0
-527 3900 0
-527 3898 0
528 3799 -3800 3801 -529 0
-528 3800 0
-528 -3801 0
-528 -3799 0
-528 529 0
529 262 -523 0
-529 -262 0
-529 523 0
530 531 -532 0
530 -3897 -3898 -532 0
-530 532 0
-530 3898 -531 0
-530 3897 -531 0
531 3799 -3800 3801 -529 0
-531 3800 0
-531 -3801 0
-531 -3799 0
-531 529 0
532 533 534 535 -536 0
-532 536 0
-532 -535 0
-532 -533 0
-532 -534 0
533 3900 -531 0
-533 -3900 0
-533 531 0
534 3897 -521 0
-534 -3897 0
-534 521 0
535 3897 -525 0
-535 -3897 0
-535 525 0
536 537 539 540 -543 0
-536 543 0
-536 -540 0
-536 -537 0
-536 -539 0
537 3799 -3800 -3801 -538 0
-537 -3799 0
-537 538 0
-537 3801 0
-537 3800 0
538 288 -523 0
-538 -288 0
-538 523 0
539 3810 -3896 -523 0
-539 523 0
-539 3896 0
-539 -3810 0
540 3799 3800 3801 -541 0
-540 541 0
-540 -3801 0
-540 -3799 0
-540 -3800 0
541 3865 -325 -542 0
-541 542 0
-541 325 0
-541 -3865 0
542 3864 -25 0
-542 -3864 0
-542 25 0
543 544 546 548 -550 0
-543 550 0
-543 -548 0
-543 -544 0
-543 -546 0
544 3799 -3800 3801 -545 0
-544 3800 0
-544 -3801 0
-544 -3799 0
-544 545 0
545 262 -542 0
-545 -262 0
-545 542 0
546 -3799 3800 -3801 -547 0
-546 547 0
-546 3799 0
-546 3801 0
-546 -3800 0
547 321 -542 0
-547 -321 0
-547 542 0
548 3799 3800 3801 -549 0
-548 549 0
-548 -3801 0
-548 -3799 0
-548 -3800 0
549 -3865 -325 -542 0
-549 3865 0
-549 325 0
-549 542 0
550 551 553 554 -555 0
-550 555 0
-550 -554 0
-550 -551 0
-550 -553 0
551 3799 -3800 -3801 -552 0
-551 -3799 0
-551 552 0
-551 3801 0
-551 3800 0
552 288 -542 0
-552 -288 0
-552 542 0
553 3805 3890 -3891 -542 0
-553 -3805 0
-553 542 0
-553 3891 0
-553 -3890 0
554 -3804 3890 -542 0
-554 3804 0
-554 -3890 0
-554 542 0
555 556 559 -563 0
555 556 559 -561 0
-555 -556 0
-555 -559 0
-555 561 563 0
556 -3897 -557 0
-556 3897 0
-556 557 0
557 -3810 3896 325 -558 0
-557 558 0
-557 3810 0
-557 -325 0
-557 -3896 0
558 -3864 -34 0
-558 3864 0
-558 34 0
559 -3897 -560 0
-559 3897 0
-559 560 0
560 -3810 3896 -321 -558 0
-560 558 0
-560 3810 0
-560 321 0
-560 -3896 0
561 -3897 -3898 -3900 -562 0
-561 562 0
-561 3897 0
-561 3900 0
-561 3898 0
562 -3810 3896 -262 -558 0
-562 558 0
-562 3810 0
-562 262 0
-562 -3896 0
563 564 565 566 -567 0
-563 567 0
-563 -566 0
-563 -564 0
-563 -565 0
564 3897 -562 0
-564 -3897 0
-564 562 0
565 3898 -562 0
-565 -3898 0
-565 562 0
566 3900 -562 0
-566 -3900 0
-566 562 0
567 568 569 570 -571 0
-567 571 0
-567 -570 0
-567 -568 0
-567 -569 0
568 3897 -557 0
-568 -3897 0
-568 557 0
569 3897 -560 0
-569 -3897 0
-569 560 0
570 -3810 3896 -288 -558 0
-570 558 0
-570 3810 0
-570 288 0
-570 -3896 0
571 572 573 576 -578 0
-571 578 0
-571 -576 0
-571 -572 0
-571 -573 0
572 -3810 3896 -291 -558 0
-572 558 0
-572 3810 0
-572 291 0
-572 -3896 0
573 -3805 3891 325 -574 0
-573 574 0
-573 3805 0
-573 -325 0
-573 -3891 0
574 3865 -575 0
-574 -3865 0
-574 575 0
575 3864 -34 0
-575 -3864 0
-575 34 0
576 -262 -577 0
-576 262 0
-576 577 0
577 -3805 3891 -575 0
-577 3805 0
-577 -3891 0
-577 575 0
578 579 580 582 -583 0
-578 583 0
-578 -582 0
-578 -579 0
-578 -580 0
579 -321 -577 0
-579 321 0
-579 577 0
580 -3805 3891 325 -581 0
-580 581 0
-580 3805 0
-580 -325 0
-580 -3891 0
581 -3865 -575 0
-581 3865 0
-581 575 0
582 -288 -577 0
-582 288 0
-582 577 0
583 584 585 586 -588 0
-583 588 0
-583 -586 0
-583 -584 0
-583 -585 0
584 -291 -577 0
-584 291 0
-584 577 0
585 -3804 3890 -575 0
-585 3804 0
-585 -3890 0
-585 575 0
586 -3897 -321 -587 0
-586 3897 0
-586 321 0
-586 587 0
587 -3802 -3864 3888 -33 0
-587 33 0
-587 3802 0
-587 3864 0
-587 -3888 0
588 589 -590 0
588 589 592 -593 0
-588 -589 0
-588 590 593 0
-588 590 -592 0
589 -3897 325 -587 0
-589 3897 0
-589 -325 0
-589 587 0
590 -3900 -591 0
-590 3900 0
-590 591 0
591 -262 -587 0
-591 262 0
-591 587 0
592 3900 -591 0
-592 -3900 0
-592 591 0
593 594 597 599 -600 0
-593 600 0
-593 -599 0
-593 -594 0
-593 -597 0
594 3799 -3800 -3801 -595 0
-594 -3799 0
-594 595 0
-594 3801 0
-594 3800 0
595 288 -596 0
-595 -288 0
-595 596 0
596 -3864 -33 0
-596 3864 0
-596 33 0
597 3799 3800 -3801 -598 0
-597 -3799 0
-597 598 0
-597 3801 0
-597 -3800 0
598 291 -596 0
-598 -291 0
-598 596 0
599 3810 -3896 -596 0
-599 596 0
-599 3896 0
-599 -3810 0
600 601 602 603 -605 0
-600 605 0
-600 -603 0
-600 -601 0
-600 -602 0
601 3811 -3897 -596 0
-601 596 0
-601 3897 0
-601 -3811 0
602 3812 -3898 -262 -596 0
-602 -3812 0
-602 596 0
-602 262 0
-602 3898 0
603 3799 -3800 3898 -604 0
-603 3800 0
-603 -3898 0
-603 -3799 0
-603 604 0
604 3801 262 -596 0
-604 596 0
-604 -262 0
-604 -3801 0
605 606 607 609 -611 0
-605 611 0
-605 -609 0
-605 -606 0
-605 -607 0
606 3778 -596 0
-606 -3778 0
-606 596 0
607 3778 3865 325 -608 0
-607 -3778 0
-607 608 0
-607 -325 0
-607 -3865 0
608 -3864 -32 0
-608 3864 0
-608 32 0
609 3908 -610 0
-609 -3908 0
-609 610 0
610 -3811 3897 325 -608 0
-610 608 0
-610 3811 0
-610 -325 0
-610 -3897 0
611 612 614 617 -620 0
-611 620 0
-611 -617 0
-611 -612 0
-611 -614 0
612 3908 -613 0
-612 -3908 0
-612 613 0
613 -3811 3897 -321 -608 0
-613 608 0
-613 3811 0
-613 321 0
-613 -3897 0
614 3908 -615 0
-614 -3908 0
-614 615 0
615 3799 3800 -3897 -616 0
-615 -3799 0
-615 616 0
-615 3897 0
-615 -3800 0
616 3801 -325 -608 0
-616 608 0
-616 325 0
-616 -3801 0
617 3908 -618 0
-617 -3908 0
-617 618 0
618 -3799 3800 -3897 -619 0
-618 619 0
-618 3799 0
-618 3897 0
-618 -3800 0
619 -3801 321 -608 0
-619 3801 0
-619 -321 0
-619 608 0
620 621 624 625 -626 0
-620 626 0
-620 -625 0
-620 -621 0
-620 -624 0
621 -3897 325 -622 0
-621 3897 0
-621 -325 0
-621 622 0
622 -3864 -623 0
-622 3864 0
-622 623 0
623 -3802 3888 -32 0
-623 3802 0
-623 -3888 0
-623 32 0
624 -3897 -321 -622 0
-624 3897 0
-624 321 0
-624 622 0
625 -262 -622 0
-625 262 0
-625 622 0
626 627 628 630 -632 0
-626 632 0
-626 -630 0
-626 -627 0
-626 -628 0
627 3897 -622 0
-627 -3897 0
-627 622 0
628 3799 -3800 -3801 -629 0
-628 -3799 0
-628 629 0
-628 3801 0
-628 3800 0
629 288 -608 0
-629 -288 0
-629 608 0
630 3799 3800 -3801 -631 0
-630 -3799 0
-630 631 0
-630 3801 0
-630 -3800 0
631 291 -608 0
-631 -291 0
-631 608 0
632 633 634 636 -637 0
-632 637 0
-632 -636 0
-632 -633 0
-632 -634 0
633 3810 -3896 -608 0
-633 608 0
-633 3896 0
-633 -3810 0
634 -3811 3897 -3898 -635 0
-634 635 0
-634 3811 0
-634 3898 0
-634 -3897 0
635 -262 -608 0
-635 262 0
-635 608 0
636 -3908 -610 0
-636 3908 0
-636 610 0
637 638 639 641 -642 0
-637 642 0
-637 -641 0
-637 -638 0
-637 -639 0
638 -3908 -613 0
-638 3908 0
-638 613 0
639 -3812 -3897 3898 -640 0
-639 640 0
-639 3812 0
-639 3897 0
-639 -3898 0
640 -321 -608 0
-640 321 0
-640 608 0
641 -3908 -615 0
-641 3908 0
-641 615 0
642 643 644 648 -650 0
-642 650 0
-642 -648 0
-642 -643 0
-642 -644 0
643 -3908 -618 0
-643 3908 0
-643 618 0
644 -3901 -645 0
-644 3901 0
-644 645 0
645 3799 3800 3801 -646 0
-645 646 0
-645 -3801 0
-645 -3799 0
-645 -3800 0
646 3865 -325 -647 0
-646 647 0
-646 325 0
-646 -3865 0
647 3864 -32 0
-647 -3864 0
-647 32 0
648 3865 325 -649 0
-648 649 0
-648 -325 0
-648 -3865 0
649 3864 -623 0
-649 -3864 0
-649 623 0
650 651 -653 0
650 651 654 -655 0
-650 -651 0
-650 653 655 0
-650 653 -654 0
651 -3894 -652 0
-651 3894 0
-651 652 0
652 -3865 325 -649 0
-652 3865 0
-652 -325 0
-652 649 0
653 3901 -3903 -645 0
-653 645 0
-653 3903 0
-653 -3901 0
654 -3768 3854 3865 -647 0
-654 647 0
-654 -3865 0
-654 3768 0
-654 -3854 0
655 656 657 658 -659 0
-655 659 0
-655 -658 0
-655 -656 0
-655 -657 0
656 -321 -649 0
-656 321 0
-656 649 0
657 -262 -649 0
-657 262 0
-657 649 0
658 3894 -652 0
-658 -3894 0
-658 652 0
659 660 662 664 -665 0
-659 665 0
-659 -664 0
-659 -660 0
-659 -662 0
660 3799 -3800 -3801 -661 0
-660 -3799 0
-660 661 0
-660 3801 0
-660 3800 0
661 288 -647 0
-661 -288 0
-661 647 0
662 3799 3800 -3801 -663 0
-662 -3799 0
-662 663 0
-662 3801 0
-662 -3800 0
663 291 -647 0
-663 -291 0
-663 647 0
664 3805 3890 -3891 -647 0
-664 -3805 0
-664 647 0
-664 3891 0
-664 -3890 0
665 666 667 671 -674 0
-665 674 0
-665 -671 0
-665 -666 0
-665 -667 0
666 -3804 3890 -647 0
-666 3804 0
-666 -3890 0
-666 647 0
667 -3802 3864 325 -668 0
-667 668 0
-667 3802 0
-667 -325 0
-667 -3864 0
668 3888 -669 0
-668 -3888 0
-668 669 0
669 3880 -670 0
-669 -3880 0
-669 670 0
670 -3881 -5 0
-670 3881 0
-670 5 0
671 -3823 3893 3910 -672 0
-671 672 0
-671 -3910 0
-671 3823 0
-671 -3893 0
672 3890 -673 0
-672 -3890 0
-672 673 0
673 3864 -669 0
-673 -3864 0
-673 669 0
674 675 677 679 -680 0
-674 680 0
-674 -679 0
-674 -675 0
-674 -677 0
675 -3799 3800 -3801 -676 0
-675 676 0
-675 3799 0
-675 3801 0
-675 -3800 0
676 321 -673 0
-676 -321 0
-676 673 0
677 3799 -3800 3801 -678 0
-677 3800 0
-677 -3801 0
-677 -3799 0
-677 678 0
678 262 -673 0
-678 -262 0
-678 673 0
679 -3778 -673 0
-679 3778 0
-679 673 0
680 681 683 685 -686 0
-680 686 0
-680 -685 0
-680 -681 0
-680 -683 0
681 3799 -3800 -3801 -682 0
-681 -3799 0
-681 682 0
-681 3801 0
-681 3800 0
682 288 -673 0
-682 -288 0
-682 673 0
683 3799 3800 -3801 -684 0
-683 -3799 0
-683 684 0
-683 3801 0
-683 -3800 0
684 291 -673 0
-684 -291 0
-684 673 0
685 3805 -3891 -672 0
-685 672 0
-685 3891 0
-685 -3805 0
686 687 688 689 -693 0
-686 693 0
-686 -689 0
-686 -687 0
-686 -688 0
687 -3823 -3893 3910 -672 0
-687 672 0
-687 3823 0
-687 3893 0
-687 -3910 0
688 -3804 -672 0
-688 3804 0
-688 672 0
689 -3802 3864 325 -690 0
-689 690 0
-689 3802 0
-689 -325 0
-689 -3864 0
690 3888 -691 0
-690 -3888 0
-690 691 0
691 3880 -692 0
-691 -3880 0
-691 692 0
692 -3881 -3882 -3883 -3884 0
-692 3884 0
-692 3881 0
-692 3883 0
-692 3882 0
693 694 697 699 -701 0
-693 701 0
-693 -699 0
-693 -694 0
-693 -697 0
694 -3823 3893 3910 -695 0
-694 695 0
-694 -3910 0
-694 3823 0
-694 -3893 0
695 3890 -696 0
-695 -3890 0
-695 696 0
696 3864 -691 0
-696 -3864 0
-696 691 0
697 -3799 3800 -3801 -698 0
-697 698 0
-697 3799 0
-697 3801 0
-697 -3800 0
698 321 -696 0
-698 -321 0
-698 696 0
699 3799 -3800 3801 -700 0
-699 3800 0
-699 -3801 0
-699 -3799 0
-699 700 0
700 262 -696 0
-700 -262 0
-700 696 0
701 702 703 705 -707 0
-701 707 0
-701 -705 0
-701 -702 0
-701 -703 0
702 -3778 -696 0
-702 3778 0
-702 696 0
703 3808 -3894 3910 -704 0
-703 3894 0
-703 -3910 0
-703 -3808 0
-703 704 0
704 3864 3890 -690 0
-704 690 0
-704 -3890 0
-704 -3864 0
705 3799 -3800 -3801 -706 0
-705 -3799 0
-705 706 0
-705 3801 0
-705 3800 0
706 288 -696 0
-706 -288 0
-706 696 0
707 708 710 711 -712 0
-707 712 0
-707 -711 0
-707 -708 0
-707 -710 0
708 3799 3800 -3801 -709 0
-708 -3799 0
-708 709 0
-708 3801 0
-708 -3800 0
709 291 -696 0
-709 -291 0
-709 696 0
710 3805 -3891 -695 0
-710 695 0
-710 3891 0
-710 -3805 0
711 -3823 -3893 3910 -695 0
-711 695 0
-711 3823 0
-711 3893 0
-711 -3910 0
712 713 714 717 -718 0
-712 718 0
-712 -717 0
-712 -713 0
-712 -714 0
713 -3804 -695 0
-713 3804 0
-713 695 0
714 -3803 3889 -3903 -715 0
-714 715 0
-714 3803 0
-714 3903 0
-714 -3889 0
715 3864 -716 0
-715 -3864 0
-715 716 0
716 3880 -3881 11 0
-716 -11 0
-716 3881 0
-716 -3880 0
717 -3802 3864 3888 -716 0
-717 716 0
-717 -3888 0
-717 3802 0
-717 -3864 0
718 719 720 722 -724 0
-718 724 0
-718 -722 0
-718 -719 0
-718 -720 0
719 -3768 3854 -715 0
-719 3768 0
-719 -3854 0
-719 715 0
720 3893 -3909 -721 0
-720 721 0
-720 3909 0
-720 -3893 0
721 -3778 -715 0
-721 3778 0
-721 715 0
722 3893 -3909 -723 0
-722 723 0
-722 3909 0
-722 -3893 0
723 -3779 3865 -715 0
-723 3779 0
-723 -3865 0
-723 715 0
724 725 728 730 -732 0
-724 732 0
-724 -730 0
-724 -725 0
-724 -728 0
725 3799 -3800 -3909 -726 0
-725 -3799 0
-725 726 0
-725 3909 0
-725 3800 0
726 3801 -727 0
-726 -3801 0
-726 727 0
727 3893 262 -715 0
-727 715 0
-727 -262 0
-727 -3893 0
728 -3799 3800 -3909 -729 0
-728 729 0
-728 3799 0
-728 3909 0
-728 -3800 0
729 -3801 3893 321 -715 0
-729 715 0
-729 -321 0
-729 3801 0
-729 -3893 0
730 3799 -3800 3909 -731 0
-730 3800 0
-730 -3909 0
-730 -3799 0
-730 731 0
731 3801 262 -715 0
-731 715 0
-731 -262 0
-731 -3801 0
732 733 735 736 -737 0
-732 737 0
-732 -736 0
-732 -733 0
-732 -735 0
733 -3799 3800 3909 -734 0
-733 734 0
-733 -3909 0
-733 3799 0
-733 -3800 0
734 -3801 321 -715 0
-734 3801 0
-734 -321 0
-734 715 0
735 3909 -723 0
-735 -3909 0
-735 723 0
736 3909 -721 0
-736 -3909 0
-736 721 0
737 738 740 742 -743 0
-737 743 0
-737 -742 0
-737 -738 0
-737 -740 0
738 3799 -3800 -3801 -739 0
-738 -3799 0
-738 739 0
-738 3801 0
-738 3800 0
739 288 -715 0
-739 -288 0
-739 715 0
740 3799 3800 -3801 -741 0
-740 -3799 0
-740 741 0
-740 3801 0
-740 -3800 0
741 291 -715 0
-741 -291 0
-741 715 0
742 3805 3890 -3891 -715 0
-742 -3805 0
-742 715 0
-742 3891 0
-742 -3890 0
743 744 745 746 -749 0
-743 749 0
-743 -746 0
-743 -744 0
-743 -745 0
744 -3893 -3909 -721 0
-744 3893 0
-744 3909 0
-744 721 0
745 -3893 -3909 -723 0
-745 3893 0
-745 3909 0
-745 723 0
746 3799 -3800 -3909 -747 0
-746 -3799 0
-746 747 0
-746 3909 0
-746 3800 0
747 3801 -748 0
-747 -3801 0
-747 748 0
748 -3893 262 -715 0
-748 3893 0
-748 -262 0
-748 715 0
749 750 752 753 -757 0
-749 757 0
-749 -753 0
-749 -750 0
-749 -752 0
750 -3799 3800 -3909 -751 0
-750 751 0
-750 3799 0
-750 3909 0
-750 -3800 0
751 -3801 -3893 321 -715 0
-751 715 0
-751 3801 0
-751 3893 0
-751 -321 0
752 -3804 3890 -715 0
-752 3804 0
-752 -3890 0
-752 715 0
753 -3865 3890 -3905 -754 0
-753 754 0
-753 3865 0
-753 3905 0
-753 -3890 0
754 -3803 3889 -755 0
-754 3803 0
-754 -3889 0
-754 755 0
755 3864 -756 0
-755 -3864 0
-755 756 0
756 3880 -3881 -12 0
-756 12 0
-756 3881 0
-756 -3880 0
757 758 759 760 -762 0
-757 762 0
-757 -760 0
-757 -758 0
-757 -759 0
758 3779 -3865 3890 -755 0
-758 3865 0
-758 -3890 0
-758 -3779 0
-758 755 0
759 -3802 3864 3888 -756 0
-759 756 0
-759 -3888 0
-759 3802 0
-759 -3864 0
760 3893 -3909 -761 0
-760 761 0
-760 3909 0
-760 -3893 0
761 -3778 -755 0
-761 3778 0
-761 755 0
762 763 766 769 -771 0
-762 771 0
-762 -769 0
-762 -763 0
-762 -766 0
763 3808 -3894 -3909 -764 0
-763 -3808 0
-763 764 0
-763 3909 0
-763 3894 0
764 3893 288 291 -765 0
-764 765 0
-764 -291 0
-764 -3893 0
-764 -288 0
765 -3865 3890 -755 0
-765 3865 0
-765 -3890 0
-765 755 0
766 3799 -3800 -3909 -767 0
-766 -3799 0
-766 767 0
-766 3909 0
-766 3800 0
767 3801 -768 0
-767 -3801 0
-767 768 0
768 3893 262 -755 0
-768 755 0
-768 -262 0
-768 -3893 0
769 -3799 3800 -3909 -770 0
-769 770 0
-769 3799 0
-769 3909 0
-769 -3800 0
770 -3801 3893 321 -755 0
-770 755 0
-770 -321 0
-770 3801 0
-770 -3893 0
771 772 774 776 -778 0
-771 778 0
-771 -776 0
-771 -772 0
-771 -774 0
772 3799 -3800 3909 -773 0
-772 3800 0
-772 -3909 0
-772 -3799 0
-772 773 0
773 3801 262 -755 0
-773 755 0
-773 -262 0
-773 -3801 0
774 -3799 3800 3909 -775 0
-774 775 0
-774 -3909 0
-774 3799 0
-774 -3800 0
775 -3801 321 -755 0
-775 3801 0
-775 -321 0
-775 755 0
776 3808 -3894 3909 -777 0
-776 3894 0
-776 -3909 0
-776 -3808 0
-776 777 0
777 -3885 -765 0
777 3887 -765 0
-777 765 0
-777 3885 -3887 0
778 779 780 782 -784 0
-778 784 0
-778 -782 0
-778 -779 0
-778 -780 0
779 3909 -761 0
-779 -3909 0
-779 761 0
780 3799 -3800 -3801 -781 0
-780 -3799 0
-780 781 0
-780 3801 0
-780 3800 0
781 288 -755 0
-781 -288 0
-781 755 0
782 3799 3800 -3801 -783 0
-782 -3799 0
-782 783 0
-782 3801 0
-782 -3800 0
783 291 -755 0
-783 -291 0
-783 755 0
784 785 786 787 -789 0
-784 789 0
-784 -787 0
-784 -785 0
-784 -786 0
785 3805 3890 -3891 -755 0
-785 -3805 0
-785 755 0
-785 3891 0
-785 -3890 0
786 -3893 -3909 -761 0
-786 3893 0
-786 3909 0
-786 761 0
787 3808 -3894 -3909 -788 0
-787 -3808 0
-787 788 0
-787 3909 0
-787 3894 0
788 -3893 288 291 -765 0
-788 765 0
-788 -291 0
-788 3893 0
-788 -288 0
789 790 793 795 -796 0
-789 796 0
-789 -795 0
-789 -790 0
-789 -793 0
790 3799 -3800 -3909 -791 0
-790 -3799 0
-790 791 0
-790 3909 0
-790 3800 0
791 3801 -792 0
-791 -3801 0
-791 792 0
792 -3893 262 -755 0
-792 3893 0
-792 -262 0
-792 755 0
793 -3799 3800 -3909 -794 0
-793 794 0
-793 3799 0
-793 3909 0
-793 -3800 0
794 -3801 -3893 321 -755 0
-794 755 0
-794 3801 0
-794 3893 0
-794 -321 0
795 -3804 3890 -755 0
-795 3804 0
-795 -3890 0
-795 755 0
796 797 799 800 -801 0
-796 801 0
-796 -800 0
-796 -797 0
-796 -799 0
797 -3803 3889 -798 0
-797 3803 0
-797 -3889 0
-797 798 0
798 3864 -3 0
-798 -3864 0
-798 3 0
799 -3802 3864 3888 -3 0
-799 3 0
-799 -3888 0
-799 3802 0
-799 -3864 0
800 -3768 3854 -798 0
-800 3768 0
-800 -3854 0
-800 798 0
801 802 803 805 -807 0
-801 807 0
-801 -805 0
-801 -802 0
-801 -803 0
802 -3778 3893 -798 0
-802 3778 0
-802 -3893 0
-802 798 0
803 3799 -3800 3801 -804 0
-803 3800 0
-803 -3801 0
-803 -3799 0
-803 804 0
804 3893 262 -798 0
-804 798 0
-804 -262 0
-804 -3893 0
805 -3799 3800 -3801 -806 0
-805 806 0
-805 3799 0
-805 3801 0
-805 -3800 0
806 3893 321 -798 0
-806 798 0
-806 -321 0
-806 -3893 0
807 808 810 812 -813 0
-807 813 0
-807 -812 0
-807 -808 0
-807 -810 0
808 3799 -3800 -3801 -809 0
-808 -3799 0
-808 809 0
-808 3801 0
-808 3800 0
809 288 -798 0
-809 -288 0
-809 798 0
810 3799 3800 -3801 -811 0
-810 -3799 0
-810 811 0
-810 3801 0
-810 -3800 0
811 291 -798 0
-811 -291 0
-811 798 0
812 3805 3890 -3891 -798 0
-812 -3805 0
-812 798 0
-812 3891 0
-812 -3890 0
813 814 815 -817 0
813 -3799 814 -817 0
-813 817 0
-813 -814 0
-813 3799 -815 0
814 -3778 -3893 -798 0
-814 3778 0
-814 3893 0
-814 798 0
815 -3800 3801 -816 0
-815 3800 0
-815 -3801 0
-815 816 0
816 -3893 262 -798 0
-816 3893 0
-816 -262 0
-816 798 0
817 -3880 818 820 0
-817 3880 0
-817 -820 0
-817 -818 0
818 -3799 3800 -3801 -819 0
-818 819 0
-818 3799 0
-818 3801 0
-818 -3800 0
819 -3893 321 -798 0
-819 3893 0
-819 -321 0
-819 798 0
820 -3804 3890 -798 0
-820 3804 0
-820 -3890 0
-820 798 0
821 3795 822 1002 -1141 0
821 -3795 -822 1002 -1141 0
-821 1141 0
-821 -3795 822 0
-821 -1002 0
-821 3795 -822 0
822 257 259 263 -823 0
-822 823 0
-822 -263 0
-822 -257 0
-822 -259 0
823 268 272 274 -824 0
-823 824 0
-823 -274 0
-823 -268 0
-823 -272 0
824 276 -280 825 0
824 276 825 -826 0
-824 -276 0
-824 -825 0
-824 280 826 0
825 -3898 -3900 3909 -284 0
-825 284 0
-825 3898 0
-825 3900 0
-825 -3909 0
-826 282 827 828 829 0
826 -829 0
826 -828 0
826 -282 0
826 -827 0
827 3898 3909 -278 0
-827 278 0
-827 -3909 0
-827 -3898 0
828 3900 3909 -278 0
-828 278 0
-828 -3909 0
-828 -3900 0
-829 287 830 0
-829 287 -292 0
-829 287 -289 0
829 -287 0
829 289 292 -830 0
-830 297 298 831 833 0
830 -833 0
830 -831 0
830 -297 0
830 -298 0
831 -3898 -3909 -832 0
-831 3898 0
-831 3909 0
-831 832 0
832 3799 -3800 3801 -296 0
-832 3800 0
-832 -3801 0
-832 -3799 0
-832 296 0
-833 -303 834 0
-833 834 835 0
-833 -302 834 0
833 -834 0
833 302 303 -835 0
834 3898 -3909 -832 0
-834 832 0
-834 3909 0
-834 -3898 0
835 308 310 311 -836 0
-835 836 0
-835 -311 0
-835 -308 0
-835 -310 0
836 313 -314 0
836 313 316 -837 0
-836 -313 0
-836 314 837 0
-836 314 -316 0
837 319 320 324 -838 0
-837 838 0
-837 -324 0
-837 -319 0
-837 -320 0
838 327 329 330 -839 0
-838 839 0
-838 -330 0
-838 -327 0
-838 -329 0
839 333 335 338 -840 0
-839 840 0
-839 -338 0
-839 -333 0
-839 -335 0
840 341 342 343 -841 0
-840 841 0
-840 -343 0
-840 -341 0
-840 -342 0
841 345 347 -842 0
841 345 347 -349 0
-841 -345 0
-841 -347 0
-841 349 842 0
-842 351 843 0
-842 351 -355 0
-842 351 -353 0
842 -351 0
842 353 355 -843 0
-843 357 358 844 0
-843 357 358 -360 0
843 -357 0
843 -358 0
843 360 -844 0
844 363 365 368 -845 0
-844 845 0
-844 -368 0
-844 -363 0
-844 -365 0
845 372 375 377 -846 0
-845 846 0
-845 -377 0
-845 -372 0
-845 -375 0
846 379 380 384 -847 0
-846 847 0
-846 -384 0
-846 -379 0
-846 -380 0
847 388 391 393 -848 0
-847 848 0
-847 -393 0
-847 -388 0
-847 -391 0
848 396 -849 0
848 396 -399 0
848 396 -397 0
-848 -396 0
-848 397 399 849 0
849 402 404 -850 0
849 402 404 -405 0
-849 -402 0
-849 -404 0
-849 405 850 0
-850 407 411 413 851 0
850 -851 0
850 -413 0
850 -407 0
850 -411 0
851 416 417 -852 0
851 416 417 -418 0
-851 -416 0
-851 -417 0
-851 418 852 0
-852 420 421 422 853 0
852 -853 0
852 -422 0
852 -420 0
852 -421 0
853 425 427 -854 0
853 425 427 -428 0
-853 -425 0
-853 -427 0
-853 428 854 0
854 430 431 434 -855 0
-854 855 0
-854 -434 0
-854 -430 0
-854 -431 0
-855 437 438 439 856 0
855 -856 0
855 -439 0
855 -437 0
855 -438 0
-856 441 442 857 0
-856 441 442 -444 0
856 -441 0
856 -442 0
856 444 -857 0
857 447 448 450 -858 0
-857 858 0
-857 -450 0
-857 -447 0
-857 -448 0
858 452 454 456 -859 0
-858 859 0
-858 -456 0
-858 -452 0
-858 -454 0
859 459 461 -860 0
859 459 461 -463 0
-859 -459 0
-859 -461 0
-859 463 860 0
860 466 468 -861 0
860 466 468 -469 0
-860 -466 0
-860 -468 0
-860 469 861 0
-861 473 -475 0
-861 473 476 862 0
861 -473 0
861 475 -862 0
861 475 -476 0
862 479 481 482 -863 0
-862 863 0
-862 -482 0
-862 -479 0
-862 -481 0
863 484 488 864 -865 0
-863 865 0
-863 -864 0
-863 -484 0
-863 -488 0
864 -3897 -3898 -3900 -495 0
-864 495 0
-864 3897 0
-864 3900 0
-864 3898 0
-865 492 866 0
-865 -3897 -3898 866 0
865 -866 0
865 3898 -492 0
865 3897 -492 0
-866 498 499 867 868 0
866 -868 0
866 -867 0
866 -498 0
866 -499 0
867 3900 -492 0
-867 -3900 0
-867 492 0
868 501 503 -869 0
868 501 503 -504 0
-868 -501 0
-868 -503 0
-868 504 869 0
-869 510 512 870 871 0
869 -871 0
869 -870 0
869 -510 0
869 -512 0
870 3799 -3800 3801 -509 0
-870 3800 0
-870 -3801 0
-870 -3799 0
-870 509 0
871 515 517 518 -872 0
-871 872 0
-871 -518 0
-871 -515 0
-871 -517 0
872 520 524 873 -874 0
-872 874 0
-872 -873 0
-872 -520 0
-872 -524 0
873 -3897 -3898 -3900 -531 0
-873 531 0
-873 3897 0
-873 3900 0
-873 3898 0
-874 528 875 0
-874 -3897 -3898 875 0
874 -875 0
874 3898 -528 0
874 3897 -528 0
-875 534 535 876 877 0
875 -877 0
875 -876 0
875 -534 0
875 -535 0
876 3900 -528 0
-876 -3900 0
-876 528 0
-877 537 -539 0
-877 537 540 878 0
877 -537 0
877 539 -878 0
877 539 -540 0
-878 546 548 879 880 0
878 -880 0
878 -879 0
878 -546 0
878 -548 0
879 3799 -3800 3801 -545 0
-879 3800 0
-879 -3801 0
-879 -3799 0
-879 545 0
-880 551 -553 0
-880 551 881 0
-880 551 -554 0
880 -551 0
880 553 554 -881 0
881 556 559 561 -882 0
-881 882 0
-881 -561 0
-881 -556 0
-881 -559 0
-882 564 565 566 883 0
882 -883 0
882 -566 0
882 -564 0
882 -565 0
-883 568 569 570 884 0
883 -884 0
883 -570 0
883 -568 0
883 -569 0
884 572 -573 0
884 572 -885 0
884 572 -576 0
-884 -572 0
-884 573 576 885 0
-885 579 580 582 886 0
885 -886 0
885 -582 0
885 -579 0
885 -580 0
886 584 585 586 -887 0
-886 887 0
-886 -586 0
-886 -584 0
-886 -585 0
887 589 590 -888 0
887 589 590 -592 0
-887 -589 0
-887 -590 0
-887 592 888 0
-888 594 889 0
-888 594 -599 0
-888 594 -597 0
888 -594 0
888 597 599 -889 0
-889 601 602 890 892 0
889 -892 0
889 -890 0
889 -601 0
889 -602 0
890 -3800 3801 3898 -891 0
-890 891 0
-890 -3898 0
-890 3800 0
-890 -3801 0
891 3799 262 -596 0
-891 596 0
-891 -262 0
-891 -3799 0
-892 606 607 893 0
-892 606 607 -609 0
892 -606 0
892 -607 0
892 609 -893 0
893 612 614 617 -894 0
-893 894 0
-893 -617 0
-893 -612 0
-893 -614 0
894 621 624 -895 0
894 621 624 -625 0
-894 -621 0
-894 -624 0
-894 625 895 0
-895 627 628 896 0
-895 627 628 -630 0
895 -627 0
895 -628 0
895 630 -896 0
896 633 -634 0
896 633 -897 0
896 633 -636 0
-896 -633 0
-896 634 636 897 0
-897 638 639 641 898 0
897 -898 0
897 -641 0
897 -638 0
897 -639 0
-898 643 644 648 899 0
898 -899 0
898 -648 0
898 -643 0
898 -644 0
-899 651 900 0
-899 651 -654 0
-899 651 -653 0
899 -651 0
899 653 654 -900 0
-900 656 657 658 901 0
900 -901 0
900 -658 0
900 -656 0
900 -657 0
-901 660 -662 0
-901 660 902 0
-901 660 -664 0
901 -660 0
901 662 664 -902 0
902 666 -667 0
902 666 671 -903 0
-902 -666 0
-902 667 903 0
-902 667 -671 0
-903 675 679 904 905 0
903 -905 0
903 -904 0
903 -675 0
903 -679 0
904 3799 -3800 3801 -678 0
-904 3800 0
-904 -3801 0
-904 -3799 0
-904 678 0
-905 681 906 0
-905 681 -685 0
-905 681 -683 0
905 -681 0
905 683 685 -906 0
-906 687 -688 0
-906 687 689 907 0
906 -687 0
906 688 -907 0
906 688 -689 0
907 694 -697 0
907 694 -909 0
907 694 -908 0
-907 -694 0
-907 697 908 909 0
908 3799 -3800 3801 -700 0
-908 3800 0
-908 -3801 0
-908 -3799 0
-908 700 0
-909 702 703 705 910 0
909 -910 0
909 -705 0
909 -702 0
909 -703 0
910 708 710 -911 0
910 708 710 -711 0
-910 -708 0
-910 -710 0
-910 711 911 0
911 713 -912 0
911 713 -717 0
911 713 -714 0
-911 -713 0
-911 714 717 912 0
912 719 720 722 -913 0
-912 913 0
-912 -722 0
-912 -719 0
-912 -720 0
913 725 728 -916 0
913 725 728 -914 0
-913 -725 0
-913 -728 0
-913 914 916 0
914 -3800 3801 3909 -915 0
-914 915 0
-914 -3909 0
-914 3800 0
-914 -3801 0
915 3799 262 -715 0
-915 715 0
-915 -262 0
-915 -3799 0
-916 733 735 736 917 0
916 -917 0
916 -736 0
916 -733 0
916 -735 0
-917 738 918 0
-917 738 -742 0
-917 738 -740 0
917 -738 0
917 740 742 -918 0
-918 744 745 919 921 0
918 -921 0
918 -919 0
918 -744 0
918 -745 0
919 -3800 3801 -3909 -920 0
-919 920 0
-919 3800 0
-919 3909 0
-919 -3801 0
920 3799 -748 0
-920 -3799 0
-920 748 0
-921 750 -752 0
-921 750 753 922 0
921 -750 0
921 752 -922 0
921 752 -753 0
-922 758 759 923 0
-922 758 759 -760 0
922 -758 0
922 -759 0
922 760 -923 0
923 763 766 769 -924 0
-923 924 0
-923 -769 0
-923 -763 0
-923 -766 0
-924 774 776 925 927 0
924 -927 0
924 -925 0
924 -774 0
924 -776 0
925 -3800 3801 3909 -926 0
-925 926 0
-925 -3909 0
-925 3800 0
-925 -3801 0
926 3799 262 -755 0
-926 755 0
-926 -262 0
-926 -3799 0
-927 779 780 928 0
-927 779 780 -782 0
927 -779 0
927 -780 0
927 782 -928 0
928 785 -786 0
928 785 -929 0
928 785 -787 0
-928 -785 0
-928 786 787 929 0
-929 793 930 932 0
-929 793 -795 930 0
929 -793 0
929 -930 0
929 795 -932 0
930 -3800 3801 -3909 -931 0
-930 931 0
-930 3800 0
-930 3909 0
-930 -3801 0
931 3799 -792 0
-931 -3799 0
-931 792 0
-932 3881 797 799 933 0
932 -933 0
932 -799 0
932 -3881 0
932 -797 0
933 3799 937 -938 0
933 934 937 -938 0
-933 938 0
-933 -937 0
-933 -3799 -934 0
934 3800 -3801 321 -935 0
-934 3801 0
-934 -321 0
-934 -3800 0
-934 935 0
935 3893 -936 0
-935 -3893 0
-935 936 0
936 3864 -3880 -5 0
-936 5 0
-936 3880 0
-936 -3864 0
-937 3864 3881 3883 0
937 -3864 0
937 -3883 0
937 -3881 0
938 -939 999 1000 0
938 -3799 -939 1000 0
-938 -1000 0
-938 939 0
-938 3799 -999 0
-939 940 944 0
-939 3799 940 -943 0
939 -940 0
939 -3799 -944 0
939 943 -944 0
940 3799 -3800 -3801 -941 0
-940 -3799 0
-940 941 0
-940 3801 0
-940 3800 0
941 288 -942 0
-941 -288 0
-941 942 0
942 -3880 3882 -3884 0
-942 3880 0
-942 -3882 0
-942 3884 0
943 3800 -3801 291 -936 0
-943 3801 0
-943 -291 0
-943 -3800 0
-943 936 0
944 3891 -946 0
944 -3805 -946 0
944 945 -946 0
-944 946 0
-944 3805 -3891 -945 0
945 3890 -936 0
-945 -3890 0
-945 936 0
-946 3799 948 0
-946 -3800 948 0
-946 947 948 0
946 -948 0
946 -3799 3800 -947 0
947 -3801 -3893 321 -942 0
-947 942 0
-947 3801 0
-947 3893 0
-947 -321 0
-948 949 995 0
-948 -3804 -945 995 0
948 -995 0
948 945 -949 0
948 3804 -949 0
949 -950 -994 0
949 951 -953 -994 0
-949 994 0
-949 950 -951 0
-949 950 953 0
950 -3803 -3884 3889 -3903 0
-950 3903 0
-950 3803 0
-950 3884 0
-950 -3889 0
951 -3778 3893 -3909 -952 0
-951 952 0
-951 3778 0
-951 3909 0
-951 -3893 0
952 3864 3880 -19 0
-952 19 0
-952 -3880 0
-952 -3864 0
953 3909 -956 0
953 954 -956 0
953 -3799 -956 0
-953 956 0
-953 3799 -3909 -954 0
954 -3800 3801 262 -955 0
-954 955 0
-954 -262 0
-954 3800 0
-954 -3801 0
955 3893 -952 0
-955 -3893 0
-955 952 0
956 3909 -958 0
956 957 -958 0
956 3799 -958 0
-956 958 0
-956 -3799 -3909 -957 0
957 3800 -3801 321 -955 0
-957 3801 0
-957 -321 0
-957 -3800 0
-957 955 0
-958 959 961 983 984 0
958 -984 0
958 -983 0
958 -959 0
958 -961 0
959 3799 -3800 -3801 -960 0
-959 -3799 0
-959 960 0
-959 3801 0
-959 3800 0
960 -3884 288 0
-960 3884 0
-960 -288 0
961 962 -963 0
961 -3800 -963 0
961 -3799 -963 0
-961 963 0
-961 3799 3800 -962 0
962 -3801 291 -952 0
-962 3801 0
-962 -291 0
-962 952 0
963 3891 -965 0
963 -3805 -965 0
963 964 -965 0
-963 965 0
-963 3805 -3891 -964 0
964 3890 -952 0
-964 -3890 0
-964 952 0
-965 3909 968 0
-965 3800 968 0
-965 966 968 0
965 -968 0
965 -3800 -3909 -966 0
966 3799 3801 262 -967 0
-966 967 0
-966 -262 0
-966 -3799 0
-966 -3801 0
967 -3884 -3893 0
-967 3884 0
-967 3893 0
-968 969 979 0
-968 -3804 -964 979 0
968 -979 0
968 964 -969 0
968 3804 -969 0
969 -970 -978 0
969 -3778 -321 -978 0
-969 978 0
-969 321 970 0
-969 3778 970 0
-970 971 973 0
-970 -3885 973 0
970 -973 0
970 3885 -971 0
-971 3778 3887 0
-971 3886 -3887 0
-971 -3886 3887 0
-971 -3887 972 0
971 -3778 3886 3887 0
971 -3886 -3887 -972 0
-972 3778 3809 0
-972 3778 -3895 0
972 -3778 0
972 -3809 3895 0
-973 262 974 975 0
-973 3778 974 975 0
973 -975 0
973 -974 0
973 -3778 -262 0
974 -3809 -3865 3895 325 0
-974 -325 0
-974 3809 0
-974 3865 0
-974 -3895 0
-975 3809 976 0
-975 -3895 976 0
-975 262 976 0
975 -976 0
975 -3809 3895 -262 0
-976 3809 0
-976 -3895 0
-976 321 -977 0
976 -3809 3895 -321 0
976 -3809 3895 977 0
-977 3865 325 0
977 -3865 0
977 -325 0
978 3884 -3891 0
-978 -3884 0
-978 3891 0
-979 3909 0
-979 980 982 0
-979 3893 980 0
979 -3909 -980 0
979 -3893 -3909 -982 0
980 -3799 3800 -3801 -981 0
-980 981 0
-980 3799 0
-980 3801 0
-980 -3800 0
981 -3884 -3893 321 0
-981 3884 0
-981 3893 0
-981 -321 0
982 -3778 -3884 0
-982 3778 0
-982 3884 0
983 3768 -3854 -3884 0
-983 3884 0
-983 3854 0
-983 -3768 0
-984 985 987 0
984 -985 0
984 -987 0
985 -3800 3909 -3911 -986 0
-985 986 0
-985 3800 0
-985 3911 0
-985 -3909 0
986 3799 3801 -3884 262 0
-986 -3799 0
-986 -262 0
-986 3884 0
-986 -3801 0
-987 988 990 991 992 0
987 -992 0
987 -991 0
987 -988 0
987 -990 0
988 -3799 3909 -3911 -989 0
-988 989 0
-988 3799 0
-988 3911 0
-988 -3909 0
989 3800 -3801 -3884 321 0
-989 -3800 0
-989 -321 0
-989 3884 0
-989 3801 0
990 -3824 -3884 3911 -262 0
-990 262 0
-990 3824 0
-990 3884 0
-990 -3911 0
991 -3824 -3884 3911 -321 0
-991 321 0
-991 3824 0
-991 3884 0
-991 -3911 0
-992 982 993 0
-992 262 321 993 0
992 -993 0
992 -321 -982 0
992 -262 -982 0
993 3909 325 -982 0
-993 982 0
-993 -325 0
-993 -3909 0
994 3880 -3882 0
-994 -3880 0
-994 3882 0
-995 3893 996 0
-995 3800 998 0
-995 996 998 0
-995 3800 3893 0
995 -3800 -996 0
995 -3893 -998 0
996 3799 3801 262 -997 0
-996 997 0
-996 -262 0
-996 -3799 0
-996 -3801 0
997 -3893 -942 0
-997 3893 0
-997 942 0
998 -3778 -942 0
-998 3778 0
-998 942 0
999 -3800 3801 262 -935 0
-999 935 0
-999 -262 0
-999 3800 0
-999 -3801 0
-1000 936 1001 0
-1000 -3893 1001 0
-1000 3778 1001 0
1000 -1001 0
1000 -3778 3893 -936 0
1001 -3768 3854 -936 0
-1001 3768 0
-1001 -3854 0
-1001 936 0
-1002 -3796 -1003 0
-1002 3796 1003 0
1002 3796 -1003 0
1002 -3796 1003 0
1003 257 259 263 -1004 0
-1003 1004 0
-1003 -263 0
-1003 -257 0
-1003 -259 0
1004 268 -272 0
1004 268 -1005 0
1004 268 -274 0
-1004 -268 0
-1004 272 274 1005 0
-1005 -825 1006 0
-1005 1006 1008 0
-1005 -280 1006 0
1005 -1006 0
1005 280 825 -1008 0
1006 3898 -3909 -1007 0
-1006 1007 0
-1006 3909 0
-1006 -3898 0
1007 3799 -3800 3801 -271 0
-1007 3800 0
-1007 -3801 0
-1007 -3799 0
-1007 271 0
1008 282 283 285 -1009 0
-1008 1009 0
-1008 -285 0
-1008 -282 0
-1008 -283 0
1009 287 289 -1010 0
1009 287 289 -292 0
-1009 -287 0
-1009 -289 0
-1009 292 1010 0
-1010 297 298 831 1011 0
1010 -1011 0
1010 -831 0
1010 -297 0
1010 -298 0
-1011 -303 834 0
-1011 834 1012 0
-1011 -302 834 0
1011 -834 0
1011 302 303 -1012 0
1012 308 -310 0
1012 308 -1013 0
1012 308 -311 0
-1012 -308 0
-1012 310 311 1013 0
-1013 -316 1014 0
-1013 1014 1016 0
-1013 -314 1014 0
1013 -1014 0
1013 314 316 -1016 0
1014 3898 -1015 0
-1014 -3898 0
-1014 1015 0
1015 3799 -3800 3801 -305 0
-1015 3800 0
-1015 -3801 0
-1015 -3799 0
-1015 305 0
-1016 319 -320 0
-1016 319 1017 0
-1016 319 -324 0
1016 -319 0
1016 320 324 -1017 0
1017 327 329 330 -1018 0
-1017 1018 0
-1017 -330 0
-1017 -327 0
-1017 -329 0
1018 333 335 338 -1019 0
-1018 1019 0
-1018 -338 0
-1018 -333 0
-1018 -335 0
-1019 341 342 343 1020 0
1019 -1020 0
1019 -343 0
1019 -341 0
1019 -342 0
-1020 -351 1021 0
-1020 1021 1023 0
-1020 -348 1021 0
1020 -1021 0
1020 348 351 -1023 0
1021 -3800 3801 3898 -1022 0
-1021 1022 0
-1021 -3898 0
-1021 3800 0
-1021 -3801 0
1022 3799 262 -323 0
-1022 323 0
-1022 -262 0
-1022 -3799 0
1023 353 -1024 0
1023 353 -357 0
1023 353 -355 0
-1023 -353 0
-1023 355 357 1024 0
1024 358 360 363 -1025 0
-1024 1025 0
-1024 -363 0
-1024 -358 0
-1024 -360 0
1025 365 368 372 -1026 0
-1025 1026 0
-1025 -372 0
-1025 -365 0
-1025 -368 0
1026 375 377 379 -1027 0
-1026 1027 0
-1026 -379 0
-1026 -375 0
-1026 -377 0
1027 380 384 388 -1028 0
-1027 1028 0
-1027 -388 0
-1027 -380 0
-1027 -384 0
1028 391 393 396 -1029 0
-1028 1029 0
-1028 -396 0
-1028 -391 0
-1028 -393 0
1029 397 399 402 -1030 0
-1029 1030 0
-1029 -402 0
-1029 -397 0
-1029 -399 0
-1030 404 405 1031 0
-1030 404 405 -407 0
1030 -404 0
1030 -405 0
1030 407 -1031 0
1031 411 -413 0
1031 411 416 -1032 0
-1031 -411 0
-1031 413 1032 0
-1031 413 -416 0
-1032 417 -418 0
-1032 417 1033 0
-1032 417 -420 0
1032 -417 0
1032 418 420 -1033 0
1033 421 422 425 -1034 0
-1033 1034 0
-1033 -425 0
-1033 -421 0
-1033 -422 0
-1034 427 428 430 1035 0
1034 -1035 0
1034 -430 0
1034 -427 0
1034 -428 0
1035 431 434 437 -1036 0
-1035 1036 0
-1035 -437 0
-1035 -431 0
-1035 -434 0
1036 438 439 441 -1037 0
-1036 1037 0
-1036 -441 0
-1036 -438 0
-1036 -439 0
1037 442 444 -1038 0
1037 442 444 -447 0
-1037 -442 0
-1037 -444 0
-1037 447 1038 0
1038 448 450 452 -1039 0
-1038 1039 0
-1038 -452 0
-1038 -448 0
-1038 -450 0
1039 454 456 459 -1040 0
-1039 1040 0
-1039 -459 0
-1039 -454 0
-1039 -456 0
1040 461 463 466 -1041 0
-1040 1041 0
-1040 -466 0
-1040 -461 0
-1040 -463 0
-1041 468 -469 0
-1041 468 473 1042 0
1041 -468 0
1041 469 -1042 0
1041 469 -473 0
-1042 475 1043 0
-1042 475 -479 0
-1042 475 -476 0
1042 -475 0
1042 476 479 -1043 0
-1043 481 482 1044 0
-1043 481 482 -484 0
1043 -481 0
1043 -482 0
1043 484 -1044 0
1044 488 1045 864 -1046 0
-1044 1046 0
-1044 -864 0
-1044 -488 0
-1044 -1045 0
1045 3897 -495 0
-1045 -3897 0
-1045 495 0
1046 495 -1047 0
1046 -3898 -3900 -1047 0
-1046 1047 0
-1046 3900 -495 0
-1046 3898 -495 0
1047 498 499 501 -1048 0
-1047 1048 0
-1047 -501 0
-1047 -498 0
-1047 -499 0
-1048 503 -504 0
-1048 503 1049 0
-1048 503 -508 0
1048 -503 0
1048 504 508 -1049 0
1049 510 512 515 -1050 0
-1049 1050 0
-1049 -515 0
-1049 -510 0
-1049 -512 0
-1050 517 518 1051 0
-1050 517 518 -520 0
1050 -517 0
1050 -518 0
1050 520 -1051 0
1051 524 1052 873 -1053 0
-1051 1053 0
-1051 -873 0
-1051 -524 0
-1051 -1052 0
1052 3897 -531 0
-1052 -3897 0
-1052 531 0
1053 531 -1054 0
1053 -3898 -3900 -1054 0
-1053 1054 0
-1053 3900 -531 0
-1053 3898 -531 0
1054 534 535 537 -1055 0
-1054 1055 0
-1054 -537 0
-1054 -534 0
-1054 -535 0
-1055 539 -540 0
-1055 539 1056 0
-1055 539 -544 0
1055 -539 0
1055 540 544 -1056 0
1056 546 548 551 -1057 0
-1056 1057 0
-1056 -551 0
-1056 -546 0
-1056 -548 0
-1057 553 554 1058 0
-1057 553 554 -556 0
1057 -553 0
1057 -554 0
1057 556 -1058 0
1058 559 561 564 -1059 0
-1058 1059 0
-1058 -564 0
-1058 -559 0
-1058 -561 0
1059 565 566 568 -1060 0
-1059 1060 0
-1059 -568 0
-1059 -565 0
-1059 -566 0
1060 569 570 572 -1061 0
-1060 1061 0
-1060 -572 0
-1060 -569 0
-1060 -570 0
1061 573 576 -1062 0
-1061 1062 0
-1061 -576 0
-1061 -573 0
1062 579 580 582 -1063 0
-1062 1063 0
-1062 -582 0
-1062 -579 0
-1062 -580 0
1063 584 -585 0
1063 584 586 -1064 0
-1063 -584 0
-1063 585 1064 0
-1063 585 -586 0
1064 589 591 594 -1065 0
-1064 1065 0
-1064 -594 0
-1064 -589 0
-1064 -591 0
1065 597 -599 0
1065 597 -1066 0
1065 597 -601 0
-1065 -597 0
-1065 599 601 1066 0
-1066 602 606 890 1067 0
1066 -1067 0
1066 -890 0
1066 -602 0
1066 -606 0
1067 607 609 612 -1068 0
-1067 1068 0
-1067 -612 0
-1067 -607 0
-1067 -609 0
1068 614 617 621 -1069 0
-1068 1069 0
-1068 -621 0
-1068 -614 0
-1068 -617 0
1069 624 625 -1070 0
-1069 1070 0
-1069 -625 0
-1069 -624 0
1070 627 628 630 -1071 0
-1070 1071 0
-1070 -630 0
-1070 -627 0
-1070 -628 0
-1071 633 634 636 1072 0
1071 -1072 0
1071 -636 0
1071 -633 0
1071 -634 0
-1072 638 639 641 1073 0
1072 -1073 0
1072 -641 0
1072 -638 0
1072 -639 0
-1073 643 1074 0
-1073 643 -648 0
-1073 643 -644 0
1073 -643 0
1073 644 648 -1074 0
-1074 651 -653 0
-1074 651 654 1075 0
1074 -651 0
1074 653 -1075 0
1074 653 -654 0
1075 656 657 658 -1076 0
-1075 1076 0
-1075 -658 0
-1075 -656 0
-1075 -657 0
1076 660 662 -1077 0
1076 660 662 -664 0
-1076 -660 0
-1076 -662 0
-1076 664 1077 0
-1077 666 -667 0
-1077 666 671 1078 0
1077 -666 0
1077 667 -1078 0
1077 667 -671 0
1078 675 677 679 -1079 0
-1078 1079 0
-1078 -679 0
-1078 -675 0
-1078 -677 0
1079 681 683 -1080 0
1079 681 683 -685 0
-1079 -681 0
-1079 -683 0
-1079 685 1080 0
-1080 687 688 689 1081 0
1080 -1081 0
1080 -689 0
1080 -687 0
1080 -688 0
-1081 694 -697 0
-1081 694 1082 0
-1081 694 -699 0
1081 -694 0
1081 697 699 -1082 0
1082 702 703 705 -1083 0
-1082 1083 0
-1082 -705 0
-1082 -702 0
-1082 -703 0
1083 708 -710 0
1083 708 -1084 0
1083 708 -711 0
-1083 -708 0
-1083 710 711 1084 0
-1084 713 1085 0
-1084 713 -717 0
-1084 713 -714 0
1084 -713 0
1084 714 717 -1085 0
-1085 719 720 722 1086 0
1085 -1086 0
1085 -722 0
1085 -719 0
1085 -720 0
-1086 728 -730 1087 0
-1086 728 1087 1089 0
1086 -728 0
1086 -1087 0
1086 730 -1089 0
1087 -3800 3801 -3909 -1088 0
-1087 1088 0
-1087 3800 0
-1087 3909 0
-1087 -3801 0
1088 3799 -727 0
-1088 -3799 0
-1088 727 0
1089 733 735 736 -1090 0
-1089 1090 0
-1089 -736 0
-1089 -733 0
-1089 -735 0
1090 738 740 -1091 0
1090 738 740 -742 0
-1090 -738 0
-1090 -740 0
-1090 742 1091 0
-1091 744 745 919 1092 0
1091 -1092 0
1091 -919 0
1091 -744 0
1091 -745 0
-1092 750 752 753 1093 0
1092 -1093 0
1092 -753 0
1092 -750 0
1092 -752 0
1093 758 -759 0
1093 758 -1094 0
1093 758 -760 0
-1093 -758 0
-1093 759 760 1094 0
-1094 763 769 1095 1097 0
1094 -1097 0
1094 -1095 0
1094 -763 0
1094 -769 0
1095 -3800 3801 -3909 -1096 0
-1095 1096 0
-1095 3800 0
-1095 3909 0
-1095 -3801 0
1096 3799 -768 0
-1096 -3799 0
-1096 768 0
1097 772 774 776 -1098 0
-1097 1098 0
-1097 -776 0
-1097 -772 0
-1097 -774 0
1098 779 780 782 -1099 0
-1098 1099 0
-1098 -782 0
-1098 -779 0
-1098 -780 0
-1099 785 786 787 1100 0
1099 -1100 0
1099 -787 0
1099 -785 0
1099 -786 0
-1100 793 795 930 1101 0
1100 -1101 0
1100 -930 0
1100 -793 0
1100 -795 0
1101 797 799 -1102 0
1101 797 799 -800 0
-1101 -797 0
-1101 -799 0
-1101 800 1102 0
-1102 802 805 1103 1104 0
1102 -1104 0
1102 -1103 0
1102 -802 0
1102 -805 0
1103 3799 -3800 3801 -804 0
-1103 3800 0
-1103 -3801 0
-1103 -3799 0
-1103 804 0
1104 808 810 -1105 0
1104 808 810 -812 0
-1104 -808 0
-1104 -810 0
-1104 812 1105 0
-1105 814 818 1106 1107 0
1105 -1107 0
1105 -1106 0
1105 -814 0
1105 -818 0
1106 3799 -3800 3801 -816 0
-1106 3800 0
-1106 -3801 0
-1106 -3799 0
-1106 816 0
-1107 820 -1110 0
-1107 820 -1108 0
-1107 3882 820 0
1107 -820 0
1107 -3882 1108 1110 0
1108 -3803 3889 -3903 -1109 0
-1108 1109 0
-1108 3803 0
-1108 3903 0
-1108 -3889 0
1109 3864 -18 0
-1109 -3864 0
-1109 18 0
1110 3909 -1115 0
1110 3799 -1115 0
1110 1111 -1115 0
-1110 1115 0
-1110 -3799 -3909 -1111 0
1111 3800 -3801 321 -1112 0
-1111 3801 0
-1111 -321 0
-1111 -3800 0
-1111 1112 0
1112 3893 -1113 0
-1112 -3893 0
-1112 1113 0
1113 3864 3880 3881 -1114 0
-1113 1114 0
-1113 -3881 0
-1113 -3864 0
-1113 -3880 0
1114 3883 -3884 0
-1114 -3883 0
-1114 3884 0
1115 -1116 -1118 1138 0
1115 -1116 -1120 1138 0
-1115 -1138 0
-1115 1116 0
-1115 1118 1120 0
1116 3864 3880 3881 -1117 0
-1116 1117 0
-1116 -3881 0
-1116 -3864 0
-1116 -3880 0
1117 -3882 3883 0
-1117 3882 0
-1117 -3883 0
1118 3799 3800 -3801 -1119 0
-1118 -3799 0
-1118 1119 0
-1118 3801 0
-1118 -3800 0
1119 -3884 291 0
-1119 3884 0
-1119 -291 0
-1120 959 983 1121 1135 0
1120 -1135 0
1120 -1121 0
1120 -959 0
1120 -983 0
1121 3891 -1123 0
1121 1122 -1123 0
1121 -3805 -1123 0
-1121 1123 0
-1121 3805 -3891 -1122 0
1122 3890 -1113 0
-1122 -3890 0
-1122 1113 0
1123 3909 -1125 0
1123 3893 -1125 0
1123 1124 -1125 0
-1123 1125 0
-1123 -3893 -3909 -1124 0
1124 -3778 -1113 0
-1124 3778 0
-1124 1113 0
1125 3909 -1128 0
1125 3799 -1128 0
1125 1126 -1128 0
-1125 1128 0
-1125 -3799 -3909 -1126 0
1126 3800 -3801 321 -1127 0
-1126 3801 0
-1126 -321 0
-1126 -3800 0
-1126 1127 0
1127 -3893 -1113 0
-1127 3893 0
-1127 1113 0
1128 3909 -1130 0
1128 3800 -1130 0
1128 1129 -1130 0
-1128 1130 0
-1128 -3800 -3909 -1129 0
1129 3799 3801 262 -1127 0
-1129 1127 0
-1129 -262 0
-1129 -3799 0
-1129 -3801 0
1130 3804 -978 -1131 0
1130 -978 1122 -1131 0
-1130 978 0
-1130 1131 0
-1130 -3804 -1122 0
-1131 -3885 1132 973 0
-1131 1132 973 1133 0
1131 -973 0
1131 -1132 0
1131 3885 -1133 0
1132 -3778 -321 0
-1132 3778 0
-1132 321 0
-1133 -3886 3887 0
-1133 -3887 1134 0
-1133 3778 3887 0
1133 -3887 -1134 0
1133 -3778 3886 3887 0
-1134 3778 3809 0
-1134 3778 -3895 0
1134 -3778 0
1134 -3809 3895 0
-1135 -3909 987 0
-1135 3911 987 0
-1135 987 1136 0
1135 -987 0
1135 3909 -3911 -1136 0
1136 3799 -3800 3801 -1137 0
-1136 3800 0
-1136 -3801 0
-1136 -3799 0
-1136 1137 0
1137 -3884 262 0
-1137 3884 0
-1137 -262 0
-1138 3909 0
-1138 1139 1140 0
-1138 3800 1140 0
1138 -3909 -1140 0
1138 -3800 -3909 -1139 0
1139 3799 3801 262 -1112 0
-1139 1112 0
-1139 -262 0
-1139 -3799 0
-1139 -3801 0
1140 3893 -1124 0
-1140 -3893 0
-1140 1124 0
1141 3797 1142 1293 -1426 0
1141 -3797 -1142 1293 -1426 0
-1141 1426 0
-1141 -3797 1142 0
-1141 -1293 0
-1141 3797 -1142 0
1142 257 -259 0
1142 257 263 -1143 0
-1142 -257 0
-1142 259 1143 0
-1142 259 -263 0
1143 268 -272 0
1143 268 -1144 0
1143 268 -274 0
-1143 -268 0
-1143 272 274 1144 0
-1144 -825 1006 0
-1144 280 1006 1145 0
1144 -1006 0
1144 -280 825 0
1144 825 -1145 0
-1145 282 827 828 1146 0
1145 -1146 0
1145 -828 0
1145 -282 0
1145 -827 0
-1146 287 289 292 1147 0
1146 -1147 0
1146 -292 0
1146 -287 0
1146 -289 0
1147 294 297 298 -1148 0
-1147 1148 0
-1147 -298 0
-1147 -294 0
-1147 -297 0
1148 301 302 303 -1149 0
-1148 1149 0
-1148 -303 0
-1148 -301 0
-1148 -302 0
1149 308 -310 0
1149 308 -1150 0
1149 308 -311 0
-1149 -308 0
-1149 310 311 1150 0
-1150 314 316 1014 1151 0
1150 -1151 0
1150 -1014 0
1150 -314 0
1150 -316 0
-1151 319 -320 0
-1151 319 1152 0
-1151 319 -324 0
1151 -319 0
1151 320 324 -1152 0
1152 327 329 -1153 0
1152 327 329 -330 0
-1152 -327 0
-1152 -329 0
-1152 330 1153 0
-1153 333 335 338 1154 0
1153 -1154 0
1153 -338 0
1153 -333 0
1153 -335 0
-1154 341 342 343 1155 0
1154 -1155 0
1154 -343 0
1154 -341 0
1154 -342 0
-1155 -347 1021 0
-1155 349 1021 1156 0
1155 -1021 0
1155 347 -349 0
1155 347 -1156 0
-1156 351 353 355 1157 0
1156 -1157 0
1156 -355 0
1156 -351 0
1156 -353 0
1157 357 358 360 -1158 0
-1157 1158 0
-1157 -360 0
-1157 -357 0
-1157 -358 0
1158 363 365 368 -1159 0
-1158 1159 0
-1158 -368 0
-1158 -363 0
-1158 -365 0
-1159 372 375 377 1160 0
1159 -1160 0
1159 -377 0
1159 -372 0
1159 -375 0
-1160 379 -380 0
-1160 379 1161 0
-1160 379 -384 0
1160 -379 0
1160 380 384 -1161 0
1161 388 391 393 -1162 0
-1161 1162 0
-1161 -393 0
-1161 -388 0
-1161 -391 0
1162 396 -397 0
1162 396 -1163 0
1162 396 -399 0
-1162 -396 0
-1162 397 399 1163 0
-1163 402 404 1164 0
-1163 402 404 -405 0
1163 -402 0
1163 -404 0
1163 405 -1164 0
1164 407 411 -1165 0
1164 407 411 -413 0
-1164 -407 0
-1164 -411 0
-1164 413 1165 0
1165 416 417 -1166 0
1165 416 417 -418 0
-1165 -416 0
-1165 -417 0
-1165 418 1166 0
-1166 420 421 422 1167 0
1166 -1167 0
1166 -422 0
1166 -420 0
1166 -421 0
-1167 425 427 1168 0
-1167 425 427 -428 0
1167 -425 0
1167 -427 0
1167 428 -1168 0
1168 430 431 434 -1169 0
-1168 1169 0
-1168 -434 0
-1168 -430 0
-1168 -431 0
-1169 437 438 439 1170 0
1169 -1170 0
1169 -439 0
1169 -437 0
1169 -438 0
-1170 441 442 444 1171 0
1170 -1171 0
1170 -444 0
1170 -441 0
1170 -442 0
-1171 447 -448 0
-1171 447 1172 0
-1171 447 -450 0
1171 -447 0
1171 448 450 -1172 0
1172 452 454 456 -1173 0
-1172 1173 0
-1172 -456 0
-1172 -452 0
-1172 -454 0
1173 459 461 -1174 0
1173 459 461 -463 0
-1173 -459 0
-1173 -461 0
-1173 463 1174 0
-1174 466 468 1175 0
-1174 466 468 -469 0
1174 -466 0
1174 -468 0
1174 469 -1175 0
-1175 473 -475 0
-1175 473 476 1176 0
1175 -473 0
1175 475 -1176 0
1175 475 -476 0
-1176 479 481 1177 0
-1176 479 481 -482 0
1176 -479 0
1176 -481 0
1176 482 -1177 0
1177 484 488 864 -1178 0
-1177 1178 0
-1177 -864 0
-1177 -484 0
-1177 -488 0
-1178 1179 1180 867 1181 0
1178 -1181 0
1178 -867 0
1178 -1179 0
1178 -1180 0
1179 3897 -492 0
-1179 -3897 0
-1179 492 0
1180 3898 -492 0
-1180 -3898 0
-1180 492 0
-1181 498 499 501 1182 0
1181 -1182 0
1181 -501 0
1181 -498 0
1181 -499 0
-1182 503 -504 0
-1182 503 870 1183 0
1182 -503 0
1182 504 -1183 0
1182 504 -870 0
-1183 510 512 515 1184 0
1183 -1184 0
1183 -515 0
1183 -510 0
1183 -512 0
-1184 517 -518 0
-1184 517 1185 0
-1184 517 -520 0
1184 -517 0
1184 518 520 -1185 0
1185 524 873 -1187 0
1185 524 873 -1186 0
-1185 -524 0
-1185 -873 0
-1185 1186 1187 0
1186 3897 -528 0
-1186 -3897 0
-1186 528 0
-1187 534 1188 876 1189 0
1187 -1189 0
1187 -876 0
1187 -534 0
1187 -1188 0
1188 3898 -528 0
-1188 -3898 0
-1188 528 0
-1189 535 537 539 1190 0
1189 -1190 0
1189 -539 0
1189 -535 0
1189 -537 0
1190 540 -546 0
1190 540 -1191 0
1190 540 -879 0
-1190 -540 0
-1190 546 879 1191 0
-1191 548 551 553 1192 0
1191 -1192 0
1191 -553 0
1191 -548 0
1191 -551 0
1192 554 556 559 -1193 0
-1192 1193 0
-1192 -559 0
-1192 -554 0
-1192 -556 0
1193 561 -564 0
1193 561 -1194 0
1193 561 -565 0
-1193 -561 0
-1193 564 565 1194 0
-1194 566 568 569 1195 0
1194 -1195 0
1194 -569 0
1194 -566 0
1194 -568 0
-1195 570 572 1196 0
-1195 570 572 -573 0
1195 -570 0
1195 -572 0
1195 573 -1196 0
-1196 576 579 580 1197 0
1196 -1197 0
1196 -580 0
1196 -576 0
1196 -579 0
-1197 582 584 1198 0
-1197 582 584 -585 0
1197 -582 0
1197 -584 0
1197 585 -1198 0
1198 586 589 590 -1199 0
-1198 1199 0
-1198 -590 0
-1198 -586 0
-1198 -589 0
-1199 592 594 597 1200 0
1199 -1200 0
1199 -597 0
1199 -592 0
1199 -594 0
-1200 599 -601 0
-1200 599 1201 0
-1200 599 -602 0
1200 -599 0
1200 601 602 -1201 0
1201 603 606 607 -1202 0
-1201 1202 0
-1201 -607 0
-1201 -603 0
-1201 -606 0
1202 609 612 614 -1203 0
-1202 1203 0
-1202 -614 0
-1202 -609 0
-1202 -612 0
1203 617 621 624 -1204 0
-1203 1204 0
-1203 -624 0
-1203 -617 0
-1203 -621 0
-1204 625 627 628 1205 0
1204 -1205 0
1204 -628 0
1204 -625 0
1204 -627 0
-1205 630 633 1206 0
-1205 630 633 -634 0
1205 -630 0
1205 -633 0
1205 634 -1206 0
1206 636 638 639 -1207 0
-1206 1207 0
-1206 -639 0
-1206 -636 0
-1206 -638 0
1207 641 643 644 -1208 0
-1207 1208 0
-1207 -644 0
-1207 -641 0
-1207 -643 0
1208 648 -651 0
1208 648 653 -1209 0
-1208 -648 0
-1208 651 1209 0
-1208 651 -653 0
1209 654 -656 0
1209 654 -1210 0
1209 654 -657 0
-1209 -654 0
-1209 656 657 1210 0
-1210 658 660 662 1211 0
1210 -1211 0
1210 -662 0
1210 -658 0
1210 -660 0
-1211 664 1212 0
-1211 664 -667 0
-1211 664 -666 0
1211 -664 0
1211 666 667 -1212 0
-1212 671 675 904 1213 0
1212 -1213 0
1212 -904 0
1212 -671 0
1212 -675 0
-1213 679 681 683 1214 0
1213 -1214 0
1213 -683 0
1213 -679 0
1213 -681 0
-1214 685 1215 0
-1214 685 -688 0
-1214 685 -687 0
1214 -685 0
1214 687 688 -1215 0
-1215 689 694 697 1216 0
1215 -1216 0
1215 -697 0
1215 -689 0
1215 -694 0
-1216 702 703 908 1217 0
1216 -1217 0
1216 -908 0
1216 -702 0
1216 -703 0
-1217 705 708 710 1218 0
1217 -1218 0
1217 -710 0
1217 -705 0
1217 -708 0
1218 711 713 714 -1219 0
-1218 1219 0
-1218 -714 0
-1218 -711 0
-1218 -713 0
1219 717 719 -1220 0
1219 717 719 -720 0
-1219 -717 0
-1219 -719 0
-1219 720 1220 0
-1220 722 728 1087 1221 0
1220 -1221 0
1220 -1087 0
1220 -722 0
1220 -728 0
-1221 733 735 914 1222 0
1221 -1222 0
1221 -914 0
1221 -733 0
1221 -735 0
-1222 736 738 740 1223 0
1222 -1223 0
1222 -740 0
1222 -736 0
1222 -738 0
-1223 742 -744 0
-1223 742 1224 0
-1223 742 -745 0
1223 -742 0
1223 744 745 -1224 0
1224 746 750 752 -1225 0
-1224 1225 0
-1224 -752 0
-1224 -746 0
-1224 -750 0
-1225 753 -758 0
-1225 753 759 1226 0
1225 -753 0
1225 758 -1226 0
1225 758 -759 0
-1226 760 763 1095 1227 0
1226 -1227 0
1226 -1095 0
1226 -760 0
1226 -763 0
-1227 769 774 925 1228 0
1227 -1228 0
1227 -925 0
1227 -769 0
1227 -774 0
-1228 776 779 780 1229 0
1228 -1229 0
1228 -780 0
1228 -776 0
1228 -779 0
-1229 782 785 1230 0
-1229 782 785 -786 0
1229 -782 0
1229 -785 0
1229 786 -1230 0
1230 787 790 793 -1231 0
-1230 1231 0
-1230 -793 0
-1230 -787 0
-1230 -790 0
1231 -3883 795 0
1231 795 1232 -1235 0
-1231 -795 0
-1231 3883 1235 0
-1231 3883 -1232 0
1232 -3768 3854 -1233 0
-1232 3768 0
-1232 -3854 0
-1232 1233 0
1233 3864 -1234 0
-1233 -3864 0
-1233 1234 0
1234 -3880 3881 3882 -3884 0
-1234 3884 0
-1234 -3882 0
-1234 3880 0
-1234 -3881 0
1235 937 -940 1291 0
1235 937 -1236 1291 0
-1235 -1291 0
-1235 -937 0
-1235 940 1236 0
-1236 1237 1238 1285 0
-1236 -3805 1238 1285 0
1236 -1285 0
1236 -1238 0
1236 3805 -1237 0
1237 3890 -3891 -942 0
-1237 942 0
-1237 3891 0
-1237 -3890 0
1238 3893 -1239 0
1238 3778 -1239 0
1238 1233 -1239 0
-1238 1239 0
-1238 -3778 -3893 -1233 0
1239 3799 1240 -1243 0
1239 -3799 1242 -1243 0
-1239 1243 0
-1239 3799 -1240 0
-1239 -3799 -1242 0
1240 -3800 3801 262 -1241 0
-1240 1241 0
-1240 -262 0
-1240 3800 0
-1240 -3801 0
1241 -3893 -1233 0
-1241 3893 0
-1241 1233 0
1242 3800 -3801 321 -1241 0
-1242 3801 0
-1242 -321 0
-1242 -3800 0
-1242 1241 0
1243 3804 -1244 0
1243 -3890 -1244 0
1243 1233 -1244 0
-1243 1244 0
-1243 -3804 3890 -1233 0
1244 3880 -3882 1245 -1248 0
-1244 3882 0
-1244 1248 0
-1244 -3880 0
-1244 -1245 0
1245 -3803 3889 -3903 -1246 0
-1245 1246 0
-1245 3803 0
-1245 3903 0
-1245 -3889 0
1246 3864 3880 -1247 0
-1246 1247 0
-1246 -3880 0
-1246 -3864 0
1247 3881 -3882 -3884 0
-1247 3884 0
-1247 3882 0
-1247 -3881 0
-1248 982 1249 0
-1248 262 321 1249 0
1248 -1249 0
1248 -321 -982 0
1248 -262 -982 0
-1249 990 991 993 1250 0
1249 -1250 0
1249 -993 0
1249 -990 0
1249 -991 0
-1250 983 985 988 1251 0
1250 -1251 0
1250 -988 0
1250 -983 0
1250 -985 0
-1251 959 1252 1253 0
-1251 -3805 959 1253 0
1251 -1253 0
1251 -959 0
1251 3805 -1252 0
1252 -3884 3890 -3891 0
-1252 3884 0
-1252 -3890 0
-1252 3891 0
-1253 1118 -1254 1279 0
-1253 1118 1255 1279 0
1253 -1118 0
1253 -1279 0
1253 1254 -1255 0
1254 -3778 -3893 -3909 -1246 0
-1254 1246 0
-1254 3778 0
-1254 3909 0
-1254 3893 0
1255 3909 -1258 0
1255 3799 -1258 0
1255 1256 -1258 0
-1255 1258 0
-1255 -3799 -3909 -1256 0
1256 3800 -3801 321 -1257 0
-1256 3801 0
-1256 -321 0
-1256 -3800 0
-1256 1257 0
1257 -3893 -1246 0
-1257 3893 0
-1257 1246 0
1258 3909 -1260 0
1258 1259 -1260 0
1258 -3799 -1260 0
-1258 1260 0
-1258 3799 -3909 -1259 0
1259 -3800 3801 262 -1257 0
-1259 1257 0
-1259 -262 0
-1259 3800 0
-1259 -3801 0
1260 3804 -1261 0
1260 -3890 -1261 0
1260 1246 -1261 0
-1260 1261 0
-1260 -3804 3890 -1246 0
1261 3809 3884 -1265 0
1261 3884 1262 -1265 0
-1261 1265 0
-1261 -3884 0
-1261 -3809 -1262 0
1262 -3891 3895 325 -1263 0
-1262 1263 0
-1262 3891 0
-1262 -325 0
-1262 -3895 0
1263 3864 3865 3880 -1264 0
-1263 1264 0
-1263 -3880 0
-1263 -3864 0
-1263 -3865 0
1264 3881 -3882 3884 0
-1264 -3881 0
-1264 3882 0
-1264 -3884 0
-1265 1266 1268 1269 1270 0
1265 -1270 0
1265 -1269 0
1265 -1266 0
1265 -1268 0
1266 -291 -1267 0
-1266 291 0
-1266 1267 0
1267 -3778 -3891 0
-1267 3778 0
-1267 3891 0
1268 3891 -972 0
-1268 -3891 0
-1268 972 0
1269 -3809 -3891 3895 -291 0
-1269 291 0
-1269 3809 0
-1269 3891 0
-1269 -3895 0
-1270 1267 1271 1272 0
-1270 288 1271 1272 0
1270 -1272 0
1270 -1271 0
1270 -288 -1267 0
1271 -3809 -3891 3895 -288 0
-1271 288 0
-1271 3809 0
-1271 3891 0
-1271 -3895 0
-1272 1267 1273 0
-1272 321 -325 1273 0
1272 -1273 0
1272 325 -1267 0
1272 -321 -1267 0
-1273 1267 1274 1276 0
-1273 262 1274 1276 0
1273 -1276 0
1273 -1274 0
1273 -262 -1267 0
1274 -3809 3895 325 -1275 0
-1274 1275 0
-1274 3809 0
-1274 -325 0
-1274 -3895 0
1275 -3865 -3891 0
-1275 3865 0
-1275 3891 0
-1276 1277 1278 0
1276 -1277 0
1276 -1278 0
1277 -3809 -3891 3895 -262 0
-1277 262 0
-1277 3809 0
-1277 3891 0
-1277 -3895 0
1278 -3809 -3891 3895 -321 0
-1278 321 0
-1278 3809 0
-1278 3891 0
-1278 -3895 0
-1279 3909 1282 0
-1279 3799 1282 0
-1279 1280 1282 0
1279 -1282 0
1279 -3799 -3909 -1280 0
1280 3800 -3801 321 -1281 0
-1280 3801 0
-1280 -321 0
-1280 -3800 0
-1280 1281 0
1281 -3884 3893 0
-1281 3884 0
-1281 -3893 0
-1282 3909 0
-1282 -3893 1283 0
-1282 982 1283 0
1282 -3909 -1283 0
1282 3893 -3909 -982 0
1283 3799 -3800 3801 -1284 0
-1283 3800 0
-1283 -3801 0
-1283 -3799 0
-1283 1284 0
1284 -3884 3893 262 0
-1284 3884 0
-1284 -262 0
-1284 -3893 0
-1285 3799 1286 1289 0
-1285 -3799 1287 1289 0
1285 -1289 0
1285 3799 -1286 0
1285 -3799 -1287 0
1286 3800 -3801 291 -942 0
-1286 3801 0
-1286 -291 0
-1286 -3800 0
-1286 942 0
1287 3800 -3801 321 -1288 0
-1287 3801 0
-1287 -321 0
-1287 -3800 0
-1287 1288 0
1288 3893 -942 0
-1288 -3893 0
-1288 942 0
-1289 3800 998 0
-1289 -3893 1290 0
-1289 3800 -3893 0
-1289 998 1290 0
1289 -3800 -1290 0
1289 3893 -998 0
1290 3799 3801 262 -1288 0
-1290 1288 0
-1290 -262 0
-1290 -3799 0
-1290 -3801 0
-1291 1233 1292 0
-1291 -3889 1292 0
-1291 3803 1292 0
1291 -1292 0
1291 -3803 3889 -1233 0
1292 -3802 3864 3888 -1234 0
-1292 1234 0
-1292 -3888 0
-1292 3802 0
-1292 -3864 0
-1293 -3798 -1294 0
-1293 3798 1294 0
1293 3798 -1294 0
1293 -3798 1294 0
1294 257 259 -1295 0
1294 257 259 -263 0
-1294 -257 0
-1294 -259 0
-1294 263 1295 0
-1295 3909 1296 0
-1295 1007 1296 0
-1295 3898 1296 0
1295 -1296 0
1295 -3898 -3909 -1007 0
1296 272 274 276 -1297 0
-1296 1297 0
-1296 -276 0
-1296 -272 0
-1296 -274 0
1297 -282 825 0
1297 825 -1298 0
1297 -280 825 0
-1297 -825 0
-1297 280 282 1298 0
-1298 827 828 1299 0
-1298 -287 827 828 0
1298 -828 0
1298 -827 0
1298 287 -1299 0
-1299 289 292 1300 0
-1299 289 292 -294 0
1299 -289 0
1299 -292 0
1299 294 -1300 0
-1300 297 298 834 1301 0
1300 -1301 0
1300 -834 0
1300 -297 0
1300 -298 0
1301 302 -1303 0
1301 302 -1302 0
1301 302 -308 0
-1301 -302 0
-1301 308 1302 1303 0
1302 -3897 -3898 -1015 0
-1302 3897 0
-1302 3898 0
-1302 1015 0
1303 310 311 313 -1304 0
-1303 1304 0
-1303 -313 0
-1303 -310 0
-1303 -311 0
1304 314 -1305 0
1304 314 -319 0
1304 314 -316 0
-1304 -314 0
-1304 316 319 1305 0
1305 320 324 327 -1306 0
-1305 1306 0
-1305 -327 0
-1305 -320 0
-1305 -324 0
1306 329 330 333 -1307 0
-1306 1307 0
-1306 -333 0
-1306 -329 0
-1306 -330 0
1307 335 338 341 -1308 0
-1307 1308 0
-1307 -341 0
-1307 -335 0
-1307 -338 0
1308 342 343 345 -1309 0
-1308 1309 0
-1308 -345 0
-1308 -342 0
-1308 -343 0
1309 347 -349 0
1309 347 351 -1310 0
-1309 -347 0
-1309 349 1310 0
-1309 349 -351 0
-1310 353 355 1311 0
-1310 353 355 -357 0
1310 -353 0
1310 -355 0
1310 357 -1311 0
1311 358 360 363 -1312 0
-1311 1312 0
-1311 -363 0
-1311 -358 0
-1311 -360 0
1312 365 368 372 -1313 0
-1312 1313 0
-1312 -372 0
-1312 -365 0
-1312 -368 0
1313 375 377 379 -1314 0
-1313 1314 0
-1313 -379 0
-1313 -375 0
-1313 -377 0
-1314 380 384 388 1315 0
1314 -1315 0
1314 -388 0
1314 -380 0
1314 -384 0
-1315 391 393 396 1316 0
1315 -1316 0
1315 -396 0
1315 -391 0
1315 -393 0
-1316 397 -399 0
-1316 397 402 1317 0
1316 -397 0
1316 399 -1317 0
1316 399 -402 0
-1317 404 405 1318 0
-1317 404 405 -407 0
1317 -404 0
1317 -405 0
1317 407 -1318 0
1318 411 413 -1319 0
1318 411 413 -416 0
-1318 -411 0
-1318 -413 0
-1318 416 1319 0
-1319 417 418 420 1320 0
1319 -1320 0
1319 -420 0
1319 -417 0
1319 -418 0
-1320 421 -422 0
-1320 421 425 1321 0
1320 -421 0
1320 422 -1321 0
1320 422 -425 0
-1321 427 428 1322 0
-1321 427 428 -430 0
1321 -427 0
1321 -428 0
1321 430 -1322 0
1322 431 434 -1323 0
1322 431 434 -437 0
-1322 -431 0
-1322 -434 0
-1322 437 1323 0
-1323 438 439 441 1324 0
1323 -1324 0
1323 -441 0
1323 -438 0
1323 -439 0
1324 442 -1325 0
1324 442 -447 0
1324 442 -444 0
-1324 -442 0
-1324 444 447 1325 0
1325 448 450 452 -1326 0
-1325 1326 0
-1325 -452 0
-1325 -448 0
-1325 -450 0
1326 454 456 459 -1327 0
-1326 1327 0
-1326 -459 0
-1326 -454 0
-1326 -456 0
1327 461 463 -1328 0
1327 461 463 -466 0
-1327 -461 0
-1327 -463 0
-1327 466 1328 0
-1328 468 1329 0
-1328 468 -473 0
-1328 468 -469 0
1328 -468 0
1328 469 473 -1329 0
-1329 475 -476 0
-1329 475 479 1330 0
1329 -475 0
1329 476 -1330 0
1329 476 -479 0
-1330 481 -482 0
-1330 481 1331 0
-1330 481 -484 0
1330 -481 0
1330 482 484 -1331 0
1331 488 864 -1332 0
1331 488 864 -1179 0
-1331 -488 0
-1331 -864 0
-1331 1179 1332 0
-1332 492 1333 0
-1332 -3898 -3900 1333 0
1332 -1333 0
1332 3900 -492 0
1332 3898 -492 0
-1333 498 499 501 1334 0
1333 -1334 0
1333 -501 0
1333 -498 0
1333 -499 0
-1334 503 -504 0
-1334 503 870 1335 0
1334 -503 0
1334 504 -1335 0
1334 504 -870 0
-1335 510 512 515 1336 0
1335 -1336 0
1335 -515 0
1335 -510 0
1335 -512 0
-1336 517 -518 0
-1336 517 1337 0
-1336 517 -520 0
1336 -517 0
1336 518 520 -1337 0
1337 524 873 -1338 0
1337 524 873 -1186 0
-1337 -524 0
-1337 -873 0
-1337 1186 1338 0
-1338 534 1188 876 1339 0
1338 -1339 0
1338 -876 0
1338 -534 0
1338 -1188 0
-1339 535 -537 0
-1339 535 539 1340 0
1339 -535 0
1339 537 -1340 0
1339 537 -539 0
1340 540 -546 0
1340 540 -1341 0
1340 540 -879 0
-1340 -540 0
-1340 546 879 1341 0
-1341 548 -551 0
-1341 548 553 1342 0
1341 -548 0
1341 551 -1342 0
1341 551 -553 0
1342 554 556 559 -1343 0
-1342 1343 0
-1342 -559 0
-1342 -554 0
-1342 -556 0
1343 561 -564 0
1343 561 -1344 0
1343 561 -565 0
-1343 -561 0
-1343 564 565 1344 0
-1344 566 568 569 1345 0
1344 -1345 0
1344 -569 0
1344 -566 0
1344 -568 0
1345 570 -572 0
1345 570 573 -1346 0
-1345 -570 0
-1345 572 1346 0
-1345 572 -573 0
-1346 576 579 580 1347 0
1346 -1347 0
1346 -580 0
1346 -576 0
1346 -579 0
1347 582 -584 0
1347 582 585 -1348 0
-1347 -582 0
-1347 584 1348 0
-1347 584 -585 0
1348 586 589 590 -1349 0
-1348 1349 0
-1348 -590 0
-1348 -586 0
-1348 -589 0
-1349 592 -594 0
-1349 592 597 1350 0
1349 -592 0
1349 594 -1350 0
1349 594 -597 0
-1350 599 601 602 1351 0
1350 -1351 0
1350 -602 0
1350 -599 0
1350 -601 0
-1351 606 -607 890 0
-1351 606 890 1352 0
1351 -606 0
1351 -890 0
1351 607 -1352 0
1352 609 612 614 -1353 0
-1352 1353 0
-1352 -614 0
-1352 -609 0
-1352 -612 0
1353 617 621 624 -1354 0
-1353 1354 0
-1353 -624 0
-1353 -617 0
-1353 -621 0
-1354 625 627 1355 0
-1354 625 627 -628 0
1354 -625 0
1354 -627 0
1354 628 -1355 0
-1355 630 633 1356 0
-1355 630 633 -634 0
1355 -630 0
1355 -633 0
1355 634 -1356 0
1356 636 638 639 -1357 0
-1356 1357 0
-1356 -639 0
-1356 -636 0
-1356 -638 0
1357 641 643 644 -1358 0
-1357 1358 0
-1357 -644 0
-1357 -641 0
-1357 -643 0
1358 648 651 -1359 0
1358 648 651 -653 0
-1358 -648 0
-1358 -651 0
-1358 653 1359 0
-1359 654 656 657 1360 0
1359 -1360 0
1359 -657 0
1359 -654 0
1359 -656 0
-1360 658 -660 0
-1360 658 662 1361 0
1360 -658 0
1360 660 -1361 0
1360 660 -662 0
-1361 664 -666 0
-1361 664 1362 0
-1361 664 -667 0
1361 -664 0
1361 666 667 -1362 0
1362 671 -675 0
1362 671 -1363 0
1362 671 -904 0
-1362 -671 0
-1362 675 904 1363 0
-1363 679 -681 0
-1363 679 683 1364 0
1363 -679 0
1363 681 -1364 0
1363 681 -683 0
-1364 685 687 1365 0
-1364 685 687 -688 0
1364 -685 0
1364 -687 0
1364 688 -1365 0
1365 689 694 -1366 0
1365 689 694 -697 0
-1365 -689 0
-1365 -694 0
-1365 697 1366 0
-1366 702 703 908 1367 0
1366 -1367 0
1366 -908 0
1366 -702 0
1366 -703 0
1367 705 -708 0
1367 705 -1368 0
1367 705 -710 0
-1367 -705 0
-1367 708 710 1368 0
-1368 711 -713 0
-1368 711 714 1369 0
1368 -711 0
1368 713 -1369 0
1368 713 -714 0
1369 717 -719 0
1369 717 720 -1370 0
-1369 -717 0
-1369 719 1370 0
-1369 719 -720 0
1370 722 725 728 -1371 0
-1370 1371 0
-1370 -728 0
-1370 -722 0
-1370 -725 0
-1371 733 735 914 1372 0
1371 -1372 0
1371 -914 0
1371 -733 0
1371 -735 0
-1372 736 -738 0
-1372 736 740 1373 0
1372 -736 0
1372 738 -1373 0
1372 738 -740 0
-1373 742 744 745 1374 0
1373 -1374 0
1373 -745 0
1373 -742 0
1373 -744 0
-1374 750 919 1375 0
-1374 750 -752 919 0
1374 -750 0
1374 -919 0
1374 752 -1375 0
-1375 753 -758 0
-1375 753 1376 0
-1375 753 -759 0
1375 -753 0
1375 758 759 -1376 0
1376 760 763 766 -1377 0
-1376 1377 0
-1376 -766 0
-1376 -760 0
-1376 -763 0
1377 769 -774 0
1377 769 -1378 0
1377 769 -925 0
-1377 -769 0
-1377 774 925 1378 0
-1378 776 779 1379 0
-1378 776 779 -780 0
1378 -776 0
1378 -779 0
1378 780 -1379 0
-1379 782 785 786 1380 0
1379 -1380 0
1379 -786 0
1379 -782 0
1379 -785 0
-1380 787 793 930 1381 0
1380 -1381 0
1380 -930 0
1380 -787 0
1380 -793 0
1381 795 -797 0
1381 795 799 -1382 0
-1381 -795 0
-1381 797 1382 0
-1381 797 -799 0
-1382 800 -802 0
-1382 800 1383 0
-1382 800 -803 0
1382 -800 0
1382 802 803 -1383 0
1383 805 808 -1384 0
1383 805 808 -810 0
-1383 -805 0
-1383 -808 0
-1383 810 1384 0
-1384 812 814 1106 1385 0
1384 -1385 0
1384 -1106 0
1384 -812 0
1384 -814 0
-1385 818 -820 0
-1385 818 1108 1386 0
1385 -818 0
1385 820 -1386 0
1385 820 -1108 0
1386 3909 -1388 0
1386 1387 -1388 0
1386 -3893 -1388 0
-1386 1388 0
-1386 3893 -3909 -1387 0
1387 -3778 -1109 0
-1387 3778 0
-1387 1109 0
1388 3909 -1391 0
1388 1389 -1391 0
1388 -3799 -1391 0
-1388 1391 0
-1388 3799 -3909 -1389 0
1389 -3800 3801 262 -1390 0
-1389 1390 0
-1389 -262 0
-1389 3800 0
-1389 -3801 0
1390 3893 -1109 0
-1390 -3893 0
-1390 1109 0
1391 3909 -1393 0
1391 1392 -1393 0
1391 3799 -1393 0
-1391 1393 0
-1391 -3799 -3909 -1392 0
1392 3800 -3801 321 -1390 0
-1392 3801 0
-1392 -321 0
-1392 -3800 0
-1392 1390 0
-1393 1387 1394 0
-1393 262 321 1394 0
1393 -1394 0
1393 -321 -1387 0
1393 -262 -1387 0
-1394 -325 1395 0
-1394 1387 1395 0
-1394 -3909 1395 0
1394 -1395 0
1394 3909 325 -1387 0
-1395 3824 1398 0
-1395 1396 1397 1398 0
1395 -1398 0
1395 -3824 -1397 0
1395 -3824 -1396 0
1396 3911 -321 -1109 0
-1396 1109 0
-1396 321 0
-1396 -3911 0
1397 3911 -262 -1109 0
-1397 1109 0
-1397 262 0
-1397 -3911 0
-1398 3911 1403 0
-1398 1399 1401 1403 0
1398 -1403 0
1398 -3911 -1401 0
1398 -3911 -1399 0
1399 -3799 3800 3909 -1400 0
-1399 1400 0
-1399 -3909 0
-1399 3799 0
-1399 -3800 0
1400 -3801 321 -1109 0
-1400 3801 0
-1400 -321 0
-1400 1109 0
1401 -3800 3801 3909 -1402 0
-1401 1402 0
-1401 -3909 0
-1401 3800 0
-1401 -3801 0
1402 3799 262 -1109 0
-1402 1109 0
-1402 -262 0
-1402 -3799 0
-1403 3854 1404 0
-1403 -3768 1404 0
-1403 1109 1404 0
1403 -1404 0
1403 3768 -3854 -1109 0
1404 1405 -1407 0
1404 -3799 -1407 0
1404 3799 1405 -1406 0
-1404 3799 -1405 0
-1404 -3799 1407 0
-1404 1406 1407 0
1405 -3800 -3801 288 -1109 0
-1405 1109 0
-1405 3800 0
-1405 3801 0
-1405 -288 0
1406 3800 -3801 291 -1109 0
-1406 3801 0
-1406 -291 0
-1406 -3800 0
-1406 1109 0
-1407 3891 1409 0
-1407 1408 1409 0
-1407 -3805 1409 0
1407 -1409 0
1407 3805 -3891 -1408 0
1408 3890 -1109 0
-1408 -3890 0
-1408 1109 0
-1409 3909 1410 0
-1409 3893 1410 0
-1409 1387 1410 0
1409 -1410 0
1409 -3893 -3909 -1387 0
-1410 3909 1413 0
-1410 3799 1413 0
-1410 1411 1413 0
1410 -1413 0
1410 -3799 -3909 -1411 0
1411 3800 -3801 321 -1412 0
-1411 3801 0
-1411 -321 0
-1411 -3800 0
-1411 1412 0
1412 -3893 -1109 0
-1412 3893 0
-1412 1109 0
-1413 3909 1415 0
-1413 1414 1415 0
-1413 3800 1415 0
1413 -1415 0
1413 -3800 -3909 -1414 0
1414 3799 3801 262 -1412 0
-1414 1412 0
-1414 -262 0
-1414 -3799 0
-1414 -3801 0
1415 -3884 1408 0
1415 3804 -1416 0
1415 3804 -3884 0
1415 1408 -1416 0
-1415 3884 1416 0
-1415 -3804 -1408 0
1416 3809 -1418 0
1416 -3895 -1418 0
1416 1417 -1418 0
-1416 1418 0
-1416 -3809 3895 -1417 0
1417 3865 -3891 325 -1116 0
-1417 -3865 0
-1417 1116 0
-1417 -325 0
-1417 3891 0
1418 3864 -30 -1278 0
1418 3864 -30 -1419 0
-1418 -3864 0
-1418 30 0
-1418 1278 1419 0
-1419 1420 1274 1277 1421 0
1419 -1421 0
1419 -1277 0
1419 -1420 0
1419 -1274 0
1420 -262 -1267 0
-1420 262 0
-1420 1267 0
-1421 1267 1422 0
-1421 321 -325 1422 0
1421 -1422 0
1421 325 -1267 0
1421 -321 -1267 0
1422 3809 -1424 1425 0
1422 1423 -1424 1425 0
-1422 -1425 0
-1422 1424 0
-1422 -3809 -1423 0
1423 -3891 3895 -288 -1116 0
-1423 1116 0
-1423 3891 0
-1423 288 0
-1423 -3895 0
-1424 291 1268 1269 0
-1424 1267 1268 1269 0
1424 -1269 0
1424 -1268 0
1424 -291 -1267 0
1425 -3778 -3891 -288 -1116 0
-1425 1116 0
-1425 3778 0
-1425 288 0
-1425 3891 0
1426 3784 1427 1577 -1619 0
1426 -3784 -1427 1577 -1619 0
-1426 1619 0
-1426 -3784 1427 0
-1426 -1577 0
-1426 3784 -1427 0
1427 1428 -1442 0
1427 1428 -1438 0
1427 1428 -1435 0
-1427 -1428 0
-1427 1435 1438 1442 0
1428 -3793 3879 -1429 -1434 0
-1428 1434 0
-1428 3793 0
-1428 1429 0
-1428 -3879 0
1429 3866 -1430 -1431 0
-1429 1431 0
-1429 1430 0
-1429 -3866 0
1430 3873 3874 -3875 0
-1430 3875 0
-1430 -3874 0
-1430 -3873 0
1431 3838 -3876 -3877 -1432 0
-1431 -3838 0
-1431 1432 0
-1431 3877 0
-1431 3876 0
1432 -3864 -1433 0
-1432 3864 0
-1432 1433 0
1433 -3870 -3871 3872 0
-1433 3870 0
-1433 3871 0
-1433 -3872 0
1434 -3867 3868 -3869 0
-1434 3867 0
-1434 -3868 0
-1434 3869 0
1435 -3793 3879 -1434 -1436 0
-1435 1436 0
-1435 3793 0
-1435 1434 0
-1435 -3879 0
1436 3866 -1431 -1437 0
-1436 1437 0
-1436 1431 0
-1436 -3866 0
1437 3873 -3874 -3875 0
-1437 3875 0
-1437 3874 0
-1437 -3873 0
1438 -3793 3879 -1434 -1439 0
-1438 1439 0
-1438 3793 0
-1438 1434 0
-1438 -3879 0
1439 3866 -3877 -1437 -1440 0
-1439 -3866 0
-1439 1440 0
-1439 1437 0
-1439 3877 0
1440 3838 3865 -3876 -1441 0
-1440 -3838 0
-1440 1441 0
-1440 3876 0
-1440 -3865 0
1441 3864 -1433 0
-1441 -3864 0
-1441 1433 0
1442 1443 1446 1449 -1452 0
-1442 1452 0
-1442 -1449 0
-1442 -1443 0
-1442 -1446 0
1443 -3793 3879 -66 -1444 0
-1443 1444 0
-1443 3793 0
-1443 66 0
-1443 -3879 0
1444 -3876 -3877 -1432 1445 0
-1444 -1445 0
-1444 3876 0
-1444 1432 0
-1444 3877 0
-1445 3873 3874 3875 0
1445 -3873 0
1445 -3875 0
1445 -3874 0
1446 3863 3866 1445 -1447 0
-1446 -3863 0
-1446 1447 0
-1446 -1445 0
-1446 -3866 0
1447 3752 -3876 -3877 -1448 0
-1447 -3752 0
-1447 1448 0
-1447 3877 0
-1447 3876 0
1448 -3838 -1433 0
-1448 3838 0
-1448 1433 0
1449 3863 3866 1445 -1450 0
-1449 -3863 0
-1449 1450 0
-1449 -1445 0
-1449 -3866 0
1450 -3790 3876 -3877 -1451 0
-1450 1451 0
-1450 3790 0
-1450 3877 0
-1450 -3876 0
1451 3838 -1433 0
-1451 -3838 0
-1451 1433 0
1452 1453 1456 1460 -1462 0
-1452 1462 0
-1452 -1460 0
-1452 -1453 0
-1452 -1456 0
1453 3863 3866 1445 -1454 0
-1453 -3863 0
-1453 1454 0
-1453 -1445 0
-1453 -3866 0
1454 -3791 3877 -1455 0
-1454 3791 0
-1454 -3877 0
-1454 1455 0
1455 3838 -3876 -1433 0
-1455 1433 0
-1455 3876 0
-1455 -3838 0
1456 3787 3863 3866 -1457 0
-1456 1457 0
-1456 -3866 0
-1456 -3787 0
-1456 -3863 0
1457 3788 3789 -1458 0
-1457 1458 0
-1457 -3789 0
-1457 -3788 0
1458 -1445 -1459 0
-1458 1445 0
-1458 1459 0
1459 -3877 -1455 0
-1459 3877 0
-1459 1455 0
1460 3780 3863 -3866 -1461 0
-1460 -3780 0
-1460 1461 0
-1460 3866 0
-1460 -3863 0
1461 1445 -1459 0
-1461 -1445 0
-1461 1459 0
1462 1463 -1464 0
1462 1463 -1471 0
1462 1463 -1467 0
-1462 -1463 0
-1462 1464 1467 1471 0
1463 3777 -3863 3866 -1461 0
-1463 3863 0
-1463 -3866 0
-1463 -3777 0
-1463 1461 0
1464 -3793 3863 3879 -1465 0
-1464 1465 0
-1464 -3879 0
-1464 3793 0
-1464 -3863 0
1465 3866 -1431 -1466 0
-1465 1466 0
-1465 1431 0
-1465 -3866 0
1466 -3873 3874 3875 0
-1466 3873 0
-1466 -3875 0
-1466 -3874 0
1467 -3793 3863 3879 -1468 0
-1467 1468 0
-1467 -3879 0
-1467 3793 0
-1467 -3863 0
1468 3866 -1466 -1469 -1470 0
-1468 -3866 0
-1468 1470 0
-1468 1469 0
-1468 1466 0
1469 -3838 -3876 -3877 -1432 0
-1469 1432 0
-1469 3838 0
-1469 3877 0
-1469 3876 0
1470 -3867 -3868 3869 0
-1470 3867 0
-1470 3868 0
-1470 -3869 0
-1471 1472 1474 1475 1477 0
1471 -1477 0
1471 -1475 0
1471 -1472 0
1471 -1474 0
1472 3778 -3864 -1473 0
-1472 1473 0
-1472 3864 0
-1472 -3778 0
1473 3870 -3871 3872 0
-1473 -3870 0
-1473 3871 0
-1473 -3872 0
1474 -3777 3863 -1473 0
-1474 3777 0
-1474 -3863 0
-1474 1473 0
1475 -3781 -3782 3783 -1476 0
-1475 1476 0
-1475 3781 0
-1475 3782 0
-1475 -3783 0
1476 1470 -1473 0
-1476 -1470 0
-1476 1473 0
-1477 1478 1479 1480 1481 0
1477 -1481 0
1477 -1480 0
1477 -1478 0
1477 -1479 0
1478 -3780 3866 -1473 0
-1478 3780 0
-1478 -3866 0
-1478 1473 0
1479 -3752 3838 -1473 0
-1479 3752 0
-1479 -3838 0
-1479 1473 0
1480 3790 -3876 -1473 0
-1480 1473 0
-1480 3876 0
-1480 -3790 0
-1481 1482 1483 1485 1487 0
1481 -1487 0
1481 -1485 0
1481 -1482 0
1481 -1483 0
1482 3791 -3877 -1473 0
-1482 1473 0
-1482 3877 0
-1482 -3791 0
1483 1437 -1473 -1484 0
-1483 1484 0
-1483 1473 0
-1483 -1437 0
1484 3787 -3788 -3789 0
-1484 3789 0
-1484 3788 0
-1484 -3787 0
1485 -3787 3788 3789 -1486 0
-1485 1486 0
-1485 -3789 0
-1485 3787 0
-1485 -3788 0
1486 1466 -1473 0
-1486 -1466 0
-1486 1473 0
-1487 1488 1491 1493 0
-1487 1488 1491 -1492 0
1487 -1488 0
1487 -1491 0
1487 1492 -1493 0
1488 -1473 1489 -1490 0
-1488 1473 0
-1488 -1489 0
-1488 1490 0
1489 3873 -3874 3875 0
-1489 -3873 0
-1489 3874 0
-1489 -3875 0
1490 3787 -3788 3789 0
-1490 -3787 0
-1490 3788 0
-1490 -3789 0
1491 -3792 3878 -1473 0
-1491 3792 0
-1491 -3878 0
-1491 1473 0
1492 -3793 3879 -1473 0
-1492 3793 0
-1492 -3879 0
-1492 1473 0
1493 -3787 1494 -1496 0
1493 1494 1495 -1496 0
-1493 1496 0
-1493 -1494 0
-1493 3787 -1495 0
1494 -3776 3862 -1473 0
-1494 3776 0
-1494 -3862 0
-1494 1473 0
1495 3788 3789 -1445 -1473 0
-1495 1473 0
-1495 1445 0
-1495 -3788 0
-1495 -3789 0
-1496 1497 1499 1500 1501 0
1496 -1501 0
1496 -1500 0
1496 -1497 0
1496 -1499 0
1497 3778 -3864 -3865 -1498 0
-1497 -3778 0
-1497 1498 0
-1497 3865 0
-1497 3864 0
1498 -3870 3871 3872 0
-1498 3870 0
-1498 -3872 0
-1498 -3871 0
1499 3779 3864 -3865 -1498 0
-1499 -3779 0
-1499 1498 0
-1499 3865 0
-1499 -3864 0
1500 -3777 3863 -1498 0
-1500 3777 0
-1500 -3863 0
-1500 1498 0
-1501 1502 1504 1505 1506 0
1501 -1506 0
1501 -1505 0
1501 -1502 0
1501 -1504 0
1502 -3781 -3782 3783 -1503 0
-1502 1503 0
-1502 3781 0
-1502 3782 0
-1502 -3783 0
1503 1470 -1498 0
-1503 -1470 0
-1503 1498 0
1504 -3780 3866 -1498 0
-1504 3780 0
-1504 -3866 0
-1504 1498 0
1505 -3752 3838 -1498 0
-1505 3752 0
-1505 -3838 0
-1505 1498 0
-1506 1507 1508 1509 1511 0
1506 -1511 0
1506 -1509 0
1506 -1507 0
1506 -1508 0
1507 3790 -3876 -1498 0
-1507 1498 0
-1507 3876 0
-1507 -3790 0
1508 3791 -3877 -1498 0
-1508 1498 0
-1508 3877 0
-1508 -3791 0
1509 1430 -1498 -1510 0
-1509 1510 0
-1509 1498 0
-1509 -1430 0
1510 3787 3788 -3789 0
-1510 3789 0
-1510 -3788 0
-1510 -3787 0
-1511 1512 1514 1516 1517 0
1511 -1517 0
1511 -1516 0
1511 -1512 0
1511 -1514 0
1512 -3787 3788 3789 -1513 0
-1512 1513 0
-1512 -3789 0
-1512 3787 0
-1512 -3788 0
1513 1466 -1498 0
-1513 -1466 0
-1513 1498 0
1514 3787 -3788 3789 -1515 0
-1514 3788 0
-1514 -3789 0
-1514 -3787 0
-1514 1515 0
1515 1489 -1498 0
-1515 -1489 0
-1515 1498 0
1516 -3792 3878 -1498 0
-1516 3792 0
-1516 -3878 0
-1516 1498 0
-1517 1518 1519 1522 0
-1517 1518 1519 -1520 0
1517 -1518 0
1517 -1519 0
1517 1520 -1522 0
1518 -3793 3879 -1498 0
-1518 3793 0
-1518 -3879 0
-1518 1498 0
1519 -3776 3862 -1498 0
-1519 3776 0
-1519 -3862 0
-1519 1498 0
1520 3787 3788 3789 -1521 0
-1520 1521 0
-1520 -3789 0
-1520 -3787 0
-1520 -3788 0
1521 -1445 -1498 0
-1521 1445 0
-1521 1498 0
-1522 1523 1526 1527 1528 0
1522 -1528 0
1522 -1527 0
1522 -1523 0
1522 -1526 0
1523 -3777 3863 -1524 0
-1523 3777 0
-1523 -3863 0
-1523 1524 0
1524 3870 -1525 0
-1524 -3870 0
-1524 1525 0
1525 3871 -3872 0
-1525 -3871 0
-1525 3872 0
1526 -3780 3866 -1524 0
-1526 3780 0
-1526 -3866 0
-1526 1524 0
1527 -3752 3838 -1524 0
-1527 3752 0
-1527 -3838 0
-1527 1524 0
-1528 1529 1530 1531 1533 0
1528 -1533 0
1528 -1531 0
1528 -1529 0
1528 -1530 0
1529 3790 -3876 -1524 0
-1529 1524 0
-1529 3876 0
-1529 -3790 0
1530 3791 -3877 -1524 0
-1530 1524 0
-1530 3877 0
-1530 -3791 0
1531 -1524 1445 -1532 0
-1531 1524 0
-1531 -1445 0
-1531 1532 0
-1532 3787 3788 3789 0
1532 -3787 0
1532 -3789 0
1532 -3788 0
-1533 1534 1537 0
-1533 1534 -1536 0
-1533 1534 -1535 0
1533 -1534 0
1533 1535 1536 -1537 0
1534 -3792 3878 -1524 0
-1534 3792 0
-1534 -3878 0
-1534 1524 0
1535 -3793 3879 -1524 0
-1535 3793 0
-1535 -3879 0
-1535 1524 0
1536 -3776 3862 -1524 0
-1536 3776 0
-1536 -3862 0
-1536 1524 0
-1537 1538 1539 1541 1542 0
1537 -1542 0
1537 -1541 0
1537 -1538 0
1537 -1539 0
1538 3778 -3864 94 0
-1538 -94 0
-1538 3864 0
-1538 -3778 0
1539 -66 94 1540 0
1539 -3747 -66 94 0
-1539 -94 0
-1539 66 0
-1539 3747 -1540 0
1540 3748 3749 -3750 -3751 0
-1540 -3748 0
-1540 3751 0
-1540 3750 0
-1540 -3749 0
1541 -3780 3866 94 0
-1541 3780 0
-1541 -3866 0
-1541 -94 0
-1542 1543 1544 1545 1546 0
1542 -1546 0
1542 -1545 0
1542 -1543 0
1542 -1544 0
1543 -3752 3838 94 0
-1543 3752 0
-1543 -3838 0
-1543 -94 0
1544 3790 -3876 94 0
-1544 -94 0
-1544 3876 0
-1544 -3790 0
1545 3791 -3877 94 0
-1545 -94 0
-1545 3877 0
-1545 -3791 0
-1546 1547 1548 1549 1550 0
1546 -1550 0
1546 -1549 0
1546 -1547 0
1546 -1548 0
1547 94 1445 -1532 0
-1547 -94 0
-1547 -1445 0
-1547 1532 0
1548 -3792 3878 94 0
-1548 3792 0
-1548 -3878 0
-1548 -94 0
1549 -3776 3862 94 0
-1549 3776 0
-1549 -3862 0
-1549 -94 0
-1550 1551 1553 1554 1555 0
1550 -1555 0
1550 -1554 0
1550 -1551 0
1550 -1553 0
1551 -3777 3863 -1552 0
-1551 3777 0
-1551 -3863 0
-1551 1552 0
1552 3870 -3871 -3872 0
-1552 3872 0
-1552 3871 0
-1552 -3870 0
1553 -3780 3866 -1552 0
-1553 3780 0
-1553 -3866 0
-1553 1552 0
1554 -3752 3838 -1552 0
-1554 3752 0
-1554 -3838 0
-1554 1552 0
-1555 1556 1557 1558 1559 0
1555 -1559 0
1555 -1558 0
1555 -1556 0
1555 -1557 0
1556 3790 -3876 -1552 0
-1556 1552 0
-1556 3876 0
-1556 -3790 0
1557 3791 -3877 -1552 0
-1557 1552 0
-1557 3877 0
-1557 -3791 0
1558 -1552 1445 -1532 0
-1558 1552 0
-1558 -1445 0
-1558 1532 0
1559 1560 1561 1562 -1563 0
-1559 1563 0
-1559 -1562 0
-1559 -1560 0
-1559 -1561 0
1560 -3793 3879 -1552 0
-1560 3793 0
-1560 -3879 0
-1560 1552 0
1561 -3776 3862 -1552 0
-1561 3776 0
-1561 -3862 0
-1561 1552 0
1562 -3792 3878 -1552 0
-1562 3792 0
-1562 -3878 0
-1562 1552 0
1563 -3787 -3870 0
1563 -3870 1564 0
1563 -3788 -3870 0
-1563 3870 0
-1563 3787 3788 -1564 0
1564 3789 -1565 -1445 1566 0
-1564 1565 0
-1564 1445 0
-1564 -3789 0
-1564 -1566 0
1565 -3870 -1525 0
-1565 3870 0
-1565 1525 0
-1566 3792 1567 0
-1566 -3878 1567 0
-1566 1525 1567 0
1566 -1567 0
1566 -3792 3878 -1525 0
-1567 3788 1569 0
-1567 1568 1569 0
-1567 -3787 1569 0
1567 -1569 0
1567 3787 -3788 -1568 0
1568 3789 -1525 1489 0
-1568 -3789 0
-1568 1525 0
-1568 -1489 0
-1569 -3787 1572 0
-1569 1570 1571 1572 0
1569 -1572 0
1569 3787 -1570 0
1569 3787 -1571 0
1570 -3788 -3789 -1525 1437 0
-1570 1525 0
-1570 -1437 0
-1570 3788 0
-1570 3789 0
1571 3788 -3789 -1525 1430 0
-1571 -3788 0
-1571 -1430 0
-1571 1525 0
-1571 3789 0
-1572 3877 1573 0
-1572 1525 1573 0
-1572 -3791 1573 0
1572 -1573 0
1572 3791 -3877 -1525 0
-1573 3876 1574 0
-1573 1525 1574 0
-1573 -3790 1574 0
1573 -1574 0
1573 3790 -3876 -1525 0
-1574 3752 1575 0
-1574 -3838 1575 0
-1574 1525 1575 0
1574 -1575 0
1574 -3752 3838 -1525 0
-1575 1525 1576 0
-1575 -3863 1576 0
-1575 3777 1576 0
1575 -1576 0
1575 -3777 3863 -1525 0
1576 -3780 3866 -1525 0
-1576 3780 0
-1576 -3866 0
-1576 1525 0
-1577 3785 1578 0
-1577 -3785 -1578 0
1577 -3785 1578 0
1577 3785 -1578 0
-1578 1428 -1435 0
-1578 1428 1579 0
-1578 1428 -1438 0
1578 -1428 0
1578 1435 1438 -1579 0
1579 1443 -1446 0
1579 1443 -1580 0
1579 1443 -1449 0
-1579 -1443 0
-1579 1446 1449 1580 0
-1580 1453 1460 1581 1583 0
1580 -1583 0
1580 -1581 0
1580 -1453 0
1580 -1460 0
1581 3863 3866 -1458 1582 0
-1581 -3863 0
-1581 -1582 0
-1581 1458 0
-1581 -3866 0
-1582 3787 3788 3789 0
1582 -3787 0
1582 -3789 0
1582 -3788 0
-1583 1463 1584 0
-1583 1463 -1467 0
-1583 1463 -1464 0
1583 -1463 0
1583 1464 1467 -1584 0
-1584 1472 1474 1475 1585 0
1584 -1585 0
1584 -1475 0
1584 -1472 0
1584 -1474 0
-1585 1478 1479 1480 1586 0
1585 -1586 0
1585 -1480 0
1585 -1478 0
1585 -1479 0
-1586 1482 1483 1485 1587 0
1586 -1587 0
1586 -1485 0
1586 -1482 0
1586 -1483 0
-1587 1488 1491 1492 1588 0
1587 -1588 0
1587 -1492 0
1587 -1488 0
1587 -1491 0
-1588 1494 1497 1589 1591 0
1588 -1591 0
1588 -1589 0
1588 -1494 0
1588 -1497 0
1589 3787 3788 3789 -1590 0
-1589 1590 0
-1589 -3789 0
-1589 -3787 0
-1589 -3788 0
1590 -1445 -1473 0
-1590 1445 0
-1590 1473 0
-1591 1499 1500 1502 1592 0
1591 -1592 0
1591 -1502 0
1591 -1499 0
1591 -1500 0
-1592 1504 1505 1507 1593 0
1592 -1593 0
1592 -1507 0
1592 -1504 0
1592 -1505 0
-1593 1508 1509 1512 1594 0
1593 -1594 0
1593 -1512 0
1593 -1508 0
1593 -1509 0
-1594 1514 1516 1595 0
-1594 1514 1516 -1518 0
1594 -1514 0
1594 -1516 0
1594 1518 -1595 0
1595 1519 -1523 0
1595 1519 -1597 0
1595 1519 -1596 0
-1595 -1519 0
-1595 1523 1596 1597 0
1596 3787 3788 3789 -1521 0
-1596 1521 0
-1596 -3789 0
-1596 -3787 0
-1596 -3788 0
-1597 1526 1527 1529 1598 0
1597 -1598 0
1597 -1529 0
1597 -1526 0
1597 -1527 0
-1598 1530 1531 1534 1599 0
1598 -1599 0
1598 -1534 0
1598 -1530 0
1598 -1531 0
-1599 1535 1536 1538 1600 0
1599 -1600 0
1599 -1538 0
1599 -1535 0
1599 -1536 0
-1600 1539 1541 1543 1601 0
1600 -1601 0
1600 -1543 0
1600 -1539 0
1600 -1541 0
-1601 1544 1545 1547 1602 0
1601 -1602 0
1601 -1547 0
1601 -1544 0
1601 -1545 0
-1602 1548 1549 1551 1603 0
1602 -1603 0
1602 -1551 0
1602 -1548 0
1602 -1549 0
-1603 1553 1554 1556 1604 0
1603 -1604 0
1603 -1556 0
1603 -1553 0
1603 -1554 0
-1604 1557 1558 1605 0
-1604 1557 1558 -1560 0
1604 -1557 0
1604 -1558 0
1604 1560 -1605 0
-1605 1561 1562 1606 1607 0
1605 -1607 0
1605 -1606 0
1605 -1561 0
1605 -1562 0
1606 -3777 3863 -1565 0
-1606 3777 0
-1606 -3863 0
-1606 1565 0
-1607 3780 1608 0
-1607 -3866 1608 0
-1607 1565 1608 0
1607 -1608 0
1607 -3780 3866 -1565 0
-1608 3752 1609 0
-1608 -3838 1609 0
-1608 1565 1609 0
1608 -1609 0
1608 -3752 3838 -1565 0
-1609 3876 1610 0
-1609 1565 1610 0
-1609 -3790 1610 0
1609 -1610 0
1609 3790 -3876 -1565 0
-1610 3877 1611 0
-1610 1565 1611 0
-1610 -3791 1611 0
1610 -1611 0
1610 3791 -3877 -1565 0
-1611 1612 1613 0
-1611 -3788 1613 0
-1611 -3787 1613 0
1611 -1613 0
1611 3787 3788 -1612 0
1612 -3789 -1565 1430 0
-1612 3789 0
-1612 1565 0
-1612 -1430 0
-1613 -3787 1616 0
-1613 1614 1615 1616 0
1613 -1616 0
1613 3787 -1614 0
1613 3787 -1615 0
1614 -3788 -3789 -1565 1437 0
-1614 1565 0
-1614 -1437 0
-1614 3788 0
-1614 3789 0
1615 -3788 3789 -1565 1489 0
-1615 1565 0
-1615 -1489 0
-1615 3788 0
-1615 -3789 0
-1616 3792 1617 0
-1616 -3878 1617 0
-1616 1565 1617 0
1616 -1617 0
1616 -3792 3878 -1565 0
-1617 -3789 3871 0
-1617 3871 1618 0
-1617 -3788 3871 0
1617 -3871 0
1617 3788 3789 -1618 0
1618 3787 -1565 -1445 0
-1618 -3787 0
-1618 1565 0
-1618 1445 0
1619 3747 1620 1670 -2255 0
1619 -3747 1620 -1670 -2255 0
-1619 2255 0
-1619 -3747 1670 0
-1619 -1620 0
-1619 3747 -1670 0
-1620 -3786 -1621 0
-1620 3786 1621 0
1620 3786 -1621 0
1620 -3786 1621 0
1621 1428 1435 1438 -1622 0
-1621 1622 0
-1621 -1438 0
-1621 -1428 0
-1621 -1435 0
1622 1443 -1446 0
1622 1443 -1623 0
1622 1443 -1449 0
-1622 -1443 0
-1622 1446 1449 1623 0
-1623 1453 1460 1581 1624 0
1623 -1624 0
1623 -1581 0
1623 -1453 0
1623 -1460 0
-1624 1463 1464 1467 1625 0
1624 -1625 0
1624 -1467 0
1624 -1463 0
1624 -1464 0
1625 1472 1474 -1626 0
-1625 1626 0
-1625 -1474 0
-1625 -1472 0
1626 1476 1478 -1628 0
1626 1478 1627 -1628 0
-1626 1628 0
-1626 -1478 0
-1626 -1476 -1627 0
1627 -3781 -3782 3783 0
-1627 3781 0
-1627 3782 0
-1627 -3783 0
1628 1479 1480 1482 -1629 0
-1628 1629 0
-1628 -1482 0
-1628 -1479 0
-1628 -1480 0
1629 1483 1486 -1631 0
1629 1483 1630 -1631 0
-1629 -1483 0
-1629 1631 0
-1629 -1486 -1630 0
1630 -3787 3788 3789 0
-1630 3787 0
-1630 -3789 0
-1630 -3788 0
1631 1488 1491 1492 -1632 0
-1631 1632 0
-1631 -1492 0
-1631 -1488 0
-1631 -1491 0
1632 1494 -1589 0
1632 1494 1497 -1633 0
-1632 -1494 0
-1632 -1497 1589 0
-1632 1589 1633 0
1633 1499 1500 1634 -1635 0
-1633 1635 0
-1633 -1634 0
-1633 -1499 0
-1633 -1500 0
1634 -3781 -3782 3783 -1503 0
-1634 1503 0
-1634 3781 0
-1634 3782 0
-1634 -3783 0
1635 1504 1505 1507 -1636 0
-1635 1636 0
-1635 -1507 0
-1635 -1504 0
-1635 -1505 0
1636 1508 1509 -1637 0
-1636 1637 0
-1636 -1509 0
-1636 -1508 0
1637 3787 1514 -1639 0
1637 1514 1638 -1639 0
-1637 1639 0
-1637 -1514 0
-1637 -3787 -1638 0
1638 3788 3789 1466 -1498 0
-1638 1498 0
-1638 -1466 0
-1638 -3788 0
-1638 -3789 0
1639 1516 1518 1519 -1640 0
-1639 1640 0
-1639 -1519 0
-1639 -1516 0
-1639 -1518 0
-1640 -1526 1596 0
-1640 1596 1641 0
-1640 -1523 1596 0
1640 -1596 0
1640 1523 1526 -1641 0
1641 1527 1529 1530 -1642 0
-1641 1642 0
-1641 -1530 0
-1641 -1527 0
-1641 -1529 0
1642 -3872 1531 1534 1643 0
-1642 -1643 0
-1642 -1534 0
-1642 3872 0
-1642 -1531 0
1643 3776 -1645 0
1643 -3862 -1645 0
1643 -1644 -1645 0
-1643 1645 0
-1643 -3776 3862 1644 0
-1644 3870 3871 0
1644 -3870 0
1644 -3871 0
1645 -1644 -1646 0
1645 -3879 -1646 0
1645 3793 -1646 0
-1645 1646 0
-1645 -3793 3879 1644 0
-1646 1538 1539 1541 1647 0
1646 -1647 0
1646 -1541 0
1646 -1538 0
1646 -1539 0
-1647 1543 1544 1545 1648 0
1647 -1648 0
1647 -1545 0
1647 -1543 0
1647 -1544 0
-1648 1547 1548 1549 1649 0
1648 -1649 0
1648 -1549 0
1648 -1547 0
1648 -1548 0
1649 -3872 -1650 0
1649 -3872 -1665 0
1649 -3872 -1652 0
-1649 3872 0
-1649 1650 1652 1665 0
1650 1445 -1532 -1651 0
-1650 -1445 0
-1650 1532 0
-1650 1651 0
1651 3870 -3871 0
-1651 -3870 0
-1651 3871 0
1652 3793 -1653 0
1652 -3879 -1653 0
1652 1651 -1653 0
-1652 1653 0
-1652 -3793 3879 -1651 0
1653 3776 -1654 0
1653 -3862 -1654 0
1653 1651 -1654 0
-1653 1654 0
-1653 -3776 3862 -1651 0
1654 3792 -1655 0
1654 -3878 -1655 0
1654 1651 -1655 0
-1654 1655 0
-1654 -3792 3878 -1651 0
1655 -3870 3871 -1656 0
1655 -3870 3871 -1657 0
-1655 3870 0
-1655 -3871 0
-1655 1656 1657 0
1656 1489 -1490 0
-1656 -1489 0
-1656 1490 0
-1657 1484 1658 1659 0
-1657 -1437 1658 1659 0
1657 -1659 0
1657 -1658 0
1657 1437 -1484 0
1658 -3792 3878 0
-1658 3792 0
-1658 -3878 0
-1659 1510 1660 1661 0
-1659 -1430 1660 1661 0
1659 -1661 0
1659 -1660 0
1659 1430 -1510 0
1660 3791 -3877 0
-1660 -3791 0
-1660 3877 0
-1661 3752 1662 1663 0
-1661 -3838 1662 1663 0
1661 -1663 0
1661 -1662 0
1661 -3752 3838 0
1662 3790 -3876 0
-1662 -3790 0
-1662 3876 0
-1663 -3863 1664 0
-1663 3777 1664 0
1663 -1664 0
1663 -3777 3863 0
1664 -3780 3866 0
-1664 3780 0
-1664 -3866 0
-1665 3877 1666 0
-1665 1651 1666 0
-1665 -3791 1666 0
1665 -1666 0
1665 3791 -3877 -1651 0
-1666 3876 1667 0
-1666 1651 1667 0
-1666 -3790 1667 0
1666 -1667 0
1666 3790 -3876 -1651 0
-1667 3752 1668 0
-1667 -3838 1668 0
-1667 1651 1668 0
1667 -1668 0
1667 -3752 3838 -1651 0
-1668 1651 1669 0
-1668 -3863 1669 0
-1668 3777 1669 0
1668 -1669 0
1668 -3777 3863 -1651 0
1669 -3780 3866 -1651 0
-1669 3780 0
-1669 -3866 0
-1669 1651 0
1670 1671 1674 1676 -1677 0
-1670 1677 0
-1670 -1676 0
-1670 -1671 0
-1670 -1674 0
1671 3863 -1672 0
-1671 -3863 0
-1671 1672 0
1672 -3778 3864 -1673 0
-1672 3778 0
-1672 -3864 0
-1672 1673 0
1673 -3828 -62 0
-1673 3828 0
-1673 62 0
1674 3780 3863 -3866 -1675 0
-1674 -3780 0
-1674 1675 0
-1674 3866 0
-1674 -3863 0
1675 -3864 -1673 0
-1675 3864 0
-1675 1673 0
1676 3777 -3863 -1675 0
-1676 1675 0
-1676 3863 0
-1676 -3777 0
1677 1678 1679 1681 -1682 0
-1677 1682 0
-1677 -1681 0
-1677 -1678 0
-1677 -1679 0
1678 -3759 3845 3863 -1675 0
-1678 1675 0
-1678 -3863 0
-1678 3759 0
-1678 -3845 0
1679 3863 -1680 0
-1679 -3863 0
-1679 1680 0
1680 -3760 3846 -1675 0
-1680 3760 0
-1680 -3846 0
-1680 1675 0
1681 -3761 3847 3863 -1675 0
-1681 1675 0
-1681 -3863 0
-1681 3761 0
-1681 -3847 0
1682 1683 1684 1686 -1688 0
-1682 1688 0
-1682 -1686 0
-1682 -1683 0
-1682 -1684 0
1683 -3762 3848 3863 -1675 0
-1683 1675 0
-1683 -3863 0
-1683 3762 0
-1683 -3848 0
1684 3863 -1685 0
-1684 -3863 0
-1684 1685 0
1685 -3763 3849 -1675 0
-1685 3763 0
-1685 -3849 0
-1685 1675 0
1686 3863 -1687 0
-1686 -3863 0
-1686 1687 0
1687 -3758 3844 -1675 0
-1687 3758 0
-1687 -3844 0
-1687 1675 0
-1688 1689 1690 1693 1696 0
1688 -1696 0
1688 -1693 0
1688 -1689 0
1688 -1690 0
1689 -3863 -1672 0
-1689 3863 0
-1689 1672 0
1690 -1675 -1691 1692 0
-1690 1675 0
-1690 1691 0
-1690 -1692 0
-1691 3867 3868 3869 0
1691 -3867 0
1691 -3869 0
1691 -3868 0
-1692 3781 3782 3783 0
1692 -3781 0
1692 -3783 0
1692 -3782 0
1693 -1694 -1675 1695 0
-1693 1694 0
-1693 1675 0
-1693 -1695 0
1694 3781 3782 -3783 0
-1694 3783 0
-1694 -3782 0
-1694 -3781 0
1695 3867 3868 -3869 0
-1695 3869 0
-1695 -3868 0
-1695 -3867 0
-1696 1697 1700 1703 1705 0
1696 -1705 0
1696 -1703 0
1696 -1697 0
1696 -1700 0
1697 -1675 1698 -1699 0
-1697 1675 0
-1697 -1698 0
-1697 1699 0
1698 3867 -3868 3869 0
-1698 -3867 0
-1698 3868 0
-1698 -3869 0
1699 3781 -3782 3783 0
-1699 -3781 0
-1699 3782 0
-1699 -3783 0
1700 -1675 1701 -1702 0
-1700 1675 0
-1700 -1701 0
-1700 1702 0
1701 3867 -3868 -3869 0
-1701 3869 0
-1701 3868 0
-1701 -3867 0
1702 3781 -3782 -3783 0
-1702 3783 0
-1702 3782 0
-1702 -3781 0
1703 -179 -1675 1704 0
-1703 179 0
-1703 1675 0
-1703 -1704 0
1704 -3867 3868 3869 0
-1704 3867 0
-1704 -3869 0
-1704 -3868 0
-1705 1706 1707 1708 1709 0
1705 -1709 0
1705 -1708 0
1705 -1706 0
1705 -1707 0
1706 3753 -3839 -3863 -1675 0
-1706 -3753 0
-1706 1675 0
-1706 3863 0
-1706 3839 0
1707 -3863 -1680 0
-1707 3863 0
-1707 1680 0
1708 -3863 -1685 0
-1708 3863 0
-1708 1685 0
-1709 1710 1711 1713 1715 0
1709 -1715 0
1709 -1713 0
1709 -1710 0
1709 -1711 0
1710 -3863 -1687 0
-1710 3863 0
-1710 1687 0
1711 -3853 3860 -3863 -1712 0
-1711 1712 0
-1711 3853 0
-1711 3863 0
-1711 -3860 0
1712 -3765 3851 -1675 0
-1712 3765 0
-1712 -3851 0
-1712 1675 0
1713 -3767 3860 -3863 -1714 0
-1713 1714 0
-1713 3767 0
-1713 3863 0
-1713 -3860 0
1714 -3851 3853 -1675 0
-1714 3851 0
-1714 -3853 0
-1714 1675 0
-1715 1716 1717 1720 0
1715 -1716 0
1715 -1720 0
1715 -1717 0
1716 -3764 -3845 3850 -1673 0
-1716 1673 0
-1716 3764 0
-1716 3845 0
-1716 -3850 0
1717 -3845 -3866 -118 1718 0
-1717 118 0
-1717 -1718 0
-1717 3845 0
-1717 3866 0
1718 3833 -3834 -3835 -1719 0
-1718 -3833 0
-1718 1719 0
-1718 3835 0
-1718 3834 0
1719 3836 -3837 0
-1719 -3836 0
-1719 3837 0
1720 1721 1722 1726 -1729 0
-1720 1729 0
-1720 -1726 0
-1720 -1721 0
-1720 -1722 0
1721 -3845 3866 -118 1718 0
-1721 118 0
-1721 -1718 0
-1721 3845 0
-1721 -3866 0
1722 3828 -3829 -3830 -1723 0
-1722 -3828 0
-1722 1723 0
-1722 3830 0
-1722 3829 0
1723 3831 -3832 1718 -1724 0
-1723 3832 0
-1723 -1718 0
-1723 -3831 0
-1723 1724 0
1724 3839 -1725 0
-1724 -3839 0
-1724 1725 0
1725 3866 -118 0
-1725 -3866 0
-1725 118 0
1726 3828 -3829 -3830 -1727 0
-1726 -3828 0
-1726 1727 0
-1726 3830 0
-1726 3829 0
1727 3831 -3832 1718 -1728 0
-1727 3832 0
-1727 -1718 0
-1727 -3831 0
-1727 1728 0
1728 -3839 3845 -3866 -118 0
-1728 118 0
-1728 3839 0
-1728 3866 0
-1728 -3845 0
1729 1730 -1733 0
1729 1730 -1741 0
1729 1730 -1737 0
-1729 -1730 0
-1729 1733 1737 1741 0
1730 3828 -3829 -3830 -1731 0
-1730 -3828 0
-1730 1731 0
-1730 3830 0
-1730 3829 0
1731 3831 -3832 1718 -1732 0
-1731 3832 0
-1731 -1718 0
-1731 -3831 0
-1731 1732 0
1732 -3839 3845 -1725 0
-1732 3839 0
-1732 -3845 0
-1732 1725 0
1733 3853 -1695 -1734 1735 0
-1733 -3853 0
-1733 -1735 0
-1733 1734 0
-1733 1695 0
1734 -3828 -67 0
-1734 3828 0
-1734 67 0
1735 -3833 3834 3835 -1736 0
-1735 1736 0
-1735 -3835 0
-1735 3833 0
-1735 -3834 0
1736 -3836 -3837 0
-1736 3836 0
-1736 3837 0
1737 -3828 3829 3830 -1738 0
-1737 1738 0
-1737 -3830 0
-1737 3828 0
-1737 -3829 0
1738 -3831 -3832 1735 -1739 0
-1738 1739 0
-1738 3831 0
-1738 3832 0
-1738 -1735 0
1739 -1695 -1740 0
-1739 1695 0
-1739 1740 0
1740 -3851 -1734 0
-1740 3851 0
-1740 1734 0
-1741 1742 1745 1748 1751 0
1741 -1751 0
1741 -1748 0
1741 -1742 0
1741 -1745 0
1742 -3828 3829 3830 -1743 0
-1742 1743 0
-1742 -3830 0
-1742 3828 0
-1742 -3829 0
1743 -3831 -3832 1735 -1744 0
-1743 1744 0
-1743 3831 0
-1743 3832 0
-1743 -1735 0
1744 3853 -1704 -1734 0
-1744 1734 0
-1744 1704 0
-1744 -3853 0
1745 -3828 3829 3830 -1746 0
-1745 1746 0
-1745 -3830 0
-1745 3828 0
-1745 -3829 0
1746 -3831 -3832 1735 -1747 0
-1746 1747 0
-1746 3831 0
-1746 3832 0
-1746 -1735 0
1747 -1704 -1740 0
-1747 1704 0
-1747 1740 0
1748 -3828 3829 3830 -1749 0
-1748 1749 0
-1748 -3830 0
-1748 3828 0
-1748 -3829 0
1749 -3831 -3832 1735 -1750 0
-1749 1750 0
-1749 3831 0
-1749 3832 0
-1749 -1735 0
1750 -3843 -1698 -1734 0
-1750 3843 0
-1750 1698 0
-1750 1734 0
-1751 1752 1755 1763 0
-1751 1752 1755 -1759 0
1751 -1752 0
1751 -1755 0
1751 1759 -1763 0
1752 -3828 3829 3830 -1753 0
-1752 1753 0
-1752 -3830 0
-1752 3828 0
-1752 -3829 0
1753 -3831 -3832 1735 -1754 0
-1753 1754 0
-1753 3831 0
-1753 3832 0
-1753 -1735 0
1754 -3848 1701 -1734 0
-1754 3848 0
-1754 -1701 0
-1754 1734 0
1755 -3828 3829 3830 -1756 0
-1755 1756 0
-1755 -3830 0
-1755 3828 0
-1755 -3829 0
1756 -3831 -3832 1735 -1757 0
-1756 1757 0
-1756 3831 0
-1756 3832 0
-1756 -1735 0
1757 -3845 -3858 -1758 0
-1757 3845 0
-1757 3858 0
-1757 1758 0
1758 3850 -1734 0
-1758 -3850 0
-1758 1734 0
1759 -1734 -1760 0
-1759 1734 0
-1759 1760 0
1760 3843 1735 -1761 0
-1760 1761 0
-1760 -1735 0
-1760 -3843 0
1761 -3839 -1701 -1762 0
-1761 3839 0
-1761 1701 0
-1761 1762 0
1762 -3850 -1734 0
-1762 3850 0
-1762 1734 0
1763 1764 1769 1773 -1776 0
-1763 1776 0
-1763 -1773 0
-1763 -1764 0
-1763 -1769 0
1764 -3828 3829 3830 -1765 0
-1764 1765 0
-1764 -3830 0
-1764 3828 0
-1764 -3829 0
1765 -3831 -3832 1735 -1766 0
-1765 1766 0
-1765 3831 0
-1765 3832 0
-1765 -1735 0
1766 3843 -1767 0
-1766 -3843 0
-1766 1767 0
1767 -3839 -1704 -1768 0
-1767 3839 0
-1767 1704 0
-1767 1768 0
1768 -3851 -3853 -1762 0
-1768 3851 0
-1768 3853 0
-1768 1762 0
1769 -3828 3829 3830 -1770 0
-1769 1770 0
-1769 -3830 0
-1769 3828 0
-1769 -3829 0
1770 -3831 -3832 1735 -1771 0
-1770 1771 0
-1770 3831 0
-1770 3832 0
-1770 -1735 0
1771 -3839 3843 -1772 0
-1771 3839 0
-1771 -3843 0
-1771 1772 0
1772 3851 1691 -1734 0
-1772 1734 0
-1772 -1691 0
-1772 -3851 0
1773 -3828 3829 3830 -1774 0
-1773 1774 0
-1773 -3830 0
-1773 3828 0
-1773 -3829 0
1774 -3831 -3832 1735 -1775 0
-1774 1775 0
-1774 3831 0
-1774 3832 0
-1774 -1735 0
1775 -3839 3843 1691 -1740 0
-1775 1740 0
-1775 3839 0
-1775 -1691 0
-1775 -3843 0
1776 1777 1781 1784 -1787 0
-1776 1787 0
-1776 -1784 0
-1776 -1777 0
-1776 -1781 0
1777 -3828 3829 3830 -1778 0
-1777 1778 0
-1777 -3830 0
-1777 3828 0
-1777 -3829 0
1778 -3831 -3832 1735 -1779 0
-1778 1779 0
-1778 3831 0
-1778 3832 0
-1778 -1735 0
1779 -3839 3843 -1780 0
-1779 3839 0
-1779 -3843 0
-1779 1780 0
1780 -3853 -1695 -1740 0
-1780 3853 0
-1780 1695 0
-1780 1740 0
1781 -3828 3829 3830 -1782 0
-1781 1782 0
-1781 -3830 0
-1781 3828 0
-1781 -3829 0
1782 -3831 -3832 1735 -1783 0
-1782 1783 0
-1782 3831 0
-1782 3832 0
-1782 -1735 0
1783 -3839 3843 -1698 -1734 0
-1783 1734 0
-1783 3839 0
-1783 1698 0
-1783 -3843 0
1784 -3828 3829 3830 -1785 0
-1784 1785 0
-1784 -3830 0
-1784 3828 0
-1784 -3829 0
1785 -3831 -3832 1735 -1786 0
-1785 1786 0
-1785 3831 0
-1785 3832 0
-1785 -1735 0
1786 -3839 3843 -1701 -1758 0
-1786 1758 0
-1786 3839 0
-1786 1701 0
-1786 -3843 0
1787 1788 1792 1795 -1798 0
-1787 1798 0
-1787 -1795 0
-1787 -1788 0
-1787 -1792 0
1788 -3828 3829 3830 -1789 0
-1788 1789 0
-1788 -3830 0
-1788 3828 0
-1788 -3829 0
1789 -3831 -3832 1735 -1790 0
-1789 1790 0
-1789 3831 0
-1789 3832 0
-1789 -1735 0
1790 -3839 3843 -1704 -1791 0
-1790 1791 0
-1790 3839 0
-1790 1704 0
-1790 -3843 0
1791 -3851 -3853 -1758 0
-1791 3851 0
-1791 3853 0
-1791 1758 0
1792 -3828 3829 3830 -1793 0
-1792 1793 0
-1792 -3830 0
-1792 3828 0
-1792 -3829 0
1793 -3831 -3832 1735 -1794 0
-1793 1794 0
-1793 3831 0
-1793 3832 0
-1793 -1735 0
1794 -3846 -1734 0
-1794 3846 0
-1794 1734 0
1795 -3828 3829 3830 -1796 0
-1795 1796 0
-1795 -3830 0
-1795 3828 0
-1795 -3829 0
1796 -3831 -3832 1735 -1797 0
-1796 1797 0
-1796 3831 0
-1796 3832 0
-1796 -1735 0
1797 3839 -1734 0
-1797 -3839 0
-1797 1734 0
-1798 1799 1803 1806 1810 0
1798 -1810 0
1798 -1806 0
1798 -1799 0
1798 -1803 0
1799 -3828 3829 3830 -1800 0
-1799 1800 0
-1799 -3830 0
-1799 3828 0
-1799 -3829 0
1800 -3831 -3832 1735 -1801 0
-1800 1801 0
-1800 3831 0
-1800 3832 0
-1800 -1735 0
1801 -3839 -3845 -3857 -1802 0
-1801 1802 0
-1801 3839 0
-1801 3857 0
-1801 3845 0
1802 -1701 -1734 0
-1802 1701 0
-1802 1734 0
1803 -3828 3829 3830 -1804 0
-1803 1804 0
-1803 -3830 0
-1803 3828 0
-1803 -3829 0
1804 -3831 -3832 1735 -1805 0
-1804 1805 0
-1804 3831 0
-1804 3832 0
-1804 -1735 0
1805 -3845 -1761 0
-1805 3845 0
-1805 1761 0
1806 -3828 3829 3830 -1807 0
-1806 1807 0
-1806 -3830 0
-1806 3828 0
-1806 -3829 0
1807 -3831 -3832 1735 -1808 0
-1807 1808 0
-1807 3831 0
-1807 3832 0
-1807 -1735 0
1808 -3839 -3845 -3857 -1809 0
-1808 1809 0
-1808 3839 0
-1808 3857 0
-1808 3845 0
1809 -3853 -1704 -1740 0
-1809 3853 0
-1809 1704 0
-1809 1740 0
-1810 1811 -1814 0
-1810 1811 1821 0
-1810 1811 -1817 0
1810 -1811 0
1810 1814 1817 -1821 0
1811 -3828 3829 3830 -1812 0
-1811 1812 0
-1811 -3830 0
-1811 3828 0
-1811 -3829 0
1812 -3831 -3832 1735 -1813 0
-1812 1813 0
-1812 3831 0
-1812 3832 0
-1812 -1735 0
1813 -3845 -1767 0
-1813 3845 0
-1813 1767 0
1814 -3828 3829 3830 -1815 0
-1814 1815 0
-1814 -3830 0
-1814 3828 0
-1814 -3829 0
1815 -3831 -3832 1735 -1816 0
-1815 1816 0
-1815 3831 0
-1815 3832 0
-1815 -1735 0
1816 -3839 -3845 -3857 -1772 0
-1816 1772 0
-1816 3839 0
-1816 3857 0
-1816 3845 0
1817 -3828 3829 3830 -1818 0
-1817 1818 0
-1817 -3830 0
-1817 3828 0
-1817 -3829 0
1818 -3831 -3832 1735 -1819 0
-1818 1819 0
-1818 3831 0
-1818 3832 0
-1818 -1735 0
1819 -3839 -3845 1691 -1820 0
-1819 1820 0
-1819 3839 0
-1819 -1691 0
-1819 3845 0
1820 3851 -1762 0
-1820 -3851 0
-1820 1762 0
1821 1822 1826 -1833 0
1821 1822 1826 -1830 0
-1821 -1822 0
-1821 -1826 0
-1821 1830 1833 0
1822 -3828 3829 3830 -1823 0
-1822 1823 0
-1822 -3830 0
-1822 3828 0
-1822 -3829 0
1823 -3831 -3832 1735 -1824 0
-1823 1824 0
-1823 3831 0
-1823 3832 0
-1823 -1735 0
1824 -3839 -3845 -3857 -1825 0
-1824 1825 0
-1824 3839 0
-1824 3857 0
-1824 3845 0
1825 1691 -1740 0
-1825 -1691 0
-1825 1740 0
1826 -3828 3829 3830 -1827 0
-1826 1827 0
-1826 -3830 0
-1826 3828 0
-1826 -3829 0
1827 -3831 -3832 1735 -1828 0
-1827 1828 0
-1827 3831 0
-1827 3832 0
-1827 -1735 0
1828 -3839 -3845 1691 -1829 0
-1828 1829 0
-1828 3839 0
-1828 -1691 0
-1828 3845 0
1829 -3851 -1762 0
-1829 3851 0
-1829 1762 0
1830 -3828 3829 3830 -1831 0
-1830 1831 0
-1830 -3830 0
-1830 3828 0
-1830 -3829 0
1831 -3831 -3832 1735 -1832 0
-1831 1832 0
-1831 3831 0
-1831 3832 0
-1831 -1735 0
1832 -3839 -3845 -3857 -1780 0
-1832 1780 0
-1832 3839 0
-1832 3857 0
-1832 3845 0
-1833 1834 -2252 0
-1833 1834 1837 1838 0
1833 -1834 0
1833 -1837 2252 0
1833 -1838 2252 0
1834 -3828 3829 3830 -1835 0
-1834 1835 0
-1834 -3830 0
-1834 3828 0
-1834 -3829 0
1835 -3831 -3832 1735 -1836 0
-1835 1836 0
-1835 3831 0
-1835 3832 0
-1835 -1735 0
1836 -3839 -3845 -1695 -1768 0
-1836 1768 0
-1836 3839 0
-1836 1695 0
-1836 3845 0
1837 -3773 -3854 3859 -76 0
-1837 76 0
-1837 3773 0
-1837 3854 0
-1837 -3859 0
-1838 3828 1839 1841 0
-1838 3828 1839 -1840 0
1838 -3828 0
1838 -1839 0
1838 1840 -1841 0
1839 3778 -3864 -76 0
-1839 76 0
-1839 3864 0
-1839 -3778 0
1840 3777 -3863 -77 0
-1840 77 0
-1840 3863 0
-1840 -3777 0
-1841 1842 1844 1846 1848 0
1841 -1848 0
1841 -1846 0
1841 -1842 0
1841 -1844 0
1842 3781 3782 3783 -1843 0
-1842 1843 0
-1842 -3783 0
-1842 -3781 0
-1842 -3782 0
1843 -76 -1691 0
-1843 76 0
-1843 1691 0
1844 3781 3782 -3783 -1845 0
-1844 -3781 0
-1844 1845 0
-1844 3783 0
-1844 -3782 0
1845 -76 1695 0
-1845 76 0
-1845 -1695 0
1846 3781 -3782 3783 -1847 0
-1846 3782 0
-1846 -3783 0
-1846 -3781 0
-1846 1847 0
1847 -76 1698 0
-1847 76 0
-1847 -1698 0
-1848 1849 1851 1852 1853 0
1848 -1853 0
1848 -1852 0
1848 -1849 0
1848 -1851 0
1849 -3781 3782 3783 -1850 0
-1849 1850 0
-1849 -3783 0
-1849 3781 0
-1849 -3782 0
1850 -76 1704 0
-1850 76 0
-1850 -1704 0
1851 3753 -3839 -76 0
-1851 76 0
-1851 3839 0
-1851 -3753 0
1852 -3759 3845 -76 0
-1852 3759 0
-1852 -3845 0
-1852 76 0
-1853 1854 1855 1856 1857 0
1853 -1857 0
1853 -1856 0
1853 -1854 0
1853 -1855 0
1854 -3760 3846 -76 0
-1854 3760 0
-1854 -3846 0
-1854 76 0
1855 -3762 3848 -76 0
-1855 3762 0
-1855 -3848 0
-1855 76 0
1856 -3763 3849 -76 0
-1856 3763 0
-1856 -3849 0
-1856 76 0
1857 3850 -1859 0
1857 1858 -1859 0
1857 -3764 -1859 0
-1857 1859 0
-1857 3764 -3850 -1858 0
1858 3854 -77 0
-1858 -3854 0
-1858 77 0
1859 -1862 2246 0
1859 -1861 2246 0
1859 -1860 2246 0
-1859 -2246 0
-1859 1860 1861 1862 0
1860 3778 -3864 -80 0
-1860 80 0
-1860 3864 0
-1860 -3778 0
1861 -3773 -3854 3859 -80 0
-1861 80 0
-1861 3773 0
-1861 3854 0
-1861 -3859 0
-1862 1863 1865 1866 1867 0
1862 -1867 0
1862 -1866 0
1862 -1863 0
1862 -1865 0
1863 -3765 -3853 3860 -1864 0
-1863 1864 0
-1863 3765 0
-1863 3853 0
-1863 -3860 0
1864 3851 -80 0
-1864 -3851 0
-1864 80 0
1865 3767 -3853 -80 0
-1865 80 0
-1865 3853 0
-1865 -3767 0
1866 -3762 3848 -80 0
-1866 3762 0
-1866 -3848 0
-1866 80 0
1867 3863 -1868 0
1867 -3777 -1868 0
1867 81 -1868 0
-1867 1868 0
-1867 3777 -3863 -81 0
-1868 1869 1871 1873 1875 0
1868 -1875 0
1868 -1873 0
1868 -1869 0
1868 -1871 0
1869 3781 3782 3783 -1870 0
-1869 1870 0
-1869 -3783 0
-1869 -3781 0
-1869 -3782 0
1870 -80 -1691 0
-1870 80 0
-1870 1691 0
1871 3781 3782 -3783 -1872 0
-1871 -3781 0
-1871 1872 0
-1871 3783 0
-1871 -3782 0
1872 -80 1695 0
-1872 80 0
-1872 -1695 0
1873 3781 -3782 3783 -1874 0
-1873 3782 0
-1873 -3783 0
-1873 -3781 0
-1873 1874 0
1874 -80 1698 0
-1874 80 0
-1874 -1698 0
-1875 1876 1878 1879 1880 0
1875 -1880 0
1875 -1879 0
1875 -1876 0
1875 -1878 0
1876 3781 -3782 -3783 -1877 0
-1876 -3781 0
-1876 1877 0
-1876 3783 0
-1876 3782 0
1877 -80 1701 0
-1877 80 0
-1877 -1701 0
1878 3753 -3839 -80 0
-1878 80 0
-1878 3839 0
-1878 -3753 0
1879 -3760 3846 -80 0
-1879 3760 0
-1879 -3846 0
-1879 80 0
-1880 1881 -1882 0
-1880 1881 -2244 0
-1880 1881 1883 0
1880 -1881 0
1880 1882 -1883 2244 0
1881 -3759 3845 -80 0
-1881 3759 0
-1881 -3845 0
-1881 80 0
1882 3764 -3850 3854 -81 0
-1882 3850 0
-1882 -3854 0
-1882 -3764 0
-1882 81 0
-1883 1884 1885 1886 1887 0
1883 -1887 0
1883 -1886 0
1883 -1884 0
1883 -1885 0
1884 3778 -3864 -66 0
-1884 66 0
-1884 3864 0
-1884 -3778 0
1885 -3773 -3854 3859 -66 0
-1885 66 0
-1885 3773 0
-1885 3854 0
-1885 -3859 0
1886 -3762 3848 -66 0
-1886 3762 0
-1886 -3848 0
-1886 66 0
1887 3863 -1888 0
1887 -3777 -1888 0
1887 67 -1888 0
-1887 1888 0
-1887 3777 -3863 -67 0
-1888 1889 1891 1893 1895 0
1888 -1895 0
1888 -1893 0
1888 -1889 0
1888 -1891 0
1889 3781 3782 -3783 -1890 0
-1889 -3781 0
-1889 1890 0
-1889 3783 0
-1889 -3782 0
1890 -66 1695 0
-1890 66 0
-1890 -1695 0
1891 3781 -3782 3783 -1892 0
-1891 3782 0
-1891 -3783 0
-1891 -3781 0
-1891 1892 0
1892 -66 1698 0
-1892 66 0
-1892 -1698 0
1893 3781 -3782 -3783 -1894 0
-1893 -3781 0
-1893 1894 0
-1893 3783 0
-1893 3782 0
1894 -66 1701 0
-1894 66 0
-1894 -1701 0
-1895 1896 1898 1899 1900 0
1895 -1900 0
1895 -1899 0
1895 -1896 0
1895 -1898 0
1896 -3781 3782 3783 -1897 0
-1896 1897 0
-1896 -3783 0
-1896 3781 0
-1896 -3782 0
1897 -66 1704 0
-1897 66 0
-1897 -1704 0
1898 3753 -3839 -66 0
-1898 66 0
-1898 3839 0
-1898 -3753 0
1899 -3760 3846 -66 0
-1899 3760 0
-1899 -3846 0
-1899 66 0
-1900 1901 1903 0
-1900 3860 1901 -1902 0
1900 -1901 0
1900 -3860 -1903 0
1900 1902 -1903 0
1901 -3759 3845 -66 0
-1901 3759 0
-1901 -3845 0
-1901 66 0
1902 -3765 3851 -67 0
-1902 3765 0
-1902 -3851 0
-1902 67 0
1903 -1906 2238 0
1903 -1905 2238 0
1903 -1904 2238 0
-1903 -2238 0
-1903 1904 1905 1906 0
1904 3778 -3864 -61 0
-1904 61 0
-1904 3864 0
-1904 -3778 0
1905 -3773 -3854 3859 -61 0
-1905 61 0
-1905 3773 0
-1905 3854 0
-1905 -3859 0
-1906 1907 -1908 0
-1906 1907 1909 1911 0
1906 -1907 0
1906 1908 -1911 0
1906 1908 -1909 0
1907 -3762 3848 -61 0
-1907 3762 0
-1907 -3848 0
-1907 61 0
1908 3777 -3863 -62 0
-1908 62 0
-1908 3863 0
-1908 -3777 0
1909 3781 3782 -3783 -1910 0
-1909 -3781 0
-1909 1910 0
-1909 3783 0
-1909 -3782 0
1910 -61 1695 0
-1910 61 0
-1910 -1695 0
-1911 1912 1914 1916 1918 0
1911 -1918 0
1911 -1916 0
1911 -1912 0
1911 -1914 0
1912 3781 -3782 3783 -1913 0
-1912 3782 0
-1912 -3783 0
-1912 -3781 0
-1912 1913 0
1913 -61 1698 0
-1913 61 0
-1913 -1698 0
1914 3781 -3782 -3783 -1915 0
-1914 -3781 0
-1914 1915 0
-1914 3783 0
-1914 3782 0
1915 -61 1701 0
-1915 61 0
-1915 -1701 0
1916 -3781 3782 3783 -1917 0
-1916 1917 0
-1916 -3783 0
-1916 3781 0
-1916 -3782 0
1917 -61 1704 0
-1917 61 0
-1917 -1704 0
-1918 1919 1920 1921 1922 0
1918 -1922 0
1918 -1921 0
1918 -1919 0
1918 -1920 0
1919 3753 -3839 -61 0
-1919 61 0
-1919 3839 0
-1919 -3753 0
1920 -3759 3845 -61 0
-1920 3759 0
-1920 -3845 0
-1920 61 0
1921 -3760 3846 -61 0
-1921 3760 0
-1921 -3846 0
-1921 61 0
1922 3770 -1923 0
1922 -3856 -1923 0
1922 62 -1923 0
-1922 1923 0
-1922 -3770 3856 -62 0
1923 3851 -1924 0
1923 -3765 -1924 0
1923 62 -1924 0
-1923 1924 0
-1923 3765 -3851 -62 0
-1924 1925 1926 1927 1928 0
1924 -1928 0
1924 -1927 0
1924 -1925 0
1924 -1926 0
1925 3778 -3864 -56 0
-1925 56 0
-1925 3864 0
-1925 -3778 0
1926 -3773 -3854 3859 -56 0
-1926 56 0
-1926 3773 0
-1926 3854 0
-1926 -3859 0
1927 3767 -3853 -56 0
-1927 56 0
-1927 3853 0
-1927 -3767 0
-1928 1929 1931 1933 0
-1928 1929 1931 -1932 0
1928 -1929 0
1928 -1931 0
1928 1932 -1933 0
1929 -3765 -3853 3860 -1930 0
-1929 1930 0
-1929 3765 0
-1929 3853 0
-1929 -3860 0
1930 3851 -56 0
-1930 -3851 0
-1930 56 0
1931 -3762 3848 -56 0
-1931 3762 0
-1931 -3848 0
-1931 56 0
1932 3777 -3863 -57 0
-1932 57 0
-1932 3863 0
-1932 -3777 0
-1933 1934 1936 1938 1940 0
1933 -1940 0
1933 -1938 0
1933 -1934 0
1933 -1936 0
1934 3781 3782 3783 -1935 0
-1934 1935 0
-1934 -3783 0
-1934 -3781 0
-1934 -3782 0
1935 -56 -1691 0
-1935 56 0
-1935 1691 0
1936 3781 -3782 3783 -1937 0
-1936 3782 0
-1936 -3783 0
-1936 -3781 0
-1936 1937 0
1937 -56 1698 0
-1937 56 0
-1937 -1698 0
1938 3781 -3782 -3783 -1939 0
-1938 -3781 0
-1938 1939 0
-1938 3783 0
-1938 3782 0
1939 -56 1701 0
-1939 56 0
-1939 -1701 0
-1940 1941 1943 1944 1945 0
1940 -1945 0
1940 -1944 0
1940 -1941 0
1940 -1943 0
1941 -3781 3782 3783 -1942 0
-1941 1942 0
-1941 -3783 0
-1941 3781 0
-1941 -3782 0
1942 -56 1704 0
-1942 56 0
-1942 -1704 0
1943 3753 -3839 -56 0
-1943 56 0
-1943 3839 0
-1943 -3753 0
1944 -3760 3846 -56 0
-1944 3760 0
-1944 -3846 0
-1944 56 0
-1945 1946 1948 0
-1945 -3770 1946 -1947 0
1945 -1946 0
1945 3770 -1948 0
1945 1947 -1948 0
1946 -3759 3845 -56 0
-1946 3759 0
-1946 -3845 0
-1946 56 0
1947 3856 -57 0
-1947 -3856 0
-1947 57 0
1948 57 -1949 0
1948 -3852 -1949 0
1948 3766 -1949 0
-1948 1949 0
-1948 -3766 3852 -57 0
-1949 1950 1951 1952 1953 0
1949 -1953 0
1949 -1952 0
1949 -1950 0
1949 -1951 0
1950 3778 -3864 -51 0
-1950 51 0
-1950 3864 0
-1950 -3778 0
1951 -3762 3848 -51 0
-1951 3762 0
-1951 -3848 0
-1951 51 0
1952 -3763 3849 -51 0
-1952 3763 0
-1952 -3849 0
-1952 51 0
-1953 1954 1956 0
-1953 3777 1954 -1955 0
1953 -1954 0
1953 -3777 -1956 0
1953 1955 -1956 0
1954 -3759 3845 -51 0
-1954 3759 0
-1954 -3845 0
-1954 51 0
1955 -3863 -52 0
-1955 3863 0
-1955 52 0
-1956 1957 1959 1961 1963 0
1956 -1963 0
1956 -1961 0
1956 -1957 0
1956 -1959 0
1957 3781 3782 3783 -1958 0
-1957 1958 0
-1957 -3783 0
-1957 -3781 0
-1957 -3782 0
1958 -51 -1691 0
-1958 51 0
-1958 1691 0
1959 3781 3782 -3783 -1960 0
-1959 -3781 0
-1959 1960 0
-1959 3783 0
-1959 -3782 0
1960 -51 1695 0
-1960 51 0
-1960 -1695 0
1961 3781 -3782 -3783 -1962 0
-1961 -3781 0
-1961 1962 0
-1961 3783 0
-1961 3782 0
1962 -51 1701 0
-1962 51 0
-1962 -1701 0
-1963 1964 1966 1967 1968 0
1963 -1968 0
1963 -1967 0
1963 -1964 0
1963 -1966 0
1964 -3781 3782 3783 -1965 0
-1964 1965 0
-1964 -3783 0
-1964 3781 0
-1964 -3782 0
1965 -51 1704 0
-1965 51 0
-1965 -1704 0
1966 3753 -3839 -51 0
-1966 51 0
-1966 3839 0
-1966 -3753 0
1967 -3760 3846 -51 0
-1967 3760 0
-1967 -3846 0
-1967 51 0
-1968 1969 1970 1972 0
-1968 1969 1970 -1971 0
1968 -1969 0
1968 -1970 0
1968 1971 -1972 0
1969 3778 -3864 -42 0
-1969 42 0
-1969 3864 0
-1969 -3778 0
1970 -3773 -3854 3859 -42 0
-1970 42 0
-1970 3773 0
-1970 3854 0
-1970 -3859 0
1971 3777 -3863 -43 0
-1971 43 0
-1971 3863 0
-1971 -3777 0
-1972 1973 1975 1977 1979 0
1972 -1979 0
1972 -1977 0
1972 -1973 0
1972 -1975 0
1973 3781 3782 3783 -1974 0
-1973 1974 0
-1973 -3783 0
-1973 -3781 0
-1973 -3782 0
1974 -42 -1691 0
-1974 42 0
-1974 1691 0
1975 3781 3782 -3783 -1976 0
-1975 -3781 0
-1975 1976 0
-1975 3783 0
-1975 -3782 0
1976 -42 1695 0
-1976 42 0
-1976 -1695 0
1977 3781 -3782 3783 -1978 0
-1977 3782 0
-1977 -3783 0
-1977 -3781 0
-1977 1978 0
1978 -42 1698 0
-1978 42 0
-1978 -1698 0
-1979 1980 1982 1983 1984 0
1979 -1984 0
1979 -1983 0
1979 -1980 0
1979 -1982 0
1980 -3781 3782 3783 -1981 0
-1980 1981 0
-1980 -3783 0
-1980 3781 0
-1980 -3782 0
1981 -42 1704 0
-1981 42 0
-1981 -1704 0
1982 3753 -3839 -42 0
-1982 42 0
-1982 3839 0
-1982 -3753 0
1983 -3759 3845 -42 0
-1983 3759 0
-1983 -3845 0
-1983 42 0
-1984 1985 1986 1988 0
-1984 1985 1986 -1987 0
1984 -1985 0
1984 -1986 0
1984 1987 -1988 0
1985 -3760 3846 -42 0
-1985 3760 0
-1985 -3846 0
-1985 42 0
1986 -3762 3848 -42 0
-1986 3762 0
-1986 -3848 0
-1986 42 0
1987 -3770 3856 -43 0
-1987 3770 0
-1987 -3856 0
-1987 43 0
1988 -3845 -1990 0
1988 -1989 2237 0
1988 -3845 -1989 0
1988 -1990 2237 0
-1988 3845 -2237 0
-1988 1989 1990 0
1989 3778 -3864 -37 0
-1989 37 0
-1989 3864 0
-1989 -3778 0
-1990 1991 1992 1993 1995 0
1990 -1995 0
1990 -1993 0
1990 -1991 0
1990 -1992 0
1991 -3773 -3854 3859 -37 0
-1991 37 0
-1991 3773 0
-1991 3854 0
-1991 -3859 0
1992 3767 -3853 -37 0
-1992 37 0
-1992 3853 0
-1992 -3767 0
1993 -3765 -3853 3860 -1994 0
-1993 1994 0
-1993 3765 0
-1993 3853 0
-1993 -3860 0
1994 3851 -37 0
-1994 -3851 0
-1994 37 0
-1995 1996 -1997 0
-1995 1996 1998 2000 0
1995 -1996 0
1995 1997 -2000 0
1995 1997 -1998 0
1996 -3762 3848 -37 0
-1996 3762 0
-1996 -3848 0
-1996 37 0
1997 3777 -3863 -38 0
-1997 38 0
-1997 3863 0
-1997 -3777 0
1998 3781 3782 3783 -1999 0
-1998 1999 0
-1998 -3783 0
-1998 -3781 0
-1998 -3782 0
1999 -37 -1691 0
-1999 37 0
-1999 1691 0
-2000 2001 2003 2005 2007 0
2000 -2007 0
2000 -2005 0
2000 -2001 0
2000 -2003 0
2001 3781 3782 -3783 -2002 0
-2001 -3781 0
-2001 2002 0
-2001 3783 0
-2001 -3782 0
2002 -37 1695 0
-2002 37 0
-2002 -1695 0
2003 3781 -3782 3783 -2004 0
-2003 3782 0
-2003 -3783 0
-2003 -3781 0
-2003 2004 0
2004 -37 1698 0
-2004 37 0
-2004 -1698 0
2005 3781 -3782 -3783 -2006 0
-2005 -3781 0
-2005 2006 0
-2005 3783 0
-2005 3782 0
2006 -37 1701 0
-2006 37 0
-2006 -1701 0
-2007 2008 2009 2010 2011 0
2007 -2011 0
2007 -2010 0
2007 -2008 0
2007 -2009 0
2008 3753 -3839 -37 0
-2008 37 0
-2008 3839 0
-2008 -3753 0
2009 -3760 3846 -37 0
-2009 3760 0
-2009 -3846 0
-2009 37 0
2010 -3759 3845 -37 0
-2010 3759 0
-2010 -3845 0
-2010 37 0
2011 3770 -2012 0
2011 -3856 -2012 0
2011 38 -2012 0
-2011 2012 0
-2011 -3770 3856 -38 0
2012 -3845 -2013 0
2012 -2013 2236 0
2012 3764 -2013 0
-2012 2013 0
-2012 -3764 3845 -2236 0
-2013 2014 -2015 0
-2013 2014 2016 2017 0
2013 -2014 0
2013 2015 -2017 0
2013 2015 -2016 0
2014 3778 -3864 -45 0
-2014 45 0
-2014 3864 0
-2014 -3778 0
2015 3777 -3863 -46 0
-2015 46 0
-2015 3863 0
-2015 -3777 0
2016 -3759 3845 -45 0
-2016 3759 0
-2016 -3845 0
-2016 45 0
-2017 2018 2019 2020 2021 0
2017 -2021 0
2017 -2020 0
2017 -2018 0
2017 -2019 0
2018 -3761 3847 -45 0
-2018 3761 0
-2018 -3847 0
-2018 45 0
2019 -3762 3848 -45 0
-2019 3762 0
-2019 -3848 0
-2019 45 0
2020 -3763 3849 -45 0
-2020 3763 0
-2020 -3849 0
-2020 45 0
-2021 2022 2023 2024 2025 0
2021 -2025 0
2021 -2024 0
2021 -2022 0
2021 -2023 0
2022 -3758 3844 -45 0
-2022 3758 0
-2022 -3844 0
-2022 45 0
2023 3778 -3864 106 0
-2023 -106 0
-2023 3864 0
-2023 -3778 0
2024 -3780 3866 106 0
-2024 3780 0
-2024 -3866 0
-2024 -106 0
2025 3758 -2026 0
2025 -3844 -2026 0
2025 -49 -2026 0
-2025 2026 0
-2025 -3758 3844 49 0
2026 -2031 2231 0
2026 -2029 2231 0
2026 -2027 2231 0
-2026 -2231 0
-2026 2027 2029 2031 0
2027 3781 3782 3783 -2028 0
-2027 2028 0
-2027 -3783 0
-2027 -3781 0
-2027 -3782 0
2028 106 -1691 0
-2028 -106 0
-2028 1691 0
2029 3781 3782 -3783 2030 0
-2029 -3781 0
-2029 -2030 0
-2029 3783 0
-2029 -3782 0
-2030 106 1695 0
2030 -106 0
2030 -1695 0
-2031 2032 2034 2036 2038 0
2031 -2038 0
2031 -2036 0
2031 -2032 0
2031 -2034 0
2032 3781 -3782 3783 2033 0
-2032 3782 0
-2032 -3783 0
-2032 -3781 0
-2032 -2033 0
-2033 106 1698 0
2033 -106 0
2033 -1698 0
2034 3781 -3782 -3783 2035 0
-2034 -3781 0
-2034 -2035 0
-2034 3783 0
-2034 3782 0
-2035 106 1701 0
2035 -106 0
2035 -1701 0
2036 -3781 3782 3783 2037 0
-2036 -2037 0
-2036 -3783 0
-2036 3781 0
-2036 -3782 0
-2037 106 1704 0
2037 -106 0
2037 -1704 0
-2038 2039 2040 2041 2042 0
2038 -2042 0
2038 -2041 0
2038 -2039 0
2038 -2040 0
2039 3778 -3864 -115 0
-2039 115 0
-2039 3864 0
-2039 -3778 0
2040 3753 -3839 -115 0
-2040 115 0
-2040 3839 0
-2040 -3753 0
2041 -3759 3845 -115 0
-2041 3759 0
-2041 -3845 0
-2041 115 0
2042 3866 -2043 0
2042 -3780 -2043 0
2042 116 -2043 0
-2042 2043 0
-2042 3780 -3866 -116 0
-2043 2044 2046 2048 2050 0
2043 -2050 0
2043 -2048 0
2043 -2044 0
2043 -2046 0
2044 3781 3782 3783 -2045 0
-2044 2045 0
-2044 -3783 0
-2044 -3781 0
-2044 -3782 0
2045 -115 -1691 0
-2045 115 0
-2045 1691 0
2046 3781 3782 -3783 -2047 0
-2046 -3781 0
-2046 2047 0
-2046 3783 0
-2046 -3782 0
2047 -115 1695 0
-2047 115 0
-2047 -1695 0
2048 3781 -3782 3783 -2049 0
-2048 3782 0
-2048 -3783 0
-2048 -3781 0
-2048 2049 0
2049 -115 1698 0
-2049 115 0
-2049 -1698 0
-2050 2051 2053 2055 2056 0
2050 -2056 0
2050 -2055 0
2050 -2051 0
2050 -2053 0
2051 3781 -3782 -3783 -2052 0
-2051 -3781 0
-2051 2052 0
-2051 3783 0
-2051 3782 0
2052 -115 1701 0
-2052 115 0
-2052 -1701 0
2053 -3781 3782 3783 -2054 0
-2053 2054 0
-2053 -3783 0
-2053 3781 0
-2053 -3782 0
2054 -115 1704 0
-2054 115 0
-2054 -1704 0
2055 3778 -3864 -107 0
-2055 107 0
-2055 3864 0
-2055 -3778 0
2056 3780 -2057 0
2056 -3866 -2057 0
2056 70 -2057 0
-2056 2057 0
-2056 -3780 3866 -70 0
2057 -2062 2229 0
2057 -2060 2229 0
2057 -2058 2229 0
-2057 -2229 0
-2057 2058 2060 2062 0
2058 3781 3782 3783 -2059 0
-2058 2059 0
-2058 -3783 0
-2058 -3781 0
-2058 -3782 0
2059 -107 -1691 0
-2059 107 0
-2059 1691 0
2060 3781 3782 -3783 -2061 0
-2060 -3781 0
-2060 2061 0
-2060 3783 0
-2060 -3782 0
2061 -107 1695 0
-2061 107 0
-2061 -1695 0
-2062 2063 2065 2067 2069 0
2062 -2069 0
2062 -2067 0
2062 -2063 0
2062 -2065 0
2063 3781 -3782 3783 -2064 0
-2063 3782 0
-2063 -3783 0
-2063 -3781 0
-2063 2064 0
2064 -107 1698 0
-2064 107 0
-2064 -1698 0
2065 3781 -3782 -3783 -2066 0
-2065 -3781 0
-2065 2066 0
-2065 3783 0
-2065 3782 0
2066 -107 1701 0
-2066 107 0
-2066 -1701 0
2067 -3781 3782 3783 -2068 0
-2067 2068 0
-2067 -3783 0
-2067 3781 0
-2067 -3782 0
2068 -107 1704 0
-2068 107 0
-2068 -1704 0
-2069 2070 2071 2072 2073 0
2069 -2073 0
2069 -2072 0
2069 -2070 0
2069 -2071 0
2070 3778 -3864 -69 0
-2070 69 0
-2070 3864 0
-2070 -3778 0
2071 -3773 -3854 3859 -69 0
-2071 69 0
-2071 3773 0
-2071 3854 0
-2071 -3859 0
2072 3753 -3839 -69 0
-2072 69 0
-2072 3839 0
-2072 -3753 0
-2073 2074 2075 2076 2078 0
2073 -2078 0
2073 -2076 0
2073 -2074 0
2073 -2075 0
2074 3764 -3850 -69 0
-2074 69 0
-2074 3850 0
-2074 -3764 0
2075 3777 -3863 -69 0
-2075 69 0
-2075 3863 0
-2075 -3777 0
2076 3781 3782 3783 -2077 0
-2076 2077 0
-2076 -3783 0
-2076 -3781 0
-2076 -3782 0
2077 -69 -1691 0
-2077 69 0
-2077 1691 0
-2078 2079 2081 2083 2085 0
2078 -2085 0
2078 -2083 0
2078 -2079 0
2078 -2081 0
2079 3781 3782 -3783 -2080 0
-2079 -3781 0
-2079 2080 0
-2079 3783 0
-2079 -3782 0
2080 -69 1695 0
-2080 69 0
-2080 -1695 0
2081 3781 -3782 3783 -2082 0
-2081 3782 0
-2081 -3783 0
-2081 -3781 0
-2081 2082 0
2082 -69 1698 0
-2082 69 0
-2082 -1698 0
2083 -3781 3782 3783 -2084 0
-2083 2084 0
-2083 -3783 0
-2083 3781 0
-2083 -3782 0
2084 -69 1704 0
-2084 69 0
-2084 -1704 0
-2085 2086 2087 2088 2089 0
2085 -2089 0
2085 -2088 0
2085 -2086 0
2085 -2087 0
2086 -3760 3846 -69 0
-2086 3760 0
-2086 -3846 0
-2086 69 0
2087 -3761 3847 -69 0
-2087 3761 0
-2087 -3847 0
-2087 69 0
2088 -3762 3848 -69 0
-2088 3762 0
-2088 -3848 0
-2088 69 0
-2089 2090 2091 2092 2093 0
2089 -2093 0
2089 -2092 0
2089 -2090 0
2089 -2091 0
2090 -3763 3849 -69 0
-2090 3763 0
-2090 -3849 0
-2090 69 0
2091 -3758 3844 -69 0
-2091 3758 0
-2091 -3844 0
-2091 69 0
2092 -3766 3852 -69 0
-2092 3766 0
-2092 -3852 0
-2092 69 0
-2093 2094 2095 2096 2097 0
2093 -2097 0
2093 -2096 0
2093 -2094 0
2093 -2095 0
2094 3765 -3851 -69 0
-2094 69 0
-2094 3851 0
-2094 -3765 0
2095 -3765 3851 3860 -69 0
-2095 69 0
-2095 -3860 0
-2095 3765 0
-2095 -3851 0
2096 -3767 3853 3860 -69 0
-2096 69 0
-2096 -3860 0
-2096 3767 0
-2096 -3853 0
-2097 2098 2099 2100 2101 0
2097 -2101 0
2097 -2100 0
2097 -2098 0
2097 -2099 0
2098 3767 -3853 -69 0
-2098 69 0
-2098 3853 0
-2098 -3767 0
2099 -3770 3856 -69 0
-2099 3770 0
-2099 -3856 0
-2099 69 0
2100 3778 -3864 -64 0
-2100 64 0
-2100 3864 0
-2100 -3778 0
-2101 2102 2103 2104 2106 0
2101 -2106 0
2101 -2104 0
2101 -2102 0
2101 -2103 0
2102 -3773 -3854 3859 -64 0
-2102 64 0
-2102 3773 0
-2102 3854 0
-2102 -3859 0
2103 3767 -3853 -64 0
-2103 64 0
-2103 3853 0
-2103 -3767 0
2104 -3765 -3853 3860 -2105 0
-2104 2105 0
-2104 3765 0
-2104 3853 0
-2104 -3860 0
2105 3851 -64 0
-2105 -3851 0
-2105 64 0
-2106 2107 2108 2109 2110 0
2106 -2110 0
2106 -2109 0
2106 -2107 0
2106 -2108 0
2107 3764 -3850 -64 0
-2107 64 0
-2107 3850 0
-2107 -3764 0
2108 3753 -3839 -64 0
-2108 64 0
-2108 3839 0
-2108 -3753 0
2109 3777 -3863 -64 0
-2109 64 0
-2109 3863 0
-2109 -3777 0
-2110 2111 2113 2115 2117 0
2110 -2117 0
2110 -2115 0
2110 -2111 0
2110 -2113 0
2111 3781 3782 3783 -2112 0
-2111 2112 0
-2111 -3783 0
-2111 -3781 0
-2111 -3782 0
2112 -64 -1691 0
-2112 64 0
-2112 1691 0
2113 3781 3782 -3783 -2114 0
-2113 -3781 0
-2113 2114 0
-2113 3783 0
-2113 -3782 0
2114 -64 1695 0
-2114 64 0
-2114 -1695 0
2115 3781 -3782 3783 -2116 0
-2115 3782 0
-2115 -3783 0
-2115 -3781 0
-2115 2116 0
2116 -64 1698 0
-2116 64 0
-2116 -1698 0
-2117 2118 2120 2121 2122 0
2117 -2122 0
2117 -2121 0
2117 -2118 0
2117 -2120 0
2118 3781 -3782 -3783 -2119 0
-2118 -3781 0
-2118 2119 0
-2118 3783 0
-2118 3782 0
2119 -64 1701 0
-2119 64 0
-2119 -1701 0
2120 -3760 3846 -64 0
-2120 3760 0
-2120 -3846 0
-2120 64 0
2121 -3761 3847 -64 0
-2121 3761 0
-2121 -3847 0
-2121 64 0
-2122 2123 2124 2125 2126 0
2122 -2126 0
2122 -2125 0
2122 -2123 0
2122 -2124 0
2123 -3762 3848 -64 0
-2123 3762 0
-2123 -3848 0
-2123 64 0
2124 -3763 3849 -64 0
-2124 3763 0
-2124 -3849 0
-2124 64 0
2125 -3758 3844 -64 0
-2125 3758 0
-2125 -3844 0
-2125 64 0
-2126 2127 2128 2129 2130 0
2126 -2130 0
2126 -2129 0
2126 -2127 0
2126 -2128 0
2127 -3766 3852 -64 0
-2127 3766 0
-2127 -3852 0
-2127 64 0
2128 -3770 3856 -64 0
-2128 3770 0
-2128 -3856 0
-2128 64 0
2129 3778 -3864 -59 0
-2129 59 0
-2129 3864 0
-2129 -3778 0
-2130 2131 2132 2133 2134 0
2130 -2134 0
2130 -2133 0
2130 -2131 0
2130 -2132 0
2131 -3773 -3854 3859 -59 0
-2131 59 0
-2131 3773 0
-2131 3854 0
-2131 -3859 0
2132 3753 -3839 -59 0
-2132 59 0
-2132 3839 0
-2132 -3753 0
2133 3777 -3863 -59 0
-2133 59 0
-2133 3863 0
-2133 -3777 0
-2134 2135 2137 2139 2141 0
2134 -2141 0
2134 -2139 0
2134 -2135 0
2134 -2137 0
2135 3781 3782 -3783 -2136 0
-2135 -3781 0
-2135 2136 0
-2135 3783 0
-2135 -3782 0
2136 -59 1695 0
-2136 59 0
-2136 -1695 0
2137 3781 -3782 3783 -2138 0
-2137 3782 0
-2137 -3783 0
-2137 -3781 0
-2137 2138 0
2138 -59 1698 0
-2138 59 0
-2138 -1698 0
2139 3781 -3782 -3783 -2140 0
-2139 -3781 0
-2139 2140 0
-2139 3783 0
-2139 3782 0
2140 -59 1701 0
-2140 59 0
-2140 -1701 0
-2141 2142 2144 2145 2146 0
2141 -2146 0
2141 -2145 0
2141 -2142 0
2141 -2144 0
2142 -3781 3782 3783 -2143 0
-2142 2143 0
-2142 -3783 0
-2142 3781 0
-2142 -3782 0
2143 -59 1704 0
-2143 59 0
-2143 -1704 0
2144 -3760 3846 -59 0
-2144 3760 0
-2144 -3846 0
-2144 59 0
2145 -3761 3847 -59 0
-2145 3761 0
-2145 -3847 0
-2145 59 0
-2146 2147 2148 2149 2150 0
2146 -2150 0
2146 -2149 0
2146 -2147 0
2146 -2148 0
2147 -3762 3848 -59 0
-2147 3762 0
-2147 -3848 0
-2147 59 0
2148 -3763 3849 -59 0
-2148 3763 0
-2148 -3849 0
-2148 59 0
2149 -3758 3844 -59 0
-2149 3758 0
-2149 -3844 0
-2149 59 0
2150 2151 -2152 2223 0
2150 2151 -2153 2223 0
-2150 -2151 0
-2150 -2223 0
-2150 2152 2153 0
2151 -3765 3851 3860 -60 0
-2151 60 0
-2151 -3860 0
-2151 3765 0
-2151 -3851 0
2152 3778 -3864 -54 0
-2152 54 0
-2152 3864 0
-2152 -3778 0
-2153 2154 2155 2156 2157 0
2153 -2157 0
2153 -2156 0
2153 -2154 0
2153 -2155 0
2154 -3773 -3854 3859 -54 0
-2154 54 0
-2154 3773 0
-2154 3854 0
-2154 -3859 0
2155 3753 -3839 -54 0
-2155 54 0
-2155 3839 0
-2155 -3753 0
2156 3777 -3863 -54 0
-2156 54 0
-2156 3863 0
-2156 -3777 0
-2157 2158 2160 2162 2164 0
2157 -2164 0
2157 -2162 0
2157 -2158 0
2157 -2160 0
2158 3781 3782 -3783 -2159 0
-2158 -3781 0
-2158 2159 0
-2158 3783 0
-2158 -3782 0
2159 -54 1695 0
-2159 54 0
-2159 -1695 0
2160 3781 -3782 3783 -2161 0
-2160 3782 0
-2160 -3783 0
-2160 -3781 0
-2160 2161 0
2161 -54 1698 0
-2161 54 0
-2161 -1698 0
2162 3781 -3782 -3783 -2163 0
-2162 -3781 0
-2162 2163 0
-2162 3783 0
-2162 3782 0
2163 -54 1701 0
-2163 54 0
-2163 -1701 0
-2164 2165 2167 2168 2169 0
2164 -2169 0
2164 -2168 0
2164 -2165 0
2164 -2167 0
2165 -3781 3782 3783 -2166 0
-2165 2166 0
-2165 -3783 0
-2165 3781 0
-2165 -3782 0
2166 -54 1704 0
-2166 54 0
-2166 -1704 0
2167 -3760 3846 -54 0
-2167 3760 0
-2167 -3846 0
-2167 54 0
2168 -3761 3847 -54 0
-2168 3761 0
-2168 -3847 0
-2168 54 0
-2169 2170 2171 2172 2173 0
2169 -2173 0
2169 -2172 0
2169 -2170 0
2169 -2171 0
2170 -3762 3848 -54 0
-2170 3762 0
-2170 -3848 0
-2170 54 0
2171 -3763 3849 -54 0
-2171 3763 0
-2171 -3849 0
-2171 54 0
2172 -3758 3844 -54 0
-2172 3758 0
-2172 -3844 0
-2172 54 0
2173 3853 -2174 0
2173 55 -2174 0
2173 -3767 -2174 0
-2173 2174 0
-2173 3767 -3853 -55 0
2174 138 -2175 2219 0
2174 138 -2177 2219 0
-2174 -2219 0
-2174 -138 0
-2174 2175 2177 0
2175 -3770 3856 -2176 0
-2175 3770 0
-2175 -3856 0
-2175 2176 0
2176 -3828 3829 3831 0
-2176 3828 0
-2176 -3831 0
-2176 -3829 0
-2177 2193 2194 0
-2177 2178 2179 2194 0
2177 -2194 0
2177 -2179 -2193 0
2177 -2178 -2193 0
2178 3778 -3864 0
-2178 -3778 0
-2178 3864 0
2179 3863 -2181 0
2179 -3777 -2181 0
2179 2180 -2181 0
-2179 2181 0
-2179 3777 -3863 -2180 0
2180 -3829 -47 0
-2180 3829 0
-2180 47 0
-2181 3763 2182 2183 0
-2181 -3849 2182 2183 0
2181 -2183 0
2181 -2182 0
2181 -3763 3849 0
2182 -3758 3844 0
-2182 3758 0
-2182 -3844 0
-2183 2184 2185 2186 2187 0
2183 -2187 0
2183 -2186 0
2183 -2184 0
2183 -2185 0
2184 -3761 3847 0
-2184 3761 0
-2184 -3847 0
2185 -3760 3846 0
-2185 3760 0
-2185 -3846 0
2186 -3759 3845 0
-2186 3759 0
-2186 -3845 0
-2187 2188 2189 2190 2191 0
2187 -2191 0
2187 -2190 0
2187 -2188 0
2187 -2189 0
2188 3753 -3839 0
-2188 -3753 0
-2188 3839 0
2189 -179 1704 0
-2189 179 0
-2189 -1704 0
2190 3781 -3782 3783 1698 0
-2190 3782 0
-2190 -1698 0
-2190 -3781 0
-2190 -3783 0
-2191 -1695 2192 0
-2191 1694 2192 0
2191 -2192 0
2191 -1694 1695 0
2192 -1691 1692 0
-2192 1691 0
-2192 -1692 0
2193 3828 -3829 -3831 0
-2193 3831 0
-2193 3829 0
-2193 -3828 0
-2194 2195 2196 2197 2198 0
2194 -2198 0
2194 -2197 0
2194 -2195 0
2194 -2196 0
2195 -3766 3852 -2176 0
-2195 3766 0
-2195 -3852 0
-2195 2176 0
2196 -3758 3844 -2176 0
-2196 3758 0
-2196 -3844 0
-2196 2176 0
2197 -3763 3849 -2176 0
-2197 3763 0
-2197 -3849 0
-2197 2176 0
-2198 2199 2200 2201 2202 0
2198 -2202 0
2198 -2201 0
2198 -2199 0
2198 -2200 0
2199 -3762 3848 -2176 0
-2199 3762 0
-2199 -3848 0
-2199 2176 0
2200 -3761 3847 -2176 0
-2200 3761 0
-2200 -3847 0
-2200 2176 0
2201 -3760 3846 -2176 0
-2201 3760 0
-2201 -3846 0
-2201 2176 0
-2202 2203 2205 2207 2209 0
2202 -2209 0
2202 -2207 0
2202 -2203 0
2202 -2205 0
2203 -3781 3782 3783 -2204 0
-2203 2204 0
-2203 -3783 0
-2203 3781 0
-2203 -3782 0
2204 1704 -2176 0
-2204 -1704 0
-2204 2176 0
2205 3781 -3782 -3783 -2206 0
-2205 -3781 0
-2205 2206 0
-2205 3783 0
-2205 3782 0
2206 1701 -2176 0
-2206 -1701 0
-2206 2176 0
2207 3781 -3782 3783 -2208 0
-2207 3782 0
-2207 -3783 0
-2207 -3781 0
-2207 2208 0
2208 1698 -2176 0
-2208 -1698 0
-2208 2176 0
-2209 2210 2212 2213 0
-2209 -3777 2210 2213 0
2209 -2213 0
2209 -2210 0
2209 3777 -2212 0
2210 3781 3782 3783 -2211 0
-2210 2211 0
-2210 -3783 0
-2210 -3781 0
-2210 -3782 0
2211 -1691 -2176 0
-2211 1691 0
-2211 2176 0
2212 -3863 -2176 0
-2212 3863 0
-2212 2176 0
-2213 3839 2214 0
-2213 2176 2214 0
-2213 -3753 2214 0
2213 -2214 0
2213 3753 -3839 -2176 0
-2214 3853 2216 0
-2214 -3860 2216 0
-2214 2215 2216 0
2214 -2216 0
2214 -3853 3860 -2215 0
2215 -3765 3851 -2176 0
-2215 3765 0
-2215 -3851 0
-2215 2176 0
-2216 3853 2217 0
-2216 2176 2217 0
-2216 -3767 2217 0
2216 -2217 0
2216 3767 -3853 -2176 0
-2217 3864 2218 0
-2217 -3778 2218 0
-2217 2176 2218 0
2217 -2218 0
2217 3778 -3864 -2176 0
2218 -3773 -3854 3859 -2176 0
-2218 2176 0
-2218 3773 0
-2218 3854 0
-2218 -3859 0
-2219 -3765 2221 2222 0
-2219 2220 2221 2222 0
2219 -2222 0
2219 -2221 0
2219 3765 -2220 0
2220 -3851 -55 0
-2220 3851 0
-2220 55 0
2221 -3767 3853 3860 -2220 0
-2221 2220 0
-2221 -3860 0
-2221 3767 0
-2221 -3853 0
2222 -3770 3856 -55 0
-2222 3770 0
-2222 -3856 0
-2222 55 0
-2223 3770 2224 0
-2223 -3856 2224 0
-2223 60 2224 0
2223 -2224 0
2223 -3770 3856 -60 0
-2224 3769 2225 0
-2224 -3855 2225 0
-2224 60 2225 0
2224 -2225 0
2224 -3769 3855 -60 0
-2225 3766 2226 0
-2225 -3852 2226 0
-2225 60 2226 0
2225 -2226 0
2225 -3766 3852 -60 0
-2226 3853 2227 0
-2226 -3767 2227 0
-2226 60 2227 0
2226 -2227 0
2226 3767 -3853 -60 0
2227 -3767 3853 3860 -2228 0
-2227 2228 0
-2227 -3860 0
-2227 3767 0
-2227 -3853 0
2228 3851 -60 0
-2228 -3851 0
-2228 60 0
-2229 3839 2230 0
-2229 -3753 2230 0
-2229 70 2230 0
2229 -2230 0
2229 3753 -3839 -70 0
2230 -3759 3845 -70 0
-2230 3759 0
-2230 -3845 0
-2230 70 0
-2231 3763 2232 0
-2231 -3849 2232 0
-2231 -49 2232 0
2231 -2232 0
2231 -3763 3849 49 0
-2232 3762 2233 0
-2232 -3848 2233 0
-2232 -49 2233 0
2232 -2233 0
2232 -3762 3848 49 0
-2233 3761 2234 0
-2233 -3847 2234 0
-2233 -49 2234 0
2233 -2234 0
2233 -3761 3847 49 0
-2234 -49 2235 0
-2234 -3845 2235 0
-2234 3759 2235 0
2234 -2235 0
2234 -3759 3845 49 0
2235 -3760 3846 49 0
-2235 3760 0
-2235 -3846 0
-2235 -49 0
2236 3850 3854 -38 0
-2236 38 0
-2236 -3854 0
-2236 -3850 0
2237 -3764 3850 3854 -43 0
-2237 43 0
-2237 -3854 0
-2237 3764 0
-2237 -3850 0
-2238 3770 2239 0
-2238 -3856 2239 0
-2238 67 2239 0
2238 -2239 0
2238 -3770 3856 -67 0
-2239 3769 2240 0
-2239 -3855 2240 0
-2239 67 2240 0
2239 -2240 0
2239 -3769 3855 -67 0
-2240 3766 2241 0
-2240 -3852 2241 0
-2240 67 2241 0
2240 -2241 0
2240 -3766 3852 -67 0
-2241 3853 2242 0
-2241 -3767 2242 0
-2241 67 2242 0
2241 -2242 0
2241 3767 -3853 -67 0
2242 -3767 3853 3860 -2243 0
-2242 2243 0
-2242 -3860 0
-2242 3767 0
-2242 -3853 0
2243 3851 -67 0
-2243 -3851 0
-2243 67 0
-2244 81 2245 0
-2244 -3856 2245 0
-2244 3770 2245 0
2244 -2245 0
2244 -3770 3856 -81 0
2245 -3766 3852 -81 0
-2245 3766 0
-2245 -3852 0
-2245 81 0
-2246 3770 2247 0
-2246 -3856 2247 0
-2246 77 2247 0
2246 -2247 0
2246 -3770 3856 -77 0
-2247 3765 2249 0
-2247 -3860 2249 0
-2247 2248 2249 0
2247 -2249 0
2247 -3765 3860 -2248 0
2248 3851 -77 0
-2248 -3851 0
-2248 77 0
-2249 3851 2250 0
-2249 77 2250 0
-2249 -3765 2250 0
2249 -2250 0
2249 3765 -3851 -77 0
-2250 3766 2251 0
-2250 -3852 2251 0
-2250 77 2251 0
2250 -2251 0
2250 -3766 3852 -77 0
-2251 -3767 -3853 0
-2251 3853 -3860 0
-2251 77 0
-2251 3767 3853 0
2251 3767 -3853 -77 0
2251 -3767 3853 3860 -77 0
2252 -3828 3829 3830 -2253 0
-2252 2253 0
-2252 -3830 0
-2252 3828 0
-2252 -3829 0
2253 -3831 -3832 1735 -2254 0
-2253 2254 0
-2253 3831 0
-2253 3832 0
-2253 -1735 0
2254 -3839 -3848 -1701 -1734 0
-2254 1734 0
-2254 3839 0
-2254 1701 0
-2254 3848 0
2255 3748 2256 2445 -2579 0
2255 -3748 -2256 2445 -2579 0
-2255 2579 0
-2255 3748 -2256 0
-2255 -2445 0
-2255 -3748 2256 0
-2256 1671 1674 1676 2257 0
2256 -2257 0
2256 -1676 0
2256 -1671 0
2256 -1674 0
-2257 1678 1679 1681 2258 0
2257 -2258 0
2257 -1681 0
2257 -1678 0
2257 -1679 0
-2258 1683 1684 1686 2259 0
2258 -2259 0
2258 -1686 0
2258 -1683 0
2258 -1684 0
2259 1689 1690 1693 -2260 0
-2259 2260 0
-2259 -1693 0
-2259 -1689 0
-2259 -1690 0
2260 1700 1703 2261 -2263 0
-2260 2263 0
-2260 -2261 0
-2260 -1700 0
-2260 -1703 0
2261 -1675 1698 -2262 0
-2261 1675 0
-2261 -1698 0
-2261 2262 0
2262 3781 -3782 3783 0
-2262 -3781 0
-2262 3782 0
-2262 -3783 0
2263 1706 1707 1708 -2264 0
-2263 2264 0
-2263 -1708 0
-2263 -1706 0
-2263 -1707 0
2264 1710 1711 1713 -2265 0
-2264 2265 0
-2264 -1713 0
-2264 -1710 0
-2264 -1711 0
2265 1716 1721 2266 -2269 0
-2265 2269 0
-2265 -2266 0
-2265 -1716 0
-2265 -1721 0
2266 3828 -3829 -3830 -2267 0
-2266 -3828 0
-2266 2267 0
-2266 3830 0
-2266 3829 0
2267 3831 -3832 -2268 0
-2267 2268 0
-2267 3832 0
-2267 -3831 0
2268 -3845 -3866 -118 1718 0
-2268 118 0
-2268 -1718 0
-2268 3845 0
-2268 3866 0
2269 1722 -1726 0
2269 1722 1730 -2270 0
-2269 -1722 0
-2269 1726 2270 0
-2269 1726 -1730 0
2270 1737 1742 2271 -2274 0
-2270 2274 0
-2270 -2271 0
-2270 -1737 0
-2270 -1742 0
2271 -3828 3829 3830 -2272 0
-2271 2272 0
-2271 -3830 0
-2271 3828 0
-2271 -3829 0
2272 -3831 -3832 -2273 0
-2272 3831 0
-2272 3832 0
-2272 2273 0
2273 3853 -1695 -1734 1735 0
-2273 -3853 0
-2273 -1735 0
-2273 1734 0
-2273 1695 0
2274 1745 1748 1752 -2275 0
-2274 2275 0
-2274 -1752 0
-2274 -1745 0
-2274 -1748 0
2275 1755 -2278 0
2275 1755 -2276 0
2275 1755 -1764 0
-2275 -1755 0
-2275 1764 2276 2278 0
2276 -3828 3829 3830 -2277 0
-2276 2277 0
-2276 -3830 0
-2276 3828 0
-2276 -3829 0
2277 -3831 -3832 -1760 0
-2277 3831 0
-2277 3832 0
-2277 1760 0
2278 1769 1773 1777 -2279 0
-2278 2279 0
-2278 -1777 0
-2278 -1769 0
-2278 -1773 0
2279 1781 1784 -2280 0
2279 1781 1784 -1788 0
-2279 -1781 0
-2279 -1784 0
-2279 1788 2280 0
2280 1792 1795 1799 -2281 0
-2280 2281 0
-2280 -1799 0
-2280 -1792 0
-2280 -1795 0
2281 1803 1806 1811 -2282 0
-2281 2282 0
-2281 -1811 0
-2281 -1803 0
-2281 -1806 0
-2282 1814 1817 1822 2283 0
2282 -2283 0
2282 -1822 0
2282 -1814 0
2282 -1817 0
-2283 1826 2284 0
-2283 1826 -1834 0
-2283 1826 -1830 0
2283 -1826 0
2283 1830 1834 -2284 0
-2284 -1839 2252 0
-2284 2252 2285 0
-2284 -1837 2252 0
2284 -2252 0
2284 1837 1839 -2285 0
-2285 -1844 2286 0
-2285 2286 2287 0
-2285 -1842 2286 0
2285 -2286 0
2285 1842 1844 -2287 0
2286 3777 -3863 -76 0
-2286 76 0
-2286 3863 0
-2286 -3777 0
2287 1849 1851 2288 -2289 0
-2287 2289 0
-2287 -2288 0
-2287 -1849 0
-2287 -1851 0
2288 3781 -3782 3783 -1847 0
-2288 3782 0
-2288 -3783 0
-2288 -3781 0
-2288 1847 0
2289 1852 1854 1855 -2290 0
-2289 2290 0
-2289 -1855 0
-2289 -1852 0
-2289 -1854 0
2290 1856 -2291 0
2290 1856 -2293 0
2290 1856 -2292 0
-2290 -1856 0
-2290 2291 2292 2293 0
2291 -3767 3853 3860 -76 0
-2291 76 0
-2291 -3860 0
-2291 3767 0
-2291 -3853 0
2292 3767 -3853 -76 0
-2292 76 0
-2292 3853 0
-2292 -3767 0
-2293 2294 2295 2296 2297 0
2293 -2297 0
2293 -2296 0
2293 -2294 0
2293 -2295 0
2294 -3766 3852 -76 0
-2294 3766 0
-2294 -3852 0
-2294 76 0
2295 3765 -3851 -76 0
-2295 76 0
-2295 3851 0
-2295 -3765 0
2296 -3765 3851 3860 -76 0
-2296 76 0
-2296 -3860 0
-2296 3765 0
-2296 -3851 0
-2297 2298 2300 0
-2297 -1860 2298 0
-2297 2298 -2299 0
2297 -2298 0
2297 1860 2299 -2300 0
2298 -3770 3856 -76 0
-2298 3770 0
-2298 -3856 0
-2298 76 0
2299 3764 -3850 3854 -76 0
-2299 3850 0
-2299 -3854 0
-2299 -3764 0
-2299 76 0
2300 1861 1863 1865 -2301 0
-2300 2301 0
-2300 -1865 0
-2300 -1861 0
-2300 -1863 0
2301 1866 -2302 0
2301 1866 1869 -2303 0
-2301 -1866 0
-2301 -1869 2302 0
-2301 2302 2303 0
2302 3777 -3863 -80 0
-2302 80 0
-2302 3863 0
-2302 -3777 0
2303 1871 1876 2304 -2305 0
-2303 2305 0
-2303 -2304 0
-2303 -1871 0
-2303 -1876 0
2304 3781 -3782 3783 -1874 0
-2304 3782 0
-2304 -3783 0
-2304 -3781 0
-2304 1874 0
2305 1878 1879 1881 -2306 0
-2305 2306 0
-2305 -1881 0
-2305 -1878 0
-2305 -1879 0
-2306 2307 2308 2309 2310 0
2306 -2310 0
2306 -2309 0
2306 -2307 0
2306 -2308 0
2307 -3766 3852 -80 0
-2307 3766 0
-2307 -3852 0
-2307 80 0
2308 -3770 3856 -80 0
-2308 3770 0
-2308 -3856 0
-2308 80 0
2309 3764 -3850 3854 -80 0
-2309 3850 0
-2309 -3854 0
-2309 -3764 0
-2309 80 0
2310 1884 1885 1886 -2311 0
-2310 2311 0
-2310 -1886 0
-2310 -1884 0
-2310 -1885 0
-2311 2312 2314 0
-2311 -1889 2312 0
-2311 2312 -2313 0
2311 -2312 0
2311 1889 2313 -2314 0
2312 3777 -3863 -66 0
-2312 66 0
-2312 3863 0
-2312 -3777 0
2313 3781 -3782 3783 -1892 0
-2313 3782 0
-2313 -3783 0
-2313 -3781 0
-2313 1892 0
2314 1893 1896 1898 -2315 0
-2314 2315 0
-2314 -1898 0
-2314 -1893 0
-2314 -1896 0
2315 1899 1901 2316 -2318 0
-2315 2318 0
-2315 -2316 0
-2315 -1899 0
-2315 -1901 0
2316 -3767 3853 3860 -2317 0
-2316 2317 0
-2316 -3860 0
-2316 3767 0
-2316 -3853 0
2317 3851 -66 0
-2317 -3851 0
-2317 66 0
2318 2319 2320 2321 -2322 0
-2318 2322 0
-2318 -2321 0
-2318 -2319 0
-2318 -2320 0
2319 3767 -3853 -66 0
-2319 66 0
-2319 3853 0
-2319 -3767 0
2320 -3766 3852 -66 0
-2320 3766 0
-2320 -3852 0
-2320 66 0
2321 -3769 3855 -66 0
-2321 3769 0
-2321 -3855 0
-2321 66 0
2322 1904 2323 2324 -2325 0
-2322 2325 0
-2322 -2324 0
-2322 -1904 0
-2322 -2323 0
2323 -3770 3856 -66 0
-2323 3770 0
-2323 -3856 0
-2323 66 0
2324 -3765 3851 3860 -66 0
-2324 66 0
-2324 -3860 0
-2324 3765 0
-2324 -3851 0
2325 1905 1907 -2327 0
2325 1905 1907 -2326 0
-2325 -1905 0
-2325 -1907 0
-2325 2326 2327 0
2326 3777 -3863 -61 0
-2326 61 0
-2326 3863 0
-2326 -3777 0
2327 1909 1914 2328 -2329 0
-2327 2329 0
-2327 -2328 0
-2327 -1909 0
-2327 -1914 0
2328 3781 -3782 3783 -1913 0
-2328 3782 0
-2328 -3783 0
-2328 -3781 0
-2328 1913 0
2329 1916 1919 1920 -2330 0
-2329 2330 0
-2329 -1920 0
-2329 -1916 0
-2329 -1919 0
2330 1921 2331 2332 -2333 0
-2330 2333 0
-2330 -2332 0
-2330 -1921 0
-2330 -2331 0
2331 3765 -3851 -61 0
-2331 61 0
-2331 3851 0
-2331 -3765 0
2332 -3770 3856 -61 0
-2332 3770 0
-2332 -3856 0
-2332 61 0
2333 1925 1926 1927 -2334 0
-2333 2334 0
-2333 -1927 0
-2333 -1925 0
-2333 -1926 0
2334 1929 1931 -2336 0
2334 1929 1931 -2335 0
-2334 -1929 0
-2334 -1931 0
-2334 2335 2336 0
2335 3777 -3863 -56 0
-2335 56 0
-2335 3863 0
-2335 -3777 0
2336 1934 1938 2337 -2338 0
-2336 2338 0
-2336 -2337 0
-2336 -1934 0
-2336 -1938 0
2337 3781 -3782 3783 -1937 0
-2337 3782 0
-2337 -3783 0
-2337 -3781 0
-2337 1937 0
2338 1941 1943 1944 -2339 0
-2338 2339 0
-2338 -1944 0
-2338 -1941 0
-2338 -1943 0
2339 1946 2340 2341 -2342 0
-2339 2342 0
-2339 -2341 0
-2339 -1946 0
-2339 -2340 0
2340 -3766 3852 -56 0
-2340 3766 0
-2340 -3852 0
-2340 56 0
2341 -3770 3856 -56 0
-2341 3770 0
-2341 -3856 0
-2341 56 0
2342 1950 1951 1952 -2343 0
-2342 2343 0
-2342 -1952 0
-2342 -1950 0
-2342 -1951 0
2343 1954 -2344 0
2343 1954 1957 -2345 0
-2343 -1954 0
-2343 -1957 2344 0
-2343 2344 2345 0
2344 3777 -3863 -51 0
-2344 51 0
-2344 3863 0
-2344 -3777 0
2345 1959 1961 1964 -2346 0
-2345 2346 0
-2345 -1964 0
-2345 -1959 0
-2345 -1961 0
2346 1966 1967 1969 -2347 0
-2346 2347 0
-2346 -1969 0
-2346 -1966 0
-2346 -1967 0
2347 1970 -2348 0
2347 1970 1973 -2349 0
-2347 -1970 0
-2347 -1973 2348 0
-2347 2348 2349 0
2348 3777 -3863 -42 0
-2348 42 0
-2348 3863 0
-2348 -3777 0
2349 1975 1980 2350 -2351 0
-2349 2351 0
-2349 -2350 0
-2349 -1975 0
-2349 -1980 0
2350 3781 -3782 3783 -1978 0
-2350 3782 0
-2350 -3783 0
-2350 -3781 0
-2350 1978 0
2351 1982 1983 1985 -2352 0
-2351 2352 0
-2351 -1985 0
-2351 -1982 0
-2351 -1983 0
2352 1986 -2353 0
2352 1986 2355 -2356 0
-2352 -1986 0
-2352 2353 2356 0
-2352 2353 -2355 0
2353 -3764 3845 3850 -2354 0
-2353 2354 0
-2353 -3850 0
-2353 3764 0
-2353 -3845 0
2354 3854 -42 0
-2354 -3854 0
-2354 42 0
2355 -3770 3856 -42 0
-2355 3770 0
-2355 -3856 0
-2355 42 0
2356 1989 1991 1992 -2357 0
-2356 2357 0
-2356 -1992 0
-2356 -1989 0
-2356 -1991 0
2357 1993 1996 -2359 0
2357 1993 1996 -2358 0
-2357 -1993 0
-2357 -1996 0
-2357 2358 2359 0
2358 3777 -3863 -37 0
-2358 37 0
-2358 3863 0
-2358 -3777 0
2359 1998 2001 2360 -2361 0
-2359 2361 0
-2359 -2360 0
-2359 -1998 0
-2359 -2001 0
2360 3781 -3782 3783 -2004 0
-2360 3782 0
-2360 -3783 0
-2360 -3781 0
-2360 2004 0
2361 2005 2008 2009 -2362 0
-2361 2362 0
-2361 -2009 0
-2361 -2005 0
-2361 -2008 0
2362 2010 -2366 0
2362 2010 -2365 0
2362 2010 -2363 0
-2362 -2010 0
-2362 2363 2365 2366 0
2363 -3764 3845 3850 -2364 0
-2363 2364 0
-2363 -3850 0
-2363 3764 0
-2363 -3845 0
2364 3854 -37 0
-2364 -3854 0
-2364 37 0
2365 -3770 3856 -37 0
-2365 3770 0
-2365 -3856 0
-2365 37 0
2366 2014 -2367 0
2366 2014 2016 -2368 0
-2366 -2014 0
-2366 -2016 2367 0
-2366 2367 2368 0
2367 3777 -3863 -45 0
-2367 45 0
-2367 3863 0
-2367 -3777 0
2368 2018 2019 2020 -2369 0
-2368 2369 0
-2368 -2020 0
-2368 -2018 0
-2368 -2019 0
2369 2022 2023 2024 -2370 0
-2369 2370 0
-2369 -2024 0
-2369 -2022 0
-2369 -2023 0
-2370 2371 2372 2373 2374 0
2370 -2374 0
2370 -2373 0
2370 -2371 0
2370 -2372 0
2371 -3759 3845 106 0
-2371 3759 0
-2371 -3845 0
-2371 -106 0
2372 -3760 3846 106 0
-2372 3760 0
-2372 -3846 0
-2372 -106 0
2373 -3761 3847 106 0
-2373 3761 0
-2373 -3847 0
-2373 -106 0
-2374 2375 2376 2377 2378 0
2374 -2378 0
2374 -2377 0
2374 -2375 0
2374 -2376 0
2375 -3762 3848 106 0
-2375 3762 0
-2375 -3848 0
-2375 -106 0
2376 -3763 3849 106 0
-2376 3763 0
-2376 -3849 0
-2376 -106 0
2377 -3758 3844 106 0
-2377 3758 0
-2377 -3844 0
-2377 -106 0
2378 2027 2029 2379 -2380 0
-2378 2380 0
-2378 -2379 0
-2378 -2027 0
-2378 -2029 0
2379 3781 -3782 3783 2033 0
-2379 3782 0
-2379 -3783 0
-2379 -3781 0
-2379 -2033 0
2380 2034 2036 2039 -2381 0
-2380 2381 0
-2380 -2039 0
-2380 -2034 0
-2380 -2036 0
2381 2040 2041 -2383 0
2381 2040 2041 -2382 0
-2381 -2040 0
-2381 -2041 0
-2381 2382 2383 0
2382 3780 -3866 -115 0
-2382 115 0
-2382 3866 0
-2382 -3780 0
2383 2044 2046 2384 -2385 0
-2383 2385 0
-2383 -2384 0
-2383 -2044 0
-2383 -2046 0
2384 3781 -3782 3783 -2049 0
-2384 3782 0
-2384 -3783 0
-2384 -3781 0
-2384 2049 0
2385 2051 2053 2055 -2386 0
-2385 2386 0
-2385 -2055 0
-2385 -2051 0
-2385 -2053 0
-2386 2387 2388 2389 2390 0
2386 -2390 0
2386 -2389 0
2386 -2387 0
2386 -2388 0
2387 3753 -3839 -107 0
-2387 107 0
-2387 3839 0
-2387 -3753 0
2388 -3759 3845 -107 0
-2388 3759 0
-2388 -3845 0
-2388 107 0
2389 -3780 3866 -107 0
-2389 3780 0
-2389 -3866 0
-2389 107 0
2390 2058 2060 2391 -2392 0
-2390 2392 0
-2390 -2391 0
-2390 -2058 0
-2390 -2060 0
2391 3781 -3782 3783 -2064 0
-2391 3782 0
-2391 -3783 0
-2391 -3781 0
-2391 2064 0
2392 2065 2067 2070 -2393 0
-2392 2393 0
-2392 -2070 0
-2392 -2065 0
-2392 -2067 0
2393 2071 2072 2074 -2394 0
-2393 2394 0
-2393 -2074 0
-2393 -2071 0
-2393 -2072 0
2394 2075 2076 2079 -2395 0
-2394 2395 0
-2394 -2079 0
-2394 -2075 0
-2394 -2076 0
2395 2083 2086 2396 -2397 0
-2395 2397 0
-2395 -2396 0
-2395 -2083 0
-2395 -2086 0
2396 3781 -3782 3783 -2082 0
-2396 3782 0
-2396 -3783 0
-2396 -3781 0
-2396 2082 0
2397 2087 2088 2090 -2398 0
-2397 2398 0
-2397 -2090 0
-2397 -2087 0
-2397 -2088 0
2398 2091 2092 2094 -2399 0
-2398 2399 0
-2398 -2094 0
-2398 -2091 0
-2398 -2092 0
2399 2095 2096 2098 -2400 0
-2399 2400 0
-2399 -2098 0
-2399 -2095 0
-2399 -2096 0
2400 2099 2100 2102 -2401 0
-2400 2401 0
-2400 -2102 0
-2400 -2099 0
-2400 -2100 0
2401 2103 2104 2107 -2402 0
-2401 2402 0
-2401 -2107 0
-2401 -2103 0
-2401 -2104 0
2402 2108 2109 2111 -2403 0
-2402 2403 0
-2402 -2111 0
-2402 -2108 0
-2402 -2109 0
2403 2113 2118 2404 -2405 0
-2403 2405 0
-2403 -2404 0
-2403 -2113 0
-2403 -2118 0
2404 3781 -3782 3783 -2116 0
-2404 3782 0
-2404 -3783 0
-2404 -3781 0
-2404 2116 0
2405 2120 2121 2123 -2406 0
-2405 2406 0
-2405 -2123 0
-2405 -2120 0
-2405 -2121 0
2406 2124 2125 2127 -2407 0
-2406 2407 0
-2406 -2127 0
-2406 -2124 0
-2406 -2125 0
2407 2128 2129 2131 -2408 0
-2407 2408 0
-2407 -2131 0
-2407 -2128 0
-2407 -2129 0
2408 2132 2133 2135 -2409 0
-2408 2409 0
-2408 -2135 0
-2408 -2132 0
-2408 -2133 0
2409 2139 2142 2410 -2411 0
-2409 2411 0
-2409 -2410 0
-2409 -2139 0
-2409 -2142 0
2410 3781 -3782 3783 -2138 0
-2410 3782 0
-2410 -3783 0
-2410 -3781 0
-2410 2138 0
2411 2144 2145 2147 -2412 0
-2411 2412 0
-2411 -2147 0
-2411 -2144 0
-2411 -2145 0
2412 -3829 2148 2149 2413 0
-2412 -2413 0
-2412 -2149 0
-2412 3829 0
-2412 -2148 0
2413 2414 -2416 2439 0
2413 -2152 2414 2439 0
-2413 -2439 0
-2413 -2414 0
-2413 2152 2416 0
2414 -3765 3851 3860 -2415 0
-2414 2415 0
-2414 -3860 0
-2414 3765 0
-2414 -3851 0
2415 3828 -53 0
-2415 -3828 0
-2415 53 0
-2416 2154 2155 2156 2417 0
2416 -2417 0
2416 -2156 0
2416 -2154 0
2416 -2155 0
-2417 2158 2162 2418 2419 0
2417 -2419 0
2417 -2418 0
2417 -2158 0
2417 -2162 0
2418 3781 -3782 3783 -2161 0
-2418 3782 0
-2418 -3783 0
-2418 -3781 0
-2418 2161 0
-2419 2165 2167 2168 2420 0
2419 -2420 0
2419 -2168 0
2419 -2165 0
2419 -2167 0
-2420 2170 2171 2172 2421 0
2420 -2421 0
2420 -2172 0
2420 -2170 0
2420 -2171 0
2421 3853 -2423 0
2421 2422 -2423 0
2421 -3767 -2423 0
-2421 2423 0
-2421 3767 -3853 -2422 0
2422 3828 -44 0
-2422 -3828 0
-2422 44 0
2423 138 -2175 2435 0
2423 138 -2424 2435 0
-2423 -2435 0
-2423 -138 0
-2423 2175 2424 0
-2424 2195 2196 2425 2431 0
2424 -2431 0
2424 -2425 0
2424 -2195 0
2424 -2196 0
2425 -2178 -2193 0
2425 -2193 2426 -2427 0
-2425 2193 0
-2425 2178 2427 0
-2425 2178 -2426 0
2426 3777 3828 -3863 -47 0
-2426 -3777 0
-2426 47 0
-2426 3863 0
-2426 -3828 0
-2427 2428 2182 2184 2429 0
2427 -2429 0
2427 -2184 0
2427 -2428 0
2427 -2182 0
2428 -3763 3849 0
-2428 3763 0
-2428 -3849 0
-2429 2185 2186 2188 2430 0
2429 -2430 0
2429 -2188 0
2429 -2185 0
2429 -2186 0
-2430 -1698 2189 2191 0
-2430 2189 2191 2262 0
2430 -2191 0
2430 -2189 0
2430 1698 -2262 0
-2431 2197 2199 2200 2432 0
2431 -2432 0
2431 -2200 0
2431 -2197 0
2431 -2199 0
-2432 2201 2203 2205 2433 0
2432 -2433 0
2432 -2205 0
2432 -2201 0
2432 -2203 0
-2433 -3781 2209 0
-2433 3782 2209 0
-2433 2209 2434 0
2433 -2209 0
2433 3781 -3782 -2434 0
2434 3783 1698 -2176 0
-2434 2176 0
-2434 -1698 0
-2434 -3783 0
-2435 -3765 2437 2438 0
-2435 2436 2437 2438 0
2435 -2438 0
2435 -2437 0
2435 3765 -2436 0
2436 -3851 -2422 0
-2436 3851 0
-2436 2422 0
2437 -3767 3853 3860 -2436 0
-2437 2436 0
-2437 -3860 0
-2437 3767 0
-2437 -3853 0
2438 -3770 3856 -2422 0
-2438 3770 0
-2438 -3856 0
-2438 2422 0
-2439 3770 2440 0
-2439 -3856 2440 0
-2439 2415 2440 0
2439 -2440 0
2439 -3770 3856 -2415 0
-2440 3769 2441 0
-2440 -3855 2441 0
-2440 2415 2441 0
2440 -2441 0
2440 -3769 3855 -2415 0
-2441 3766 2442 0
-2441 -3852 2442 0
-2441 2415 2442 0
2441 -2442 0
2441 -3766 3852 -2415 0
-2442 3853 2443 0
-2442 -3767 2443 0
-2442 2415 2443 0
2442 -2443 0
2442 3767 -3853 -2415 0
2443 -3767 3853 3860 -2444 0
-2443 2444 0
-2443 -3860 0
-2443 3767 0
-2443 -3853 0
2444 3851 -2415 0
-2444 -3851 0
-2444 2415 0
-2445 3749 2446 0
-2445 -3749 -2446 0
2445 -3749 2446 0
2445 3749 -2446 0
-2446 1671 1674 1676 2447 0
2446 -2447 0
2446 -1676 0
2446 -1671 0
2446 -1674 0
-2447 1678 1679 1681 2448 0
2447 -2448 0
2447 -1681 0
2447 -1678 0
2447 -1679 0
-2448 1683 1684 1686 2449 0
2448 -2449 0
2448 -1686 0
2448 -1683 0
2448 -1684 0
2449 1689 1690 1693 -2450 0
-2449 2450 0
-2449 -1693 0
-2449 -1689 0
-2449 -1690 0
2450 1700 1703 2261 -2451 0
-2450 2451 0
-2450 -2261 0
-2450 -1700 0
-2450 -1703 0
2451 1706 1707 1708 -2452 0
-2451 2452 0
-2451 -1708 0
-2451 -1706 0
-2451 -1707 0
2452 1710 1711 1713 -2453 0
-2452 2453 0
-2452 -1713 0
-2452 -1710 0
-2452 -1711 0
2453 1716 -1717 0
2453 1716 -2454 0
-2453 -1716 0
-2453 1717 2454 0
2454 1721 1722 1726 -2455 0
-2454 2455 0
-2454 -1726 0
-2454 -1721 0
-2454 -1722 0
2455 1730 -1733 0
2455 1730 -2456 0
2455 1730 -1737 0
-2455 -1730 0
-2455 1733 1737 2456 0
-2456 1742 1745 1748 2457 0
2456 -2457 0
2456 -1748 0
2456 -1742 0
2456 -1745 0
-2457 1752 1755 2458 0
-2457 1752 1755 -1759 0
2457 -1752 0
2457 -1755 0
2457 1759 -2458 0
-2458 1764 -1769 0
-2458 1764 1773 2459 0
2458 -1764 0
2458 1769 -2459 0
2458 1769 -1773 0
-2459 1777 1781 1784 2460 0
2459 -2460 0
2459 -1784 0
2459 -1777 0
2459 -1781 0
2460 1788 1792 1795 -2461 0
-2460 2461 0
-2460 -1795 0
-2460 -1788 0
-2460 -1792 0
2461 1799 1803 1806 -2462 0
-2461 2462 0
-2461 -1806 0
-2461 -1799 0
-2461 -1803 0
2462 1811 -1814 0
2462 1811 -2463 0
2462 1811 -1817 0
-2462 -1811 0
-2462 1814 1817 2463 0
-2463 1822 1826 2464 0
-2463 1822 1826 -1830 0
2463 -1822 0
2463 -1826 0
2463 1830 -2464 0
2464 1834 -1837 2252 0
2464 1834 2252 -2465 0
-2464 -1834 0
-2464 -2252 0
-2464 1837 2465 0
-2465 1839 -1842 2286 0
-2465 1839 2286 2466 0
2465 -1839 0
2465 -2286 0
2465 1842 -2466 0
2466 1844 1849 2288 -2467 0
-2466 2467 0
-2466 -2288 0
-2466 -1844 0
-2466 -1849 0
2467 1851 1852 1854 -2468 0
-2467 2468 0
-2467 -1854 0
-2467 -1851 0
-2467 -1852 0
2468 1855 1856 2291 -2469 0
-2468 2469 0
-2468 -2291 0
-2468 -1855 0
-2468 -1856 0
2469 2292 2294 2295 -2470 0
-2469 2470 0
-2469 -2295 0
-2469 -2292 0
-2469 -2294 0
2470 2296 2298 -2471 0
2470 2296 2298 -2299 0
-2470 -2296 0
-2470 -2298 0
-2470 2299 2471 0
-2471 1860 1861 1863 2472 0
2471 -2472 0
2471 -1863 0
2471 -1860 0
2471 -1861 0
-2472 1865 1866 2302 2473 0
2472 -2473 0
2472 -2302 0
2472 -1865 0
2472 -1866 0
2473 1869 1871 2304 -2474 0
-2473 2474 0
-2473 -2304 0
-2473 -1869 0
-2473 -1871 0
2474 1876 1878 1879 -2475 0
-2474 2475 0
-2474 -1879 0
-2474 -1876 0
-2474 -1878 0
2475 1881 -2476 0
2475 1881 -2308 0
2475 1881 -2307 0
-2475 -1881 0
-2475 2307 2308 2476 0
2476 -1885 2309 0
2476 2309 -2477 0
2476 -1884 2309 0
-2476 -2309 0
-2476 1884 1885 2477 0
-2477 1886 -1889 2312 0
-2477 1886 2312 2478 0
2477 -1886 0
2477 -2312 0
2477 1889 -2478 0
2478 1893 1896 2313 -2479 0
-2478 2479 0
-2478 -2313 0
-2478 -1893 0
-2478 -1896 0
2479 1898 1899 1901 -2480 0
-2479 2480 0
-2479 -1901 0
-2479 -1898 0
-2479 -1899 0
2480 2316 2319 2320 -2481 0
-2480 2481 0
-2480 -2320 0
-2480 -2316 0
-2480 -2319 0
2481 2321 2323 -2482 0
2481 2321 2323 -2324 0
-2481 -2321 0
-2481 -2323 0
-2481 2324 2482 0
-2482 1904 1905 1907 2483 0
2482 -2483 0
2482 -1907 0
2482 -1904 0
2482 -1905 0
-2483 2326 2484 0
-2483 -1909 2326 0
-2483 2326 -2328 0
2483 -2326 0
2483 1909 2328 -2484 0
2484 1914 1916 1919 -2485 0
-2484 2485 0
-2484 -1919 0
-2484 -1914 0
-2484 -1916 0
2485 1920 1921 2331 -2486 0
-2485 2486 0
-2485 -2331 0
-2485 -1920 0
-2485 -1921 0
-2486 1925 1926 2332 2487 0
2486 -2487 0
2486 -2332 0
2486 -1925 0
2486 -1926 0
-2487 1927 1929 1931 2488 0
2487 -2488 0
2487 -1931 0
2487 -1927 0
2487 -1929 0
-2488 2335 2489 0
-2488 -1934 2335 0
-2488 2335 -2337 0
2488 -2335 0
2488 1934 2337 -2489 0
2489 1938 1941 1943 -2490 0
-2489 2490 0
-2489 -1943 0
-2489 -1938 0
-2489 -1941 0
2490 1944 1946 -2491 0
2490 1944 1946 -2340 0
-2490 -1944 0
-2490 -1946 0
-2490 2340 2491 0
-2491 1950 1951 2341 2492 0
2491 -2492 0
2491 -2341 0
2491 -1950 0
2491 -1951 0
-2492 1952 1954 2344 2493 0
2492 -2493 0
2492 -2344 0
2492 -1952 0
2492 -1954 0
2493 1957 1959 1961 -2494 0
-2493 2494 0
-2493 -1961 0
-2493 -1957 0
-2493 -1959 0
2494 1964 1966 1967 -2495 0
-2494 2495 0
-2494 -1967 0
-2494 -1964 0
-2494 -1966 0
-2495 1969 1970 2348 2496 0
2495 -2496 0
2495 -2348 0
2495 -1969 0
2495 -1970 0
2496 1973 1975 2350 -2497 0
-2496 2497 0
-2496 -2350 0
-2496 -1973 0
-2496 -1975 0
2497 1980 1982 1983 -2498 0
-2497 2498 0
-2497 -1983 0
-2497 -1980 0
-2497 -1982 0
2498 1985 1986 2353 -2499 0
-2498 2499 0
-2498 -2353 0
-2498 -1985 0
-2498 -1986 0
-2499 1989 1991 2355 2500 0
2499 -2500 0
2499 -2355 0
2499 -1989 0
2499 -1991 0
-2500 1992 1993 1996 2501 0
2500 -2501 0
2500 -1996 0
2500 -1992 0
2500 -1993 0
-2501 -2001 2358 0
-2501 2358 2502 0
-2501 -1998 2358 0
2501 -2358 0
2501 1998 2001 -2502 0
2502 2005 2008 2360 -2503 0
-2502 2503 0
-2502 -2360 0
-2502 -2005 0
-2502 -2008 0
2503 2009 2010 -2504 0
2503 2009 2010 -2363 0
-2503 -2009 0
-2503 -2010 0
-2503 2363 2504 0
2504 2365 -2505 0
2504 -2014 2365 0
2504 2365 -2367 0
-2504 -2365 0
-2504 2014 2367 2505 0
2505 2016 2018 2019 -2506 0
-2505 2506 0
-2505 -2019 0
-2505 -2016 0
-2505 -2018 0
2506 2020 2022 -2507 0
2506 2020 2022 -2023 0
-2506 -2020 0
-2506 -2022 0
-2506 2023 2507 0
-2507 2024 2371 2372 2508 0
2507 -2508 0
2507 -2372 0
2507 -2024 0
2507 -2371 0
-2508 2373 2375 2376 2509 0
2508 -2509 0
2508 -2376 0
2508 -2373 0
2508 -2375 0
-2509 -2029 2377 0
-2509 2377 2510 0
-2509 -2027 2377 0
2509 -2377 0
2509 2027 2029 -2510 0
2510 2034 2036 2379 -2511 0
-2510 2511 0
-2510 -2379 0
-2510 -2034 0
-2510 -2036 0
-2511 2039 2040 2041 2512 0
2511 -2512 0
2511 -2041 0
2511 -2039 0
2511 -2040 0
-2512 -2046 2382 0
-2512 2382 2513 0
-2512 -2044 2382 0
2512 -2382 0
2512 2044 2046 -2513 0
2513 2051 2053 2384 -2514 0
-2513 2514 0
-2513 -2384 0
-2513 -2051 0
-2513 -2053 0
-2514 2055 2387 2388 2515 0
2514 -2515 0
2514 -2388 0
2514 -2055 0
2514 -2387 0
-2515 -2060 2389 0
-2515 2389 2516 0
-2515 -2058 2389 0
2515 -2389 0
2515 2058 2060 -2516 0
2516 2065 2067 2391 -2517 0
-2516 2517 0
-2516 -2391 0
-2516 -2065 0
-2516 -2067 0
-2517 2070 2071 2072 2518 0
2517 -2518 0
2517 -2072 0
2517 -2070 0
2517 -2071 0
-2518 2074 2075 2519 0
-2518 2074 2075 -2076 0
2518 -2074 0
2518 -2075 0
2518 2076 -2519 0
2519 2079 2083 2396 -2520 0
-2519 2520 0
-2519 -2396 0
-2519 -2079 0
-2519 -2083 0
2520 2086 2087 2088 -2521 0
-2520 2521 0
-2520 -2088 0
-2520 -2086 0
-2520 -2087 0
2521 2090 2091 2092 -2522 0
-2521 2522 0
-2521 -2092 0
-2521 -2090 0
-2521 -2091 0
2522 2094 2095 2096 -2523 0
-2522 2523 0
-2522 -2096 0
-2522 -2094 0
-2522 -2095 0
2523 2098 2099 -2524 0
2523 2098 2099 -2100 0
-2523 -2098 0
-2523 -2099 0
-2523 2100 2524 0
-2524 2102 2103 2104 2525 0
2524 -2525 0
2524 -2104 0
2524 -2102 0
2524 -2103 0
-2525 2107 2108 2109 2526 0
2525 -2526 0
2525 -2109 0
2525 -2107 0
2525 -2108 0
2526 2111 2113 2404 -2527 0
-2526 2527 0
-2526 -2404 0
-2526 -2111 0
-2526 -2113 0
2527 2118 2120 2121 -2528 0
-2527 2528 0
-2527 -2121 0
-2527 -2118 0
-2527 -2120 0
2528 2123 2124 2125 -2529 0
-2528 2529 0
-2528 -2125 0
-2528 -2123 0
-2528 -2124 0
2529 2127 2128 -2530 0
2529 2127 2128 -2129 0
-2529 -2127 0
-2529 -2128 0
-2529 2129 2530 0
-2530 2131 2132 2133 2531 0
2530 -2531 0
2530 -2133 0
2530 -2131 0
2530 -2132 0
2531 2135 2139 2410 -2532 0
-2531 2532 0
-2531 -2410 0
-2531 -2135 0
-2531 -2139 0
2532 2142 2144 2145 -2533 0
-2532 2533 0
-2532 -2145 0
-2532 -2142 0
-2532 -2144 0
2533 2147 2148 2149 -2534 0
-2533 2534 0
-2533 -2149 0
-2533 -2147 0
-2533 -2148 0
-2534 2535 2537 2538 2539 0
2534 -2539 0
2534 -2538 0
2534 -2535 0
2534 -2537 0
2535 -3767 3853 3860 -2536 0
-2535 2536 0
-2535 -3860 0
-2535 3767 0
-2535 -3853 0
2536 3851 -59 0
-2536 -3851 0
-2536 59 0
2537 3767 -3853 -59 0
-2537 59 0
-2537 3853 0
-2537 -3767 0
2538 -3766 3852 -59 0
-2538 3766 0
-2538 -3852 0
-2538 59 0
-2539 2540 2541 2542 2543 0
2539 -2543 0
2539 -2542 0
2539 -2540 0
2539 -2541 0
2540 -3769 3855 -59 0
-2540 3769 0
-2540 -3855 0
-2540 59 0
2541 -3770 3856 -59 0
-2541 3770 0
-2541 -3856 0
-2541 59 0
2542 -3765 3851 3860 -59 0
-2542 59 0
-2542 -3860 0
-2542 3765 0
-2542 -3851 0
-2543 2152 2154 2155 2544 0
2543 -2544 0
2543 -2155 0
2543 -2152 0
2543 -2154 0
-2544 2156 -2158 0
-2544 2156 2545 0
-2544 2156 -2418 0
2544 -2156 0
2544 2158 2418 -2545 0
2545 2162 2165 2167 -2546 0
-2545 2546 0
-2545 -2167 0
-2545 -2162 0
-2545 -2165 0
2546 2168 2170 2171 -2547 0
-2546 2547 0
-2546 -2171 0
-2546 -2168 0
-2546 -2170 0
2547 2172 -2548 0
2547 2172 -2550 0
2547 2172 -2549 0
-2547 -2172 0
-2547 2548 2549 2550 0
2548 3765 -3851 -54 0
-2548 54 0
-2548 3851 0
-2548 -3765 0
2549 -3770 3856 -54 0
-2549 3770 0
-2549 -3856 0
-2549 54 0
-2550 2551 2553 2554 2555 0
2550 -2555 0
2550 -2554 0
2550 -2551 0
2550 -2553 0
2551 -3767 3853 3860 -2552 0
-2551 2552 0
-2551 -3860 0
-2551 3767 0
-2551 -3853 0
2552 -3851 -54 0
-2552 3851 0
-2552 54 0
2553 3767 -3853 -54 0
-2553 54 0
-2553 3853 0
-2553 -3767 0
2554 3778 -3864 -48 0
-2554 48 0
-2554 3864 0
-2554 -3778 0
-2555 2556 2557 2558 2560 0
2555 -2560 0
2555 -2558 0
2555 -2556 0
2555 -2557 0
2556 -3773 -3854 3859 -48 0
-2556 48 0
-2556 3773 0
-2556 3854 0
-2556 -3859 0
2557 3767 -3853 -48 0
-2557 48 0
-2557 3853 0
-2557 -3767 0
2558 -3765 -3853 3860 -2559 0
-2558 2559 0
-2558 3765 0
-2558 3853 0
-2558 -3860 0
2559 3851 -48 0
-2559 -3851 0
-2559 48 0
-2560 3830 2561 2562 2563 0
2560 -2563 0
2560 -2562 0
2560 -3830 0
2560 -2561 0
2561 3753 -3839 -48 0
-2561 48 0
-2561 3839 0
-2561 -3753 0
2562 3777 -3863 -48 0
-2562 48 0
-2562 3863 0
-2562 -3777 0
2563 3770 -2565 0
2563 -3856 -2565 0
2563 2564 -2565 0
-2563 2565 0
-2563 -3770 3856 -2564 0
2564 -3828 3829 40 0
-2564 3828 0
-2564 -3829 0
-2564 -40 0
2565 -78 -2178 2567 0
2565 -78 -2566 2567 0
-2565 -2567 0
-2565 78 0
-2565 2178 2566 0
2566 3777 -3863 0
-2566 -3777 0
-2566 3863 0
-2567 3766 2568 0
-2567 -3852 2568 0
-2567 2564 2568 0
2567 -2568 0
2567 -3766 3852 -2564 0
-2568 3758 2569 0
-2568 -3844 2569 0
-2568 2564 2569 0
2568 -2569 0
2568 -3758 3844 -2564 0
-2569 3763 2570 0
-2569 -3849 2570 0
-2569 2564 2570 0
2569 -2570 0
2569 -3763 3849 -2564 0
-2570 3762 2571 0
-2570 -3848 2571 0
-2570 2564 2571 0
2570 -2571 0
2570 -3762 3848 -2564 0
-2571 3761 2572 0
-2571 -3847 2572 0
-2571 2564 2572 0
2571 -2572 0
2571 -3761 3847 -2564 0
-2572 3760 2573 0
-2572 -3846 2573 0
-2572 2564 2573 0
2572 -2573 0
2572 -3760 3846 -2564 0
-2573 3781 2575 2576 0
-2573 -3781 2574 2576 0
2573 -2576 0
2573 3781 -2575 0
2573 -3781 -2574 0
2574 3782 3783 1704 -2564 0
-2574 2564 0
-2574 -1704 0
-2574 -3782 0
-2574 -3783 0
2575 -3782 -3783 1701 -2564 0
-2575 2564 0
-2575 3782 0
-2575 3783 0
-2575 -1701 0
-2576 -3781 0
-2576 -3782 2577 0
-2576 3782 2578 0
2576 3781 3782 -2578 0
2576 3781 -3782 -2577 0
2577 3783 1698 -2564 0
-2577 2564 0
-2577 -1698 0
-2577 -3783 0
2578 3783 -1691 -2564 0
-2578 2564 0
-2578 1691 0
-2578 -3783 0
2579 3750 2580 2693 -2809 0
2579 -3750 -2580 2693 -2809 0
-2579 2809 0
-2579 -3750 2580 0
-2579 -2693 0
-2579 3750 -2580 0
2580 1671 1674 1676 -2581 0
-2580 2581 0
-2580 -1676 0
-2580 -1671 0
-2580 -1674 0
2581 1678 1679 1681 -2582 0
-2581 2582 0
-2581 -1681 0
-2581 -1678 0
-2581 -1679 0
2582 1683 1684 1686 -2583 0
-2582 2583 0
-2582 -1686 0
-2582 -1683 0
-2582 -1684 0
-2583 1689 1690 1693 2584 0
2583 -2584 0
2583 -1693 0
2583 -1689 0
2583 -1690 0
-2584 1697 1700 1703 2585 0
2584 -2585 0
2584 -1703 0
2584 -1697 0
2584 -1700 0
-2585 1706 1707 1708 2586 0
2585 -2586 0
2585 -1708 0
2585 -1706 0
2585 -1707 0
-2586 1710 1711 1713 2587 0
2586 -2587 0
2586 -1713 0
2586 -1710 0
2586 -1711 0
-2587 1716 -1721 0
-2587 1716 2588 0
-2587 1716 -2266 0
2587 -1716 0
2587 1721 2266 -2588 0
2588 1722 1726 1730 -2589 0
-2588 2589 0
-2588 -1730 0
-2588 -1722 0
-2588 -1726 0
2589 1737 1742 2271 -2590 0
-2589 2590 0
-2589 -2271 0
-2589 -1737 0
-2589 -1742 0
2590 1745 1748 1752 -2591 0
-2590 2591 0
-2590 -1752 0
-2590 -1745 0
-2590 -1748 0
2591 1755 -2276 0
2591 1755 1764 -2592 0
-2591 -1755 0
-2591 -1764 2276 0
-2591 2276 2592 0
-2592 1769 2593 0
-2592 1769 -1777 0
-2592 1769 -1773 0
2592 -1769 0
2592 1773 1777 -2593 0
-2593 1781 1784 2594 0
-2593 1781 1784 -1788 0
2593 -1781 0
2593 -1784 0
2593 1788 -2594 0
-2594 1792 1795 2595 0
-2594 1792 1795 -1799 0
2594 -1792 0
2594 -1795 0
2594 1799 -2595 0
2595 1803 -1806 0
2595 1803 -2596 0
2595 1803 -1811 0
-2595 -1803 0
-2595 1806 1811 2596 0
-2596 1814 1817 1822 2597 0
2596 -2597 0
2596 -1822 0
2596 -1814 0
2596 -1817 0
-2597 1826 2598 0
-2597 1826 -1834 0
-2597 1826 -1830 0
2597 -1826 0
2597 1830 1834 -2598 0
-2598 -1839 2252 0
-2598 2252 2599 0
-2598 -1837 2252 0
2598 -2252 0
2598 1837 1839 -2599 0
2599 -1844 2286 0
2599 2286 -2600 0
2599 -1842 2286 0
-2599 -2286 0
-2599 1842 1844 2600 0
-2600 1846 1849 1851 2601 0
2600 -2601 0
2600 -1851 0
2600 -1846 0
2600 -1849 0
-2601 1852 1854 1855 2602 0
2601 -2602 0
2601 -1855 0
2601 -1852 0
2601 -1854 0
-2602 1856 2291 2292 2603 0
2602 -2603 0
2602 -2292 0
2602 -1856 0
2602 -2291 0
-2603 2294 2295 2296 2604 0
2603 -2604 0
2603 -2296 0
2603 -2294 0
2603 -2295 0
-2604 -1860 2298 2299 0
-2604 2298 2299 2605 0
2604 -2299 0
2604 -2298 0
2604 1860 -2605 0
2605 1861 1863 1865 -2606 0
-2605 2606 0
-2605 -1865 0
-2605 -1861 0
-2605 -1863 0
2606 1866 -1869 2302 0
2606 1866 2302 -2607 0
-2606 -1866 0
-2606 -2302 0
-2606 1869 2607 0
-2607 1871 1873 1876 2608 0
2607 -2608 0
2607 -1876 0
2607 -1871 0
2607 -1873 0
-2608 1878 1879 1881 2609 0
2608 -2609 0
2608 -1881 0
2608 -1878 0
2608 -1879 0
2609 2307 2308 2309 -2610 0
-2609 2610 0
-2609 -2309 0
-2609 -2307 0
-2609 -2308 0
2610 1884 1885 1886 -2611 0
-2610 2611 0
-2610 -1886 0
-2610 -1884 0
-2610 -1885 0
2611 -1891 2312 0
2611 2312 -2612 0
2611 -1889 2312 0
-2611 -2312 0
-2611 1889 1891 2612 0
-2612 1893 1896 1898 2613 0
2612 -2613 0
2612 -1898 0
2612 -1893 0
2612 -1896 0
-2613 1899 1901 2316 2614 0
2613 -2614 0
2613 -2316 0
2613 -1899 0
2613 -1901 0
-2614 2319 2320 2321 2615 0
2614 -2615 0
2614 -2321 0
2614 -2319 0
2614 -2320 0
-2615 2323 2616 0
-2615 -1904 2323 0
-2615 2323 -2324 0
2615 -2323 0
2615 1904 2324 -2616 0
2616 1905 1907 2326 -2617 0
-2616 2617 0
-2616 -2326 0
-2616 -1905 0
-2616 -1907 0
-2617 1909 1912 1914 2618 0
2617 -2618 0
2617 -1914 0
2617 -1909 0
2617 -1912 0
-2618 1916 1919 1920 2619 0
2618 -2619 0
2618 -1920 0
2618 -1916 0
2618 -1919 0
-2619 1921 2331 2620 0
-2619 1921 2331 -2332 0
2619 -1921 0
2619 -2331 0
2619 2332 -2620 0
2620 1925 1926 1927 -2621 0
-2620 2621 0
-2620 -1927 0
-2620 -1925 0
-2620 -1926 0
2621 1929 1931 2335 -2622 0
-2621 2622 0
-2621 -2335 0
-2621 -1929 0
-2621 -1931 0
-2622 1934 1936 1938 2623 0
2622 -2623 0
2622 -1938 0
2622 -1934 0
2622 -1936 0
-2623 1941 1943 1944 2624 0
2623 -2624 0
2623 -1944 0
2623 -1941 0
2623 -1943 0
-2624 1946 -2340 0
-2624 1946 2625 0
-2624 1946 -2341 0
2624 -1946 0
2624 2340 2341 -2625 0
2625 1950 1951 1952 -2626 0
-2625 2626 0
-2625 -1952 0
-2625 -1950 0
-2625 -1951 0
2626 1954 -1957 2344 0
2626 1954 2344 -2627 0
-2626 -1954 0
-2626 -2344 0
-2626 1957 2627 0
-2627 1959 1961 1964 2628 0
2627 -2628 0
2627 -1964 0
2627 -1959 0
2627 -1961 0
-2628 1966 1967 2629 0
-2628 1966 1967 -1969 0
2628 -1966 0
2628 -1967 0
2628 1969 -2629 0
2629 1970 -1973 2348 0
2629 1970 2348 -2630 0
-2629 -1970 0
-2629 -2348 0
-2629 1973 2630 0
-2630 1975 1977 1980 2631 0
2630 -2631 0
2630 -1980 0
2630 -1975 0
2630 -1977 0
-2631 1982 1983 1985 2632 0
2631 -2632 0
2631 -1985 0
2631 -1982 0
2631 -1983 0
-2632 1986 2353 2355 2633 0
2632 -2633 0
2632 -2355 0
2632 -1986 0
2632 -2353 0
2633 1989 1991 1992 -2634 0
-2633 2634 0
-2633 -1992 0
-2633 -1989 0
-2633 -1991 0
2634 1993 1996 2358 -2635 0
-2634 2635 0
-2634 -2358 0
-2634 -1993 0
-2634 -1996 0
-2635 1998 2001 2003 2636 0
2635 -2636 0
2635 -2003 0
2635 -1998 0
2635 -2001 0
-2636 2005 2008 2009 2637 0
2636 -2637 0
2636 -2009 0
2636 -2005 0
2636 -2008 0
-2637 2010 -2363 0
-2637 2010 2638 0
-2637 2010 -2365 0
2637 -2010 0
2637 2363 2365 -2638 0
2638 2014 -2016 2367 0
2638 2014 2367 -2639 0
-2638 -2014 0
-2638 -2367 0
-2638 2016 2639 0
-2639 2018 2019 2020 2640 0
2639 -2640 0
2639 -2020 0
2639 -2018 0
2639 -2019 0
-2640 2022 -2023 0
-2640 2022 2641 0
-2640 2022 -2024 0
2640 -2022 0
2640 2023 2024 -2641 0
2641 2371 2372 2373 -2642 0
-2641 2642 0
-2641 -2373 0
-2641 -2371 0
-2641 -2372 0
2642 2375 2376 2377 -2643 0
-2642 2643 0
-2642 -2377 0
-2642 -2375 0
-2642 -2376 0
-2643 2027 2029 2032 2644 0
2643 -2644 0
2643 -2032 0
2643 -2027 0
2643 -2029 0
-2644 2034 2036 2645 0
-2644 2034 2036 -2039 0
2644 -2034 0
2644 -2036 0
2644 2039 -2645 0
2645 2040 2041 2382 -2646 0
-2645 2646 0
-2645 -2382 0
-2645 -2040 0
-2645 -2041 0
-2646 2044 2046 2048 2647 0
2646 -2647 0
2646 -2048 0
2646 -2044 0
2646 -2046 0
-2647 2051 2053 2648 0
-2647 2051 2053 -2055 0
2647 -2051 0
2647 -2053 0
2647 2055 -2648 0
2648 2387 2388 2389 -2649 0
-2648 2649 0
-2648 -2389 0
-2648 -2387 0
-2648 -2388 0
-2649 2058 2060 2063 2650 0
2649 -2650 0
2649 -2063 0
2649 -2058 0
2649 -2060 0
-2650 2065 2067 2651 0
-2650 2065 2067 -2070 0
2650 -2065 0
2650 -2067 0
2650 2070 -2651 0
2651 2071 2072 2074 -2652 0
-2651 2652 0
-2651 -2074 0
-2651 -2071 0
-2651 -2072 0
2652 2075 -2076 0
2652 2075 -2653 0
2652 2075 -2079 0
-2652 -2075 0
-2652 2076 2079 2653 0
-2653 2081 2083 2086 2654 0
2653 -2654 0
2653 -2086 0
2653 -2081 0
2653 -2083 0
-2654 2087 2088 2090 2655 0
2654 -2655 0
2654 -2090 0
2654 -2087 0
2654 -2088 0
-2655 2091 -2092 0
-2655 2091 2656 0
-2655 2091 -2094 0
2655 -2091 0
2655 2092 2094 -2656 0
2656 2095 2096 2098 -2657 0
-2656 2657 0
-2656 -2098 0
-2656 -2095 0
-2656 -2096 0
2657 2099 2100 2102 -2658 0
-2657 2658 0
-2657 -2102 0
-2657 -2099 0
-2657 -2100 0
2658 2103 2104 2107 -2659 0
-2658 2659 0
-2658 -2107 0
-2658 -2103 0
-2658 -2104 0
2659 2108 2109 -2660 0
2659 2108 2109 -2111 0
-2659 -2108 0
-2659 -2109 0
-2659 2111 2660 0
-2660 2113 2115 2118 2661 0
2660 -2661 0
2660 -2118 0
2660 -2113 0
2660 -2115 0
-2661 2120 2121 2123 2662 0
2661 -2662 0
2661 -2123 0
2661 -2120 0
2661 -2121 0
-2662 2124 2125 2127 2663 0
2662 -2663 0
2662 -2127 0
2662 -2124 0
2662 -2125 0
-2663 2128 -2129 0
-2663 2128 2664 0
-2663 2128 -2131 0
2663 -2128 0
2663 2129 2131 -2664 0
2664 2132 2133 -2665 0
2664 2132 2133 -2135 0
-2664 -2132 0
-2664 -2133 0
-2664 2135 2665 0
-2665 2137 2139 2142 2666 0
2665 -2666 0
2665 -2142 0
2665 -2137 0
2665 -2139 0
-2666 2144 2145 2147 2667 0
2666 -2667 0
2666 -2147 0
2666 -2144 0
2666 -2145 0
-2667 2148 2149 2535 2668 0
2667 -2668 0
2667 -2535 0
2667 -2148 0
2667 -2149 0
-2668 2537 2538 2540 2669 0
2668 -2669 0
2668 -2540 0
2668 -2537 0
2668 -2538 0
-2669 -2152 2541 2542 0
-2669 2541 2542 2670 0
2669 -2542 0
2669 -2541 0
2669 2152 -2670 0
2670 2154 2155 2156 -2671 0
-2670 2671 0
-2670 -2156 0
-2670 -2154 0
-2670 -2155 0
-2671 2158 2160 2162 2672 0
2671 -2672 0
2671 -2162 0
2671 -2158 0
2671 -2160 0
-2672 2165 2167 2168 2673 0
2672 -2673 0
2672 -2168 0
2672 -2165 0
2672 -2167 0
-2673 2170 2171 2172 2674 0
2673 -2674 0
2673 -2172 0
2673 -2170 0
2673 -2171 0
-2674 2548 2549 2551 2675 0
2674 -2675 0
2674 -2551 0
2674 -2548 0
2674 -2549 0
-2675 2553 -2554 0
-2675 2553 2676 0
-2675 2553 -2556 0
2675 -2553 0
2675 2554 2556 -2676 0
2676 2557 2558 2561 -2677 0
-2676 2677 0
-2676 -2561 0
-2676 -2557 0
-2676 -2558 0
2677 2562 -2679 0
2677 3781 2562 -2678 0
-2677 -2562 0
-2677 -3781 2679 0
-2677 2678 2679 0
2678 3782 3783 -48 -1691 0
-2678 -3782 0
-2678 1691 0
-2678 48 0
-2678 -3783 0
-2679 3782 2681 0
-2679 -3783 2681 0
-2679 2680 2681 0
2679 -2681 0
2679 -3782 3783 -2680 0
2680 3781 -48 1698 0
-2680 -3781 0
-2680 48 0
-2680 -1698 0
-2681 3781 2682 2684 0
-2681 -3781 2683 2684 0
2681 -2684 0
2681 3781 -2682 0
2681 -3781 -2683 0
2682 -3782 -3783 -48 1701 0
-2682 48 0
-2682 -1701 0
-2682 3782 0
-2682 3783 0
2683 3782 3783 -48 1704 0
-2683 -3782 0
-2683 -1704 0
-2683 48 0
-2683 -3783 0
-2684 3760 2685 0
-2684 -3846 2685 0
-2684 48 2685 0
2684 -2685 0
2684 -3760 3846 -48 0
-2685 3761 2686 0
-2685 -3847 2686 0
-2685 48 2686 0
2685 -2686 0
2685 -3761 3847 -48 0
-2686 3762 2687 0
-2686 -3848 2687 0
-2686 48 2687 0
2686 -2687 0
2686 -3762 3848 -48 0
-2687 3763 2688 0
-2687 -3849 2688 0
-2687 48 2688 0
2687 -2688 0
2687 -3763 3849 -48 0
-2688 48 2689 0
-2688 -3844 2689 0
-2688 3758 2689 0
2688 -2689 0
2688 -3758 3844 -48 0
2689 3766 -2690 0
2689 -3852 -2690 0
2689 48 -2690 0
-2689 2690 0
-2689 -3766 3852 -48 0
2690 3770 -2691 0
2690 -3856 -2691 0
2690 48 -2691 0
-2690 2691 0
-2690 -3770 3856 -48 0
2691 3864 -2692 0
2691 78 -2692 0
2691 -3778 -2692 0
-2691 2692 0
-2691 3778 -3864 -78 0
2692 -3777 -3831 0
2692 -3831 3863 0
2692 -3831 78 0
-2692 3831 0
-2692 3777 -3863 -78 0
-2693 3751 2694 0
-2693 -3751 -2694 0
2693 -3751 2694 0
2693 3751 -2694 0
-2694 1671 1674 1676 2695 0
2694 -2695 0
2694 -1676 0
2694 -1671 0
2694 -1674 0
-2695 1678 1679 1681 2696 0
2695 -2696 0
2695 -1681 0
2695 -1678 0
2695 -1679 0
-2696 1683 1684 1686 2697 0
2696 -2697 0
2696 -1686 0
2696 -1683 0
2696 -1684 0
-2697 1689 1690 1693 2698 0
2697 -2698 0
2697 -1693 0
2697 -1689 0
2697 -1690 0
-2698 1697 1700 1703 2699 0
2698 -2699 0
2698 -1703 0
2698 -1697 0
2698 -1700 0
-2699 1706 1707 1708 2700 0
2699 -2700 0
2699 -1708 0
2699 -1706 0
2699 -1707 0
-2700 1710 1711 1713 2701 0
2700 -2701 0
2700 -1713 0
2700 -1710 0
2700 -1711 0
-2701 1716 -1721 0
-2701 1716 2702 0
-2701 1716 -2266 0
2701 -1716 0
2701 1721 2266 -2702 0
2702 1722 -2703 0
2702 1722 -1730 0
2702 1722 -1726 0
-2702 -1722 0
-2702 1726 1730 2703 0
2703 1737 1742 2271 -2704 0
-2703 2704 0
-2703 -2271 0
-2703 -1737 0
-2703 -1742 0
2704 1745 1748 1752 -2705 0
-2704 2705 0
-2704 -1752 0
-2704 -1745 0
-2704 -1748 0
2705 1755 -2276 0
2705 1755 1764 -2706 0
-2705 -1755 0
-2705 -1764 2276 0
-2705 2276 2706 0
-2706 1769 -1773 0
-2706 1769 1777 2707 0
2706 -1769 0
2706 1773 -2707 0
2706 1773 -1777 0
2707 1781 -1784 0
2707 1781 1788 -2708 0
-2707 -1781 0
-2707 1784 2708 0
-2707 1784 -1788 0
2708 1792 1795 -2709 0
2708 1792 1795 -1799 0
-2708 -1792 0
-2708 -1795 0
-2708 1799 2709 0
-2709 1803 -1806 0
-2709 1803 2710 0
-2709 1803 -1811 0
2709 -1803 0
2709 1806 1811 -2710 0
2710 1814 1817 -2711 0
2710 1814 1817 -1822 0
-2710 -1814 0
-2710 -1817 0
-2710 1822 2711 0
-2711 1826 -1830 0
-2711 1826 2712 0
-2711 1826 -1834 0
2711 -1826 0
2711 1830 1834 -2712 0
2712 1837 1839 2252 -2713 0
-2712 2713 0
-2712 -2252 0
-2712 -1837 0
-2712 -1839 0
-2713 1842 1844 2286 2714 0
2713 -2714 0
2713 -2286 0
2713 -1842 0
2713 -1844 0
-2714 1846 1849 1851 2715 0
2714 -2715 0
2714 -1851 0
2714 -1846 0
2714 -1849 0
-2715 1852 1854 1855 2716 0
2715 -2716 0
2715 -1855 0
2715 -1852 0
2715 -1854 0
-2716 1856 2291 2292 2717 0
2716 -2717 0
2716 -2292 0
2716 -1856 0
2716 -2291 0
-2717 2294 2295 2296 2718 0
2717 -2718 0
2717 -2296 0
2717 -2294 0
2717 -2295 0
-2718 -1860 2298 2299 0
-2718 2298 2299 2719 0
2718 -2299 0
2718 -2298 0
2718 1860 -2719 0
2719 1861 1863 1865 -2720 0
-2719 2720 0
-2719 -1865 0
-2719 -1861 0
-2719 -1863 0
2720 1866 -1869 0
2720 1866 -2721 0
2720 1866 -2302 0
-2720 -1866 0
-2720 1869 2302 2721 0
-2721 1871 1873 1876 2722 0
2721 -2722 0
2721 -1876 0
2721 -1871 0
2721 -1873 0
-2722 1878 1879 1881 2723 0
2722 -2723 0
2722 -1881 0
2722 -1878 0
2722 -1879 0
2723 2307 2308 2309 -2724 0
-2723 2724 0
-2723 -2309 0
-2723 -2307 0
-2723 -2308 0
2724 1884 1885 1886 -2725 0
-2724 2725 0
-2724 -1886 0
-2724 -1884 0
-2724 -1885 0
-2725 1889 1891 2312 2726 0
2725 -2726 0
2725 -2312 0
2725 -1889 0
2725 -1891 0
-2726 1893 1896 1898 2727 0
2726 -2727 0
2726 -1898 0
2726 -1893 0
2726 -1896 0
-2727 1899 1901 2316 2728 0
2727 -2728 0
2727 -2316 0
2727 -1899 0
2727 -1901 0
-2728 2319 2320 2321 2729 0
2728 -2729 0
2728 -2321 0
2728 -2319 0
2728 -2320 0
-2729 2323 2730 0
-2729 -1904 2323 0
-2729 2323 -2324 0
2729 -2323 0
2729 1904 2324 -2730 0
2730 1905 1907 -2731 0
2730 1905 1907 -2326 0
-2730 -1905 0
-2730 -1907 0
-2730 2326 2731 0
-2731 1909 1912 1914 2732 0
2731 -2732 0
2731 -1914 0
2731 -1909 0
2731 -1912 0
-2732 1916 1919 1920 2733 0
2732 -2733 0
2732 -1920 0
2732 -1916 0
2732 -1919 0
-2733 1921 2331 2734 0
-2733 1921 2331 -2332 0
2733 -1921 0
2733 -2331 0
2733 2332 -2734 0
2734 1925 1926 1927 -2735 0
-2734 2735 0
-2734 -1927 0
-2734 -1925 0
-2734 -1926 0
2735 1929 1931 -2736 0
2735 1929 1931 -2335 0
-2735 -1929 0
-2735 -1931 0
-2735 2335 2736 0
-2736 1934 1936 1938 2737 0
2736 -2737 0
2736 -1938 0
2736 -1934 0
2736 -1936 0
-2737 1941 1943 1944 2738 0
2737 -2738 0
2737 -1944 0
2737 -1941 0
2737 -1943 0
-2738 1946 2340 2341 2739 0
2738 -2739 0
2738 -2341 0
2738 -1946 0
2738 -2340 0
2739 1950 1951 1952 -2740 0
-2739 2740 0
-2739 -1952 0
-2739 -1950 0
-2739 -1951 0
2740 1954 -1957 0
2740 1954 -2741 0
2740 1954 -2344 0
-2740 -1954 0
-2740 1957 2344 2741 0
-2741 1959 1961 1964 2742 0
2741 -2742 0
2741 -1964 0
2741 -1959 0
2741 -1961 0
-2742 1966 1967 2743 0
-2742 1966 1967 -1969 0
2742 -1966 0
2742 -1967 0
2742 1969 -2743 0
2743 1970 -1973 0
2743 1970 -2744 0
2743 1970 -2348 0
-2743 -1970 0
-2743 1973 2348 2744 0
-2744 1975 1977 1980 2745 0
2744 -2745 0
2744 -1980 0
2744 -1975 0
2744 -1977 0
-2745 1982 1983 1985 2746 0
2745 -2746 0
2745 -1985 0
2745 -1982 0
2745 -1983 0
-2746 1986 2353 2355 2747 0
2746 -2747 0
2746 -2355 0
2746 -1986 0
2746 -2353 0
2747 1989 1991 1992 -2748 0
-2747 2748 0
-2747 -1992 0
-2747 -1989 0
-2747 -1991 0
2748 1993 1996 -2749 0
2748 1993 1996 -2358 0
-2748 -1993 0
-2748 -1996 0
-2748 2358 2749 0
-2749 1998 2001 2003 2750 0
2749 -2750 0
2749 -2003 0
2749 -1998 0
2749 -2001 0
-2750 2005 2008 2009 2751 0
2750 -2751 0
2750 -2009 0
2750 -2005 0
2750 -2008 0
-2751 2010 -2363 0
-2751 2010 2752 0
-2751 2010 -2365 0
2751 -2010 0
2751 2363 2365 -2752 0
2752 2014 -2016 0
2752 2014 -2753 0
2752 2014 -2367 0
-2752 -2014 0
-2752 2016 2367 2753 0
-2753 2018 2019 2020 2754 0
2753 -2754 0
2753 -2020 0
2753 -2018 0
2753 -2019 0
-2754 2022 2755 0
-2754 2022 -2024 0
-2754 2022 -2023 0
2754 -2022 0
2754 2023 2024 -2755 0
-2755 2371 2372 2373 2756 0
2755 -2756 0
2755 -2373 0
2755 -2371 0
2755 -2372 0
-2756 2375 2376 2377 2757 0
2756 -2757 0
2756 -2377 0
2756 -2375 0
2756 -2376 0
-2757 2027 2029 2032 2758 0
2757 -2758 0
2757 -2032 0
2757 -2027 0
2757 -2029 0
-2758 2034 2036 2759 0
-2758 2034 2036 -2039 0
2758 -2034 0
2758 -2036 0
2758 2039 -2759 0
2759 2040 2041 -2760 0
2759 2040 2041 -2382 0
-2759 -2040 0
-2759 -2041 0
-2759 2382 2760 0
-2760 2044 2046 2048 2761 0
2760 -2761 0
2760 -2048 0
2760 -2044 0
2760 -2046 0
-2761 2051 2053 2762 0
-2761 2051 2053 -2055 0
2761 -2051 0
2761 -2053 0
2761 2055 -2762 0
-2762 2387 2388 2389 2763 0
2762 -2763 0
2762 -2389 0
2762 -2387 0
2762 -2388 0
-2763 2058 2060 2063 2764 0
2763 -2764 0
2763 -2063 0
2763 -2058 0
2763 -2060 0
-2764 2065 2067 2765 0
-2764 2065 2067 -2070 0
2764 -2065 0
2764 -2067 0
2764 2070 -2765 0
2765 2071 2072 2074 -2766 0
-2765 2766 0
-2765 -2074 0
-2765 -2071 0
-2765 -2072 0
2766 2075 -2076 0
2766 2075 -2767 0
2766 2075 -2079 0
-2766 -2075 0
-2766 2076 2079 2767 0
-2767 2081 2083 2086 2768 0
2767 -2768 0
2767 -2086 0
2767 -2081 0
2767 -2083 0
-2768 2087 2088 2090 2769 0
2768 -2769 0
2768 -2090 0
2768 -2087 0
2768 -2088 0
-2769 2091 2092 2094 2770 0
2769 -2770 0
2769 -2094 0
2769 -2091 0
2769 -2092 0
-2770 2095 2096 2098 2771 0
2770 -2771 0
2770 -2098 0
2770 -2095 0
2770 -2096 0
-2771 2099 -2100 0
-2771 2099 2772 0
-2771 2099 -2102 0
2771 -2099 0
2771 2100 2102 -2772 0
2772 2103 2104 2107 -2773 0
-2772 2773 0
-2772 -2107 0
-2772 -2103 0
-2772 -2104 0
2773 2108 2109 -2774 0
2773 2108 2109 -2111 0
-2773 -2108 0
-2773 -2109 0
-2773 2111 2774 0
-2774 2113 2115 2118 2775 0
2774 -2775 0
2774 -2118 0
2774 -2113 0
2774 -2115 0
-2775 2120 2121 2123 2776 0
2775 -2776 0
2775 -2123 0
2775 -2120 0
2775 -2121 0
-2776 2124 2125 2777 0
-2776 2124 2125 -2127 0
2776 -2124 0
2776 -2125 0
2776 2127 -2777 0
2777 2128 2129 2131 -2778 0
-2777 2778 0
-2777 -2131 0
-2777 -2128 0
-2777 -2129 0
2778 2132 2133 -2779 0
2778 2132 2133 -2135 0
-2778 -2132 0
-2778 -2133 0
-2778 2135 2779 0
-2779 2137 2139 2142 2780 0
2779 -2780 0
2779 -2142 0
2779 -2137 0
2779 -2139 0
-2780 2144 2145 2147 2781 0
2780 -2781 0
2780 -2147 0
2780 -2144 0
2780 -2145 0
-2781 2148 2149 2782 0
-2781 2148 2149 -2535 0
2781 -2148 0
2781 -2149 0
2781 2535 -2782 0
2782 2537 2538 2540 -2783 0
-2782 2783 0
-2782 -2540 0
-2782 -2537 0
-2782 -2538 0
2783 2541 -2542 0
2783 2152 2541 -2784 0
-2783 -2541 0
-2783 -2152 2542 0
-2783 2542 2784 0
2784 2154 2155 2156 -2785 0
-2784 2785 0
-2784 -2156 0
-2784 -2154 0
-2784 -2155 0
-2785 2158 2160 2162 2786 0
2785 -2786 0
2785 -2162 0
2785 -2158 0
2785 -2160 0
-2786 2165 2167 2168 2787 0
2786 -2787 0
2786 -2168 0
2786 -2165 0
2786 -2167 0
-2787 2170 2171 2172 2788 0
2787 -2788 0
2787 -2172 0
2787 -2170 0
2787 -2171 0
2788 2548 -2549 0
2788 2548 -2789 0
2788 2548 -2551 0
-2788 -2548 0
-2788 2549 2551 2789 0
-2789 3832 2553 2791 0
-2789 3832 2553 -2790 0
2789 -3832 0
2789 -2553 0
2789 2790 -2791 0
2790 3777 -3863 -121 0
-2790 121 0
-2790 3863 0
-2790 -3777 0
2791 138 -2210 2803 0
2791 138 -2792 2803 0
-2791 -2803 0
-2791 -138 0
-2791 2210 2792 0
-2792 2203 2205 2207 2793 0
2792 -2793 0
2792 -2207 0
2792 -2203 0
2792 -2205 0
-2793 2199 2200 2201 2794 0
2793 -2794 0
2793 -2201 0
2793 -2199 0
2793 -2200 0
-2794 2196 2197 2796 0
-2794 2196 2197 -2795 0
2794 -2196 0
2794 -2197 0
2794 2795 -2796 0
2795 -3766 3852 -121 0
-2795 3766 0
-2795 -3852 0
-2795 121 0
2796 3770 -2797 0
2796 -3856 -2797 0
2796 121 -2797 0
-2796 2797 0
-2796 -3770 3856 -121 0
2797 3864 -2798 0
2797 150 -2798 0
2797 -3778 -2798 0
-2797 2798 0
-2797 3778 -3864 -150 0
2798 -2428 -2193 0
2798 -2193 -2799 0
2798 -2182 -2193 0
-2798 2193 0
-2798 2428 2182 2799 0
-2799 2184 2185 2186 2800 0
2799 -2800 0
2799 -2186 0
2799 -2184 0
2799 -2185 0
-2800 2188 2189 2190 2801 0
2800 -2801 0
2800 -2190 0
2800 -2188 0
2800 -2189 0
-2801 -3777 2802 2192 0
-2801 3863 2802 2192 0
2801 -2192 0
2801 -2802 0
2801 3777 -3863 0
2802 -1694 1695 0
-2802 1694 0
-2802 -1695 0
-2803 3839 2804 0
-2803 121 2804 0
-2803 -3753 2804 0
2803 -2804 0
2803 3753 -3839 -121 0
-2804 3853 2806 0
-2804 -3860 2806 0
-2804 2805 2806 0
2804 -2806 0
2804 -3853 3860 -2805 0
2805 -3765 3851 -121 0
-2805 3765 0
-2805 -3851 0
-2805 121 0
-2806 3853 2807 0
-2806 121 2807 0
-2806 -3767 2807 0
2806 -2807 0
2806 3767 -3853 -121 0
-2807 3864 2808 0
-2807 -3778 2808 0
-2807 121 2808 0
2807 -2808 0
2807 3778 -3864 -121 0
2808 -3773 -3854 3859 -121 0
-2808 121 0
-2808 3773 0
-2808 3854 0
-2808 -3859 0
2809 3819 2810 2831 -2835 0
2809 -3819 -2810 2831 -2835 0
-2809 2835 0
-2809 -3819 2810 0
-2809 -2831 0
-2809 3819 -2810 0
2810 2811 2819 2820 -2822 0
-2810 2822 0
-2810 -2820 0
-2810 -2811 0
-2810 -2819 0
2811 3794 -2812 0
2811 3794 18 -2818 0
-2811 -3794 0
-2811 -18 2812 0
-2811 2812 2818 0
2812 -3795 2814 0
2812 -3795 -3798 2813 0
-2812 3795 0
-2812 3798 -2814 0
-2812 -2813 -2814 0
2813 3796 -3797 0
2813 -3796 3797 0
2813 3796 -669 0
2813 -3796 -691 0
-2813 3796 3797 669 0
-2813 -3796 -3797 691 0
2814 -756 -2815 0
2814 -2815 2817 0
2814 3796 -2815 0
-2814 2815 0
-2814 -3796 756 -2817 0
-2815 716 2816 0
2815 -716 0
2815 -2816 0
-2816 3796 3797 3798 0
2816 -3796 0
2816 -3798 0
2816 -3797 0
2817 -3797 3798 0
-2817 3797 0
-2817 -3798 0
2818 3795 -3796 3797 -3798 0
-2818 3796 0
-2818 -3797 0
-2818 -3795 0
-2818 3798 0
2819 -3794 3795 21 2816 0
-2819 -2816 0
-2819 -21 0
-2819 3794 0
-2819 -3795 0
2820 3794 -3795 28 -2821 0
-2820 3795 0
-2820 -28 0
-2820 -3794 0
-2820 2821 0
2821 3796 -3797 -3798 0
-2821 3798 0
-2821 3797 0
-2821 -3796 0
2822 2823 2825 2826 -2828 0
-2822 2828 0
-2822 -2826 0
-2822 -2823 0
-2822 -2825 0
2823 3794 -3795 27 -2824 0
-2823 3795 0
-2823 -27 0
-2823 -3794 0
-2823 2824 0
2824 3796 -3797 3798 0
-2824 -3796 0
-2824 3797 0
-2824 -3798 0
2825 3794 3795 25 -2821 0
-2825 2821 0
-2825 -25 0
-2825 -3794 0
-2825 -3795 0
2826 3794 3795 34 -2827 0
-2826 2827 0
-2826 -34 0
-2826 -3794 0
-2826 -3795 0
2827 -3796 -3797 -3798 0
-2827 3796 0
-2827 3797 0
-2827 3798 0
2828 -3905 2829 0
2828 -3906 2829 0
-2828 -2829 0
-2828 3905 3906 0
2829 3794 3795 30 -2830 0
-2829 2830 0
-2829 -30 0
-2829 -3794 0
-2829 -3795 0
2830 -3796 3797 3798 0
-2830 3796 0
-2830 -3798 0
-2830 -3797 0
-2831 -3817 -2832 0
-2831 3817 2832 0
2831 3817 -2832 0
2831 -3817 2832 0
2832 2811 2819 2820 -2833 0
-2832 2833 0
-2832 -2820 0
-2832 -2811 0
-2832 -2819 0
2833 2823 2825 2826 -2834 0
-2833 2834 0
-2833 -2826 0
-2833 -2823 0
-2833 -2825 0
2834 -3903 2829 0
2834 -3904 2829 0
-2834 -2829 0
-2834 3903 3904 0
2835 3821 2836 2840 -2844 0
2835 -3821 -2836 2840 -2844 0
-2835 2844 0
-2835 -3821 2836 0
-2835 -2840 0
-2835 3821 -2836 0
2836 2811 2819 2820 -2837 0
-2836 2837 0
-2836 -2820 0
-2836 -2811 0
-2836 -2819 0
2837 2823 2825 2826 -2838 0
-2837 2838 0
-2837 -2826 0
-2837 -2823 0
-2837 -2825 0
2838 -3908 2829 0
2838 2829 -2839 0
-2838 -2829 0
-2838 3908 2839 0
2839 -3912 -3913 -3914 0
-2839 3912 0
-2839 3913 0
-2839 3914 0
-2840 -3822 -2841 0
-2840 3822 2841 0
2840 3822 -2841 0
2840 -3822 2841 0
2841 2811 2819 2820 -2842 0
-2841 2842 0
-2841 -2820 0
-2841 -2811 0
-2841 -2819 0
2842 2823 2825 2826 -2843 0
-2842 2843 0
-2842 -2826 0
-2842 -2823 0
-2842 -2825 0
2843 -3909 2829 0
2843 -3912 -3913 2829 0
-2843 -2829 0
-2843 3909 3913 0
-2843 3909 3912 0
2844 3823 2845 2851 -2858 0
2844 -3823 -2845 2851 -2858 0
-2844 2858 0
-2844 -3823 2845 0
-2844 -2851 0
-2844 3823 -2845 0
2845 2825 2826 2829 -2846 0
-2845 2846 0
-2845 -2829 0
-2845 -2825 0
-2845 -2826 0
2846 2819 2820 2823 -2847 0
-2846 2847 0
-2846 -2823 0
-2846 -2819 0
-2846 -2820 0
2847 3798 -2850 0
2847 -3794 -2850 0
2847 2848 -2850 0
-2847 2850 0
-2847 3794 -3798 -2848 0
-2848 -3795 -2813 0
-2848 3795 2849 0
-2848 3795 -18 0
2848 -3795 2813 0
2848 3795 18 -2849 0
2849 -3796 3797 0
-2849 3796 0
-2849 -3797 0
-2850 3910 2839 0
-2850 3907 3910 0
2850 -3910 0
2850 -3907 -2839 0
-2851 -3824 -2852 0
-2851 3824 2852 0
2851 3824 -2852 0
2851 -3824 2852 0
2852 2825 2826 2829 -2853 0
-2852 2853 0
-2852 -2829 0
-2852 -2825 0
-2852 -2826 0
2853 2819 2820 2823 -2854 0
-2853 2854 0
-2853 -2823 0
-2853 -2819 0
-2853 -2820 0
2854 3796 -2857 0
2854 -3794 -2857 0
2854 2855 -2857 0
-2854 2857 0
-2854 3794 -3796 -2855 0
-2855 2817 2856 0
-2855 -756 2856 0
-2855 3795 2856 0
2855 -2856 0
2855 -3795 756 -2817 0
2856 3795 3797 -3798 18 0
-2856 -3795 0
-2856 -18 0
-2856 3798 0
-2856 -3797 0
-2857 3911 3914 0
2857 -3911 0
2857 -3914 0
2858 3816 2859 2862 -2864 0
2858 -3816 2859 -2862 -2864 0
-2858 2864 0
-2858 -3816 2862 0
-2858 -2859 0
-2858 3816 -2862 0
-2859 3815 2860 0
-2859 -3815 -2860 0
2859 -3815 2860 0
2859 3815 -2860 0
-2860 3901 2861 0
-2860 3901 3902 0
-2860 3816 -3902 2861 0
2860 -3901 3902 0
2860 -3902 -2861 0
2860 -3816 -3901 0
2861 -3778 3864 0
-2861 3778 0
-2861 -3864 0
-2862 716 -2863 0
-2862 3902 716 0
-2862 3902 -2863 0
2862 -3902 -716 0
2862 -716 2863 0
2862 -3902 2863 0
2863 3794 -3795 2816 0
-2863 -2816 0
-2863 3795 0
-2863 -3794 0
2864 3765 2865 -2867 0
2864 3766 2865 -2867 0
-2864 2867 0
-2864 -2865 0
-2864 -3765 -3766 0
-2865 -3848 -2866 0
-2865 3848 2866 0
2865 3848 -2866 0
2865 -3848 2866 0
2866 -3840 -3841 3842 0
-2866 3840 0
-2866 3841 0
-2866 -3842 0
2867 3849 -2868 2870 -2871 0
2867 -3849 -2868 -2870 -2871 0
-2867 2871 0
-2867 -3849 2870 0
-2867 2868 0
-2867 3849 -2870 0
2868 -3847 2869 0
2868 3847 -2869 0
-2868 3847 2869 0
-2868 -3847 -2869 0
-2869 3840 3841 3842 0
2869 -3840 0
2869 -3842 0
2869 -3841 0
2870 3840 -3841 -3842 0
-2870 3842 0
-2870 3841 0
-2870 -3840 0
2871 3845 2872 2874 -2875 0
2871 -3845 2872 -2874 -2875 0
-2871 2875 0
-2871 -3845 2874 0
-2871 -2872 0
-2871 3845 -2874 0
-2872 -3846 -2873 0
-2872 3846 2873 0
2872 3846 -2873 0
2872 -3846 2873 0
2873 3840 -3841 3842 0
-2873 -3840 0
-2873 3841 0
-2873 -3842 0
2874 -3840 3841 3842 0
-2874 3840 0
-2874 -3842 0
-2874 -3841 0
2875 3863 -2876 2877 -2879 0
2875 -3863 2876 2877 -2879 0
-2875 2879 0
-2875 3863 2876 0
-2875 -2877 0
-2875 -3863 -2876 0
2876 -3867 1704 0
-2876 3867 0
-2876 -1704 0
-2877 -3844 -2878 0
-2877 3844 2878 0
2877 3844 -2878 0
2877 -3844 2878 0
2878 -3839 3843 3849 0
-2878 3839 0
-2878 -3849 0
-2878 -3843 0
2879 3839 -2880 2882 -2884 0
2879 -3839 -2880 -2882 -2884 0
-2879 2884 0
-2879 -3839 2882 0
-2879 2880 0
-2879 3839 -2882 0
2880 -3855 2881 0
2880 3855 -2881 0
-2880 3855 2881 0
-2880 -3855 -2881 0
-2881 -3861 94 0
-2881 3879 94 0
2881 -94 0
2881 3861 -3879 0
2882 -3838 2883 0
-2882 3838 0
-2882 -2883 0
2883 -3840 3841 -3842 0
-2883 3840 0
-2883 -3841 0
-2883 3842 0
2884 -3892 2885 -2887 0
2884 3893 2885 -2887 0
-2884 2887 0
-2884 -2885 0
-2884 3892 -3893 0
-2885 3843 2886 0
-2885 -3843 -2886 0
2885 -3843 2886 0
2885 3843 -2886 0
-2886 3845 3846 3847 3848 0
2886 -3848 0
2886 -3847 0
2886 -3845 0
2886 -3846 0
2887 -3838 -2888 0
2887 2869 -2888 0
-2887 2888 0
-2887 3838 -2869 0
-2888 3832 2889 0
-2888 2889 3728 0
-2888 -3832 -3728 -3730 0
2888 -2889 3728 0
2888 3832 -2889 0
2888 -3832 -3728 3730 0
-2889 2890 3711 0
-2889 -3802 3888 3711 0
-2889 3802 -3888 3711 0
2889 -3711 0
2889 -3802 -3888 -2890 0
2889 3802 3888 -2890 0
-2890 3778 -3864 -3696 0
-2890 -3778 -3864 2891 0
-2890 -3778 3864 -3696 0
-2890 3778 3864 2891 0
2890 -3778 3864 3696 0
2890 -3778 -3864 -2891 0
2890 3778 -3864 3696 0
2890 3778 3864 -2891 0
-2891 2892 -3681 0
-2891 -3803 -3889 2892 0
-2891 3803 3889 2892 0
2891 -2892 0
2891 3803 -3889 3681 0
2891 -3803 3889 3681 0
2892 2893 -3665 0
2892 2893 2894 -2895 0
-2892 -2893 0
-2892 -2894 3665 0
-2892 2895 3665 0
-2893 -3803 -3889 0
-2893 3803 3889 0
2893 3803 -3889 0
2893 -3803 3889 0
-2894 -3768 -3854 0
-2894 3768 3854 0
2894 3768 -3854 0
2894 -3768 3854 0
-2895 3779 -3865 -3651 0
-2895 -3779 -3865 2896 0
-2895 -3779 3865 -3651 0
-2895 3779 3865 2896 0
2895 -3779 3865 3651 0
2895 -3779 -3865 -2896 0
2895 3779 -3865 3651 0
2895 3779 3865 -2896 0
-2896 2897 -3637 0
-2896 -3804 -3890 2897 0
-2896 3804 3890 2897 0
2896 -2897 0
2896 3804 -3890 3637 0
2896 -3804 3890 3637 0
2897 2898 -3623 0
2897 2898 2899 -2900 0
-2897 -2898 0
-2897 -2899 3623 0
-2897 2900 3623 0
-2898 -3804 -3890 0
-2898 3804 3890 0
2898 3804 -3890 0
2898 -3804 3890 0
-2899 -3805 -3891 0
-2899 3805 3891 0
2899 3805 -3891 0
2899 -3805 3891 0
-2900 -2902 3413 0
-2900 -2901 3413 0
-2900 2903 3413 0
2900 -3413 0
2900 2901 2902 -2903 0
-2901 -3801 -3887 0
-2901 3801 3887 0
2901 3801 -3887 0
2901 -3801 3887 0
-2902 -3800 -3886 0
-2902 3800 3886 0
2902 3800 -3886 0
2902 -3800 3886 0
2903 2904 -3412 0
2903 2904 2905 -2906 0
-2903 -2904 0
-2903 -2905 3412 0
-2903 2906 3412 0
-2904 -3799 -3885 0
-2904 3799 3885 0
2904 3799 -3885 0
2904 -3799 3885 0
-2905 -3808 -3894 0
-2905 3808 3894 0
2905 3808 -3894 0
2905 -3808 3894 0
-2906 2907 -3400 0
-2906 -3809 -3895 2907 0
-2906 3809 3895 2907 0
2906 -2907 0
2906 3809 -3895 3400 0
2906 -3809 3895 3400 0
2907 2908 -3387 0
2907 2908 2909 -2910 0
-2907 -2908 0
-2907 -2909 3387 0
-2907 2910 3387 0
-2908 -3809 -3895 0
-2908 3809 3895 0
2908 3809 -3895 0
2908 -3809 3895 0
-2909 -3810 -3896 0
-2909 3810 3896 0
2909 3810 -3896 0
2909 -3810 3896 0
-2910 3807 -3893 -3376 0
-2910 -3807 -3893 2911 0
-2910 -3807 3893 -3376 0
-2910 3807 3893 2911 0
2910 -3807 3893 3376 0
2910 -3807 -3893 -2911 0
2910 3807 -3893 3376 0
2910 3807 3893 -2911 0
-2911 2912 -3365 0
-2911 -3806 -3892 2912 0
-2911 3806 3892 2912 0
2911 -2912 0
2911 3806 -3892 3365 0
2911 -3806 3892 3365 0
2912 2913 -3353 0
2912 2913 2914 -2915 0
-2912 -2913 0
-2912 -2914 3353 0
-2912 2915 3353 0
-2913 -3806 -3892 0
-2913 3806 3892 0
2913 3806 -3892 0
2913 -3806 3892 0
-2914 -3811 -3897 0
-2914 3811 3897 0
2914 3811 -3897 0
2914 -3811 3897 0
-2915 3812 -3898 -3343 0
-2915 -3812 -3898 2916 0
-2915 -3812 3898 -3343 0
-2915 3812 3898 2916 0
2915 -3812 3898 3343 0
2915 -3812 -3898 -2916 0
2915 3812 -3898 3343 0
2915 3812 3898 -2916 0
-2916 2917 -3333 0
-2916 -3813 -3899 2917 0
-2916 3813 3899 2917 0
2916 -2917 0
2916 3813 -3899 3333 0
2916 -3813 3899 3333 0
2917 2918 -3322 0
2917 2918 2919 -2920 0
-2917 -2918 0
-2917 -2919 3322 0
-2917 2920 3322 0
-2918 -3813 -3899 0
-2918 3813 3899 0
2918 3813 -3899 0
2918 -3813 3899 0
-2919 -3814 -3900 0
-2919 3814 3900 0
2919 3814 -3900 0
2919 -3814 3900 0
-2920 3790 -3876 -3313 0
-2920 -3790 -3876 2921 0
-2920 -3790 3876 -3313 0
-2920 3790 3876 2921 0
2920 -3790 3876 3313 0
2920 -3790 -3876 -2921 0
2920 3790 -3876 3313 0
2920 3790 3876 -2921 0
-2921 2922 -3304 0
-2921 -3791 -3877 2922 0
-2921 3791 3877 2922 0
2921 -2922 0
2921 3791 -3877 3304 0
2921 -3791 3877 3304 0
2922 2923 -2924 0
2922 2923 -3225 0
2922 2923 -3215 0
-2922 -2923 0
-2922 2924 3215 3225 0
-2923 -3791 -3877 0
-2923 3791 3877 0
2923 3791 -3877 0
2923 -3791 3877 0
2924 2925 2926 2927 -2928 0
-2924 -2927 0
-2924 2928 0
-2924 -2925 0
-2924 -2926 0
-2925 -3789 -3875 0
-2925 3789 3875 0
2925 3789 -3875 0
2925 -3789 3875 0
-2926 -3788 -3874 0
-2926 3788 3874 0
2926 3788 -3874 0
2926 -3788 3874 0
-2927 -3787 -3873 0
-2927 3787 3873 0
2927 3787 -3873 0
2927 -3787 3873 0
-2928 3793 -3879 -3209 0
-2928 -3793 -3879 2929 0
-2928 -3793 3879 -3209 0
-2928 3793 3879 2929 0
2928 -3793 3879 3209 0
2928 -3793 -3879 -2929 0
2928 3793 -3879 3209 0
2928 3793 3879 -2929 0
-2929 2930 -3203 0
-2929 -3792 -3878 2930 0
-2929 3792 3878 2930 0
2929 -2930 0
2929 3792 -3878 3203 0
2929 -3792 3878 3203 0
2930 2931 -3197 0
2930 2931 2932 -2933 0
-2930 -2931 0
-2930 -2932 3197 0
-2930 2933 3197 0
-2931 -3792 -3878 0
-2931 3792 3878 0
2931 3792 -3878 0
2931 -3792 3878 0
-2932 -3776 -3862 0
-2932 3776 3862 0
2932 3776 -3862 0
2932 -3776 3862 0
-2933 2934 -3190 0
-2933 -3764 -3850 2934 0
-2933 3764 3850 2934 0
2933 -2934 0
2933 3764 -3850 3190 0
2933 -3764 3850 3190 0
2934 2935 -3184 0
2934 2935 2936 -2937 0
-2934 -2935 0
-2934 -2936 3184 0
-2934 2937 3184 0
-2935 -3764 -3850 0
-2935 3764 3850 0
2935 3764 -3850 0
2935 -3764 3850 0
-2936 -3780 -3866 0
-2936 3780 3866 0
2936 3780 -3866 0
2936 -3780 3866 0
-2937 2938 -3179 0
-2937 -3765 -3851 2938 0
-2937 3765 3851 2938 0
2937 -2938 0
2937 3765 -3851 3179 0
2937 -3765 3851 3179 0
2938 2939 -3174 0
2938 2939 2940 -2941 0
-2938 -2939 0
-2938 -2940 3174 0
-2938 2941 3174 0
-2939 -3765 -3851 0
-2939 3765 3851 0
2939 3765 -3851 0
2939 -3765 3851 0
-2940 -3766 -3852 0
-2940 3766 3852 0
2940 3766 -3852 0
2940 -3766 3852 0
-2941 2942 -3169 0
-2941 -3767 -3853 2942 0
-2941 3767 3853 2942 0
2941 -2942 0
2941 3767 -3853 3169 0
2941 -3767 3853 3169 0
2942 2943 -3057 0
2942 2943 2944 -2945 0
-2942 -2943 0
-2942 -2944 3057 0
-2942 2945 3057 0
-2943 -3767 -3853 0
-2943 3767 3853 0
2943 3767 -3853 0
2943 -3767 3853 0
-2944 -3783 -3869 0
-2944 3783 3869 0
2944 3783 -3869 0
2944 -3783 3869 0
2945 2946 2947 -3052 0
2945 2946 2947 -2948 0
-2945 -2946 0
-2945 -2947 0
-2945 2948 3052 0
-2946 -3782 -3868 0
-2946 3782 3868 0
2946 3782 -3868 0
2946 -3782 3868 0
-2947 -3781 -3867 0
-2947 3781 3867 0
2947 3781 -3867 0
2947 -3781 3867 0
2948 2949 -3048 0
2948 2949 2950 -2951 0
-2948 -2949 0
-2948 -2950 3048 0
-2948 2951 3048 0
-2949 -3770 -3856 0
-2949 3770 3856 0
2949 3770 -3856 0
2949 -3770 3856 0
-2950 -3771 -3857 0
-2950 3771 3857 0
2950 3771 -3857 0
2950 -3771 3857 0
-2951 2952 -3045 0
-2951 -3772 -3858 2952 0
-2951 3772 3858 2952 0
2951 -2952 0
2951 3772 -3858 3045 0
2951 -3772 3858 3045 0
2952 2953 -3041 0
2952 2953 2954 -2955 0
-2952 -2953 0
-2952 -2954 3041 0
-2952 2955 3041 0
-2953 -3772 -3858 0
-2953 3772 3858 0
2953 3772 -3858 0
2953 -3772 3858 0
-2954 -3774 -3860 0
-2954 3774 3860 0
2954 3774 -3860 0
2954 -3774 3860 0
-2955 2956 -3040 0
-2955 -3773 -3859 2956 0
-2955 3773 3859 2956 0
2955 -2956 0
2955 3773 -3859 3040 0
2955 -3773 3859 3040 0
2956 2957 -2995 0
2956 2957 2958 -2959 0
-2956 -2957 0
-2956 -2958 2995 0
-2956 2959 2995 0
-2957 -3773 -3859 0
-2957 3773 3859 0
2957 3773 -3859 0
2957 -3773 3859 0
-2958 -3775 -3861 0
-2958 3775 3861 0
2958 3775 -3861 0
2958 -3775 3861 0
-2959 -2961 2975 0
-2959 -2960 2975 0
-2959 2962 2975 0
2959 -2975 0
2959 2960 2961 -2962 0
-2960 -3756 -3842 0
-2960 3756 3842 0
2960 3756 -3842 0
2960 -3756 3842 0
-2961 -3755 -3841 0
-2961 3755 3841 0
2961 3755 -3841 0
2961 -3755 3841 0
2962 2963 -2971 0
2962 2963 2964 -2965 0
-2962 -2963 0
-2962 -2964 2971 0
-2962 2965 2971 0
-2963 -3754 -3840 0
-2963 3754 3840 0
2963 3754 -3840 0
2963 -3754 3840 0
-2964 -3752 -3838 0
-2964 3752 3838 0
2964 3752 -3838 0
2964 -3752 3838 0
-2965 2968 -2970 0
-2965 2966 2968 0
-2965 2967 2968 0
2965 -2968 0
2965 -2966 -2967 2970 0
2966 3826 -3913 0
2966 -3826 3913 0
-2966 -3826 -3913 0
-2966 3826 3913 0
2967 3825 -3912 0
2967 -3825 3912 0
-2967 -3825 -3912 0
-2967 3825 3912 0
2968 -2969 -2967 0
2968 3826 -3913 -2969 0
2968 -3826 3913 -2969 0
-2968 2969 0
-2968 3826 3913 2967 0
-2968 -3826 -3913 2967 0
2969 3827 -3914 0
2969 -3827 3914 0
-2969 -3827 -3914 0
-2969 3827 3914 0
-2970 -3827 -3914 0
-2970 3827 3914 0
2970 3827 -3914 0
2970 -3827 3914 0
2971 2972 2970 -2973 2974 0
-2971 -2974 0
-2971 -2972 0
-2971 2973 0
-2971 -2970 0
-2972 -3826 -3913 0
-2972 3826 3913 0
2972 3826 -3913 0
2972 -3826 3913 0
2973 3752 -3838 0
2973 -3752 3838 0
-2973 -3752 -3838 0
-2973 3752 3838 0
-2974 -3825 -3912 0
-2974 3825 3912 0
2974 3825 -3912 0
2974 -3825 3912 0
-2975 -2970 2981 0
-2975 -2972 2981 0
-2975 2976 2981 0
2975 -2981 0
2975 2972 2970 -2976 0
2976 -2973 2974 -2977 -2980 0
-2976 2980 0
-2976 2973 0
-2976 2977 0
-2976 -2974 0
2977 2978 -2979 0
2977 -2978 2979 0
-2977 -2978 -2979 0
-2977 2978 2979 0
2978 3840 3841 -3842 0
-2978 3842 0
-2978 -3841 0
-2978 -3840 0
2979 3754 3755 -3756 0
-2979 3756 0
-2979 -3755 0
-2979 -3754 0
2980 -185 2869 0
2980 185 -2869 0
-2980 185 2869 0
-2980 -185 -2869 0
-2981 -2970 2984 0
-2981 -2972 2984 0
-2981 2982 2984 0
2981 -2984 0
2981 2972 2970 -2982 0
2982 -2973 2974 -2980 -2983 0
-2982 2983 0
-2982 2973 0
-2982 2980 0
-2982 -2974 0
2983 193 -2883 0
2983 -193 2883 0
-2983 -193 -2883 0
-2983 193 2883 0
-2984 -2970 2987 0
-2984 -2972 2987 0
-2984 2985 2987 0
2984 -2987 0
2984 2972 2970 -2985 0
2985 -2973 2974 -2980 -2986 0
-2985 2986 0
-2985 2973 0
-2985 2980 0
-2985 -2974 0
2986 181 -2870 0
2986 -181 2870 0
-2986 -181 -2870 0
-2986 181 2870 0
-2987 -2970 2990 0
-2987 -2972 2990 0
-2987 2988 2990 0
2987 -2990 0
2987 2972 2970 -2988 0
2988 -2973 2974 -2980 -2989 0
-2988 2989 0
-2988 2973 0
-2988 2980 0
-2988 -2974 0
2989 183 -2866 0
2989 -183 2866 0
-2989 -183 -2866 0
-2989 183 2866 0
-2990 -2972 0
-2990 -2970 0
-2990 2991 2993 0
2990 2972 2970 -2993 0
2990 2972 2970 -2991 0
2991 -2973 2974 -2980 -2992 0
-2991 2992 0
-2991 2973 0
-2991 2980 0
-2991 -2974 0
2992 187 -2873 0
2992 -187 2873 0
-2992 -187 -2873 0
-2992 187 2873 0
2993 -2973 2974 -2980 -2994 0
-2993 2994 0
-2993 2973 0
-2993 2980 0
-2993 -2974 0
2994 189 -2874 0
2994 -189 2874 0
-2994 -189 -2874 0
-2994 189 2874 0
-2995 -2996 2998 0
-2995 -3775 -3861 2998 0
-2995 3775 3861 2998 0
2995 -2998 0
2995 3775 -3861 2996 0
2995 -3775 3861 2996 0
-2996 2960 2961 2963 2997 0
2996 -2997 0
2996 -2960 0
2996 -2963 0
2996 -2961 0
-2997 2964 2972 2970 2974 0
2997 -2974 0
2997 -2964 0
2997 -2970 0
2997 -2972 0
-2998 2999 3001 3003 0
-2998 2977 3001 3003 0
2998 -3003 0
2998 -3001 0
2998 -2977 -2999 0
2999 -2983 3000 0
-2999 2983 0
-2999 -3000 0
-3000 2958 2997 0
3000 -2958 0
3000 -2997 0
3001 2958 2972 2970 -3002 0
-3001 3002 0
-3001 -2958 0
-3001 -2970 0
-3001 -2972 0
3002 2964 2974 -2977 -2986 0
-3002 2986 0
-3002 -2964 0
-3002 2977 0
-3002 -2974 0
-3003 -2958 3008 0
-3003 3004 3006 3008 0
3003 -3008 0
3003 2958 -3006 0
3003 2958 -3004 0
3004 2964 2972 2970 -3005 0
-3004 3005 0
-3004 -2964 0
-3004 -2970 0
-3004 -2972 0
3005 2974 -2983 -2986 0
-3005 -2974 0
-3005 2983 0
-3005 2986 0
3006 2964 2972 2970 -3007 0
-3006 3007 0
-3006 -2964 0
-3006 -2970 0
-3006 -2972 0
3007 2974 -2977 -2989 0
-3007 -2974 0
-3007 2977 0
-3007 2989 0
-3008 -2958 3013 0
-3008 3009 3011 3013 0
3008 -3013 0
3008 2958 -3011 0
3008 2958 -3009 0
3009 2964 2972 2970 -3010 0
-3009 3010 0
-3009 -2964 0
-3009 -2970 0
-3009 -2972 0
3010 2974 -2983 -2989 0
-3010 -2974 0
-3010 2983 0
-3010 2989 0
3011 2964 2972 2970 -3012 0
-3011 3012 0
-3011 -2964 0
-3011 -2970 0
-3011 -2972 0
3012 2974 -2986 -2989 0
-3012 -2974 0
-3012 2986 0
-3012 2989 0
-3013 -2958 3018 0
-3013 3014 3016 3018 0
3013 -3018 0
3013 2958 -3016 0
3013 2958 -3014 0
3014 2964 2972 2970 -3015 0
-3014 3015 0
-3014 -2964 0
-3014 -2970 0
-3014 -2972 0
3015 2974 -2977 -2992 0
-3015 -2974 0
-3015 2977 0
-3015 2992 0
3016 2964 2972 2970 -3017 0
-3016 3017 0
-3016 -2964 0
-3016 -2970 0
-3016 -2972 0
3017 2974 -2986 -2992 0
-3017 -2974 0
-3017 2986 0
-3017 2992 0
-3018 3019 3021 3023 3025 0
3018 -3025 0
3018 -3023 0
3018 -3019 0
3018 -3021 0
3019 2958 2972 2970 -3020 0
-3019 3020 0
-3019 -2958 0
-3019 -2970 0
-3019 -2972 0
3020 2964 2974 -2983 -2992 0
-3020 2992 0
-3020 -2964 0
-3020 2983 0
-3020 -2974 0
3021 2958 2972 2970 -3022 0
-3021 3022 0
-3021 -2958 0
-3021 -2970 0
-3021 -2972 0
3022 2964 2974 -2989 -2992 0
-3022 2992 0
-3022 -2964 0
-3022 2989 0
-3022 -2974 0
3023 2958 2972 2970 -3024 0
-3023 3024 0
-3023 -2958 0
-3023 -2970 0
-3023 -2972 0
3024 2964 2974 -2977 -2994 0
-3024 2994 0
-3024 -2964 0
-3024 2977 0
-3024 -2974 0
-3025 -2958 3030 0
-3025 3026 3028 3030 0
3025 -3030 0
3025 2958 -3028 0
3025 2958 -3026 0
3026 2964 2972 2970 -3027 0
-3026 3027 0
-3026 -2964 0
-3026 -2970 0
-3026 -2972 0
3027 2974 -2983 -2994 0
-3027 -2974 0
-3027 2983 0
-3027 2994 0
3028 2964 2972 2970 -3029 0
-3028 3029 0
-3028 -2964 0
-3028 -2970 0
-3028 -2972 0
3029 2974 -2986 -2994 0
-3029 -2974 0
-3029 2986 0
-3029 2994 0
-3030 -2958 3035 0
-3030 3031 3033 3035 0
3030 -3035 0
3030 2958 -3033 0
3030 2958 -3031 0
3031 2964 2972 2970 -3032 0
-3031 3032 0
-3031 -2964 0
-3031 -2970 0
-3031 -2972 0
3032 2974 -2989 -2994 0
-3032 -2974 0
-3032 2989 0
-3032 2994 0
3033 2964 2972 2970 -3034 0
-3033 3034 0
-3033 -2964 0
-3033 -2970 0
-3033 -2972 0
3034 2974 -2992 -2994 0
-3034 -2974 0
-3034 2992 0
-3034 2994 0
-3035 2980 3036 0
-3035 2977 3036 0
-3035 -3000 3036 0
3035 -3036 0
3035 -2977 -2980 3000 0
-3036 2980 3038 0
-3036 2999 3037 3038 0
3036 -3038 0
3036 -2980 -3037 0
3036 -2980 -2999 0
3037 -2986 3000 0
-3037 2986 0
-3037 -3000 0
-3038 2989 3039 0
-3038 2980 3039 0
-3038 -3000 3039 0
3038 -3039 0
3038 -2980 -2989 3000 0
-3039 -3000 0
-3039 2980 0
-3039 2992 2994 0
3039 -2980 -2992 3000 0
3039 -2980 -2994 3000 0
-3040 2960 2961 2963 3000 0
3040 -3000 0
3040 -2960 0
3040 -2963 0
3040 -2961 0
3041 2960 2961 -3042 3043 0
-3041 -3043 0
-3041 -2960 0
-3041 3042 0
-3041 -2961 0
3042 3774 -3860 0
3042 -3774 3860 0
-3042 -3774 -3860 0
-3042 3774 3860 0
-3043 2958 2963 2970 3044 0
3043 -3044 0
3043 -2958 0
3043 -2970 0
3043 -2963 0
-3044 2957 2964 2972 2974 0
3044 -2974 0
3044 -2957 0
3044 -2972 0
3044 -2964 0
-3045 2960 2961 2963 3046 0
3045 -3046 0
3045 -2960 0
3045 -2963 0
3045 -2961 0
-3046 2958 2972 2970 3047 0
3046 -3047 0
3046 -2958 0
3046 -2970 0
3046 -2972 0
-3047 2954 2957 2964 2974 0
3047 -2974 0
3047 -2954 0
3047 -2964 0
3047 -2957 0
3048 3771 -3857 2960 3049 0
3048 -3771 3857 2960 3049 0
-3048 -3049 0
-3048 3771 3857 0
-3048 -2960 0
-3048 -3771 -3857 0
-3049 2958 2961 2963 3050 0
3049 -3050 0
3049 -2958 0
3049 -2963 0
3049 -2961 0
-3050 2972 2970 2974 3051 0
3050 -3051 0
3050 -2972 0
3050 -2974 0
3050 -2970 0
-3051 2953 2954 2957 2964 0
3051 -2964 0
3051 -2953 0
3051 -2957 0
3051 -2954 0
3052 2960 2961 -3053 3054 0
-3052 -3054 0
-3052 -2960 0
-3052 3053 0
-3052 -2961 0
3053 3770 -3856 0
3053 -3770 3856 0
-3053 -3770 -3856 0
-3053 3770 3856 0
-3054 2958 2963 2970 3055 0
3054 -3055 0
3054 -2958 0
3054 -2970 0
3054 -2963 0
-3055 2957 2972 2974 3056 0
3055 -3056 0
3055 -2957 0
3055 -2974 0
3055 -2972 0
-3056 2950 2953 2954 2964 0
3056 -2964 0
3056 -2950 0
3056 -2954 0
3056 -2953 0
-3057 3059 3064 0
-3057 3058 3064 0
-3057 -3060 3064 0
3057 -3064 0
3057 -3058 -3059 3060 0
3058 1698 -2262 0
3058 -1698 2262 0
-3058 -1698 -2262 0
-3058 1698 2262 0
3059 179 -1704 0
3059 -179 1704 0
-3059 -179 -1704 0
-3059 179 1704 0
-3060 2960 2961 2963 3061 0
3060 -3061 0
3060 -2960 0
3060 -2963 0
3060 -2961 0
-3061 2958 2972 2970 3062 0
3061 -3062 0
3061 -2958 0
3061 -2970 0
3061 -2972 0
-3062 2954 2957 2974 3063 0
3062 -3063 0
3062 -2954 0
3062 -2974 0
3062 -2957 0
-3063 2949 2950 2953 2964 0
3063 -2964 0
3063 -2949 0
3063 -2953 0
3063 -2950 0
-3064 -2961 3070 0
-3064 -2960 3070 0
-3064 3065 3070 0
3064 -3070 0
3064 2960 2961 -3065 0
3065 2958 2963 2970 -3066 0
-3065 3066 0
-3065 -2958 0
-3065 -2970 0
-3065 -2963 0
3066 2957 2972 2974 -3067 0
-3066 3067 0
-3066 -2957 0
-3066 -2974 0
-3066 -2972 0
3067 2950 2953 2954 -3068 0
-3067 3068 0
-3067 -2950 0
-3067 -2954 0
-3067 -2953 0
3068 2949 2964 -3058 -3069 0
-3068 3069 0
-3068 -2949 0
-3068 3058 0
-3068 -2964 0
3069 1701 -1702 0
3069 -1701 1702 0
-3069 -1701 -1702 0
-3069 1701 1702 0
-3070 -2961 3075 0
-3070 -2960 3075 0
-3070 3071 3075 0
3070 -3075 0
3070 2960 2961 -3071 0
3071 2958 2963 2970 -3072 0
-3071 3072 0
-3071 -2958 0
-3071 -2970 0
-3071 -2963 0
3072 2957 2972 2974 -3073 0
-3072 3073 0
-3072 -2957 0
-3072 -2974 0
-3072 -2972 0
3073 2950 2953 2954 -3074 0
-3073 3074 0
-3073 -2950 0
-3073 -2954 0
-3073 -2953 0
3074 2949 2964 -3059 -3069 0
-3074 3069 0
-3074 -2949 0
-3074 3059 0
-3074 -2964 0
-3075 -2961 3081 0
-3075 -2960 3081 0
-3075 3076 3081 0
3075 -3081 0
3075 2960 2961 -3076 0
3076 2958 2963 2970 -3077 0
-3076 3077 0
-3076 -2958 0
-3076 -2970 0
-3076 -2963 0
3077 2957 2972 2974 -3078 0
-3077 3078 0
-3077 -2957 0
-3077 -2974 0
-3077 -2972 0
3078 2950 2953 2954 -3079 0
-3078 3079 0
-3078 -2950 0
-3078 -2954 0
-3078 -2953 0
3079 2949 2964 -3058 -3080 0
-3079 3080 0
-3079 -2949 0
-3079 3058 0
-3079 -2964 0
3080 1694 -1695 0
3080 -1694 1695 0
-3080 -1694 -1695 0
-3080 1694 1695 0
-3081 -2961 3086 0
-3081 -2960 3086 0
-3081 3082 3086 0
3081 -3086 0
3081 2960 2961 -3082 0
3082 2958 2963 2970 -3083 0
-3082 3083 0
-3082 -2958 0
-3082 -2970 0
-3082 -2963 0
3083 2957 2972 2974 -3084 0
-3083 3084 0
-3083 -2957 0
-3083 -2974 0
-3083 -2972 0
3084 2950 2953 2954 -3085 0
-3084 3085 0
-3084 -2950 0
-3084 -2954 0
-3084 -2953 0
3085 2949 2964 -3059 -3080 0
-3085 3080 0
-3085 -2949 0
-3085 3059 0
-3085 -2964 0
-3086 -2961 3091 0
-3086 -2960 3091 0
-3086 3087 3091 0
3086 -3091 0
3086 2960 2961 -3087 0
3087 2958 2963 2970 -3088 0
-3087 3088 0
-3087 -2958 0
-3087 -2970 0
-3087 -2963 0
3088 2957 2972 2974 -3089 0
-3088 3089 0
-3088 -2957 0
-3088 -2974 0
-3088 -2972 0
3089 2950 2953 2954 -3090 0
-3089 3090 0
-3089 -2950 0
-3089 -2954 0
-3089 -2953 0
3090 2949 2964 -3069 -3080 0
-3090 3080 0
-3090 -2949 0
-3090 3069 0
-3090 -2964 0
-3091 -2961 3097 0
-3091 -2960 3097 0
-3091 3092 3097 0
3091 -3097 0
3091 2960 2961 -3092 0
3092 2958 2963 2970 -3093 0
-3092 3093 0
-3092 -2958 0
-3092 -2970 0
-3092 -2963 0
3093 2957 2972 2974 -3094 0
-3093 3094 0
-3093 -2957 0
-3093 -2974 0
-3093 -2972 0
3094 2950 2953 2954 -3095 0
-3094 3095 0
-3094 -2950 0
-3094 -2954 0
-3094 -2953 0
3095 2949 2964 -3058 -3096 0
-3095 3096 0
-3095 -2949 0
-3095 3058 0
-3095 -2964 0
3096 -1691 1692 0
3096 1691 -1692 0
-3096 1691 1692 0
-3096 -1691 -1692 0
-3097 -2961 3102 0
-3097 -2960 3102 0
-3097 3098 3102 0
3097 -3102 0
3097 2960 2961 -3098 0
3098 2958 2963 2970 -3099 0
-3098 3099 0
-3098 -2958 0
-3098 -2970 0
-3098 -2963 0
3099 2957 2972 2974 -3100 0
-3099 3100 0
-3099 -2957 0
-3099 -2974 0
-3099 -2972 0
3100 2950 2953 2954 -3101 0
-3100 3101 0
-3100 -2950 0
-3100 -2954 0
-3100 -2953 0
3101 2949 2964 -3059 -3096 0
-3101 3096 0
-3101 -2949 0
-3101 3059 0
-3101 -2964 0
-3102 -2961 3107 0
-3102 -2960 3107 0
-3102 3103 3107 0
3102 -3107 0
3102 2960 2961 -3103 0
3103 2958 2963 2970 -3104 0
-3103 3104 0
-3103 -2958 0
-3103 -2970 0
-3103 -2963 0
3104 2957 2972 2974 -3105 0
-3104 3105 0
-3104 -2957 0
-3104 -2974 0
-3104 -2972 0
3105 2950 2953 2954 -3106 0
-3105 3106 0
-3105 -2950 0
-3105 -2954 0
-3105 -2953 0
3106 2949 2964 -3069 -3096 0
-3106 3096 0
-3106 -2949 0
-3106 3069 0
-3106 -2964 0
-3107 -2961 3112 0
-3107 -2960 3112 0
-3107 3108 3112 0
3107 -3112 0
3107 2960 2961 -3108 0
3108 2958 2963 2970 -3109 0
-3108 3109 0
-3108 -2958 0
-3108 -2970 0
-3108 -2963 0
3109 2957 2972 2974 -3110 0
-3109 3110 0
-3109 -2957 0
-3109 -2974 0
-3109 -2972 0
3110 2950 2953 2954 -3111 0
-3110 3111 0
-3110 -2950 0
-3110 -2954 0
-3110 -2953 0
3111 2949 2964 -3080 -3096 0
-3111 3096 0
-3111 -2949 0
-3111 3080 0
-3111 -2964 0
-3112 -2961 3118 0
-3112 -2960 3118 0
-3112 3113 3118 0
3112 -3118 0
3112 2960 2961 -3113 0
3113 2958 2963 2970 -3114 0
-3113 3114 0
-3113 -2958 0
-3113 -2970 0
-3113 -2963 0
3114 2957 2972 2974 -3115 0
-3114 3115 0
-3114 -2957 0
-3114 -2974 0
-3114 -2972 0
3115 2950 2953 2954 -3116 0
-3115 3116 0
-3115 -2950 0
-3115 -2954 0
-3115 -2953 0
3116 2949 2964 -3058 -3117 0
-3116 3117 0
-3116 -2949 0
-3116 3058 0
-3116 -2964 0
3117 1470 -1627 0
3117 -1470 1627 0
-3117 -1470 -1627 0
-3117 1470 1627 0
-3118 -2961 3123 0
-3118 -2960 3123 0
-3118 3119 3123 0
3118 -3123 0
3118 2960 2961 -3119 0
3119 2958 2963 2970 -3120 0
-3119 3120 0
-3119 -2958 0
-3119 -2970 0
-3119 -2963 0
3120 2957 2972 2974 -3121 0
-3120 3121 0
-3120 -2957 0
-3120 -2974 0
-3120 -2972 0
3121 2950 2953 2954 -3122 0
-3121 3122 0
-3121 -2950 0
-3121 -2954 0
-3121 -2953 0
3122 2949 2964 -3059 -3117 0
-3122 3117 0
-3122 -2949 0
-3122 3059 0
-3122 -2964 0
-3123 -2961 3128 0
-3123 -2960 3128 0
-3123 3124 3128 0
3123 -3128 0
3123 2960 2961 -3124 0
3124 2958 2963 2970 -3125 0
-3124 3125 0
-3124 -2958 0
-3124 -2970 0
-3124 -2963 0
3125 2957 2972 2974 -3126 0
-3125 3126 0
-3125 -2957 0
-3125 -2974 0
-3125 -2972 0
3126 2950 2953 2954 -3127 0
-3126 3127 0
-3126 -2950 0
-3126 -2954 0
-3126 -2953 0
3127 2949 2964 -3069 -3117 0
-3127 3117 0
-3127 -2949 0
-3127 3069 0
-3127 -2964 0
-3128 -2961 3133 0
-3128 -2960 3133 0
-3128 3129 3133 0
3128 -3133 0
3128 2960 2961 -3129 0
3129 2958 2963 2970 -3130 0
-3129 3130 0
-3129 -2958 0
-3129 -2970 0
-3129 -2963 0
3130 2957 2972 2974 -3131 0
-3130 3131 0
-3130 -2957 0
-3130 -2974 0
-3130 -2972 0
3131 2950 2953 2954 -3132 0
-3131 3132 0
-3131 -2950 0
-3131 -2954 0
-3131 -2953 0
3132 2949 2964 -3080 -3117 0
-3132 3117 0
-3132 -2949 0
-3132 3080 0
-3132 -2964 0
-3133 -2961 3138 0
-3133 -2960 3138 0
-3133 3134 3138 0
3133 -3138 0
3133 2960 2961 -3134 0
3134 2958 2963 2970 -3135 0
-3134 3135 0
-3134 -2958 0
-3134 -2970 0
-3134 -2963 0
3135 2957 2972 2974 -3136 0
-3135 3136 0
-3135 -2957 0
-3135 -2974 0
-3135 -2972 0
3136 2950 2953 2954 -3137 0
-3136 3137 0
-3136 -2950 0
-3136 -2954 0
-3136 -2953 0
3137 2949 2964 -3096 -3117 0
-3137 3117 0
-3137 -2949 0
-3137 3096 0
-3137 -2964 0
-3138 -2961 3145 0
-3138 -2960 3145 0
-3138 3139 3145 0
3138 -3145 0
3138 2960 2961 -3139 0
3139 2958 2963 2970 -3140 0
-3139 3140 0
-3139 -2958 0
-3139 -2970 0
-3139 -2963 0
3140 2957 2972 2974 -3141 0
-3140 3141 0
-3140 -2957 0
-3140 -2974 0
-3140 -2972 0
3141 2950 2953 2954 -3142 0
-3141 3142 0
-3141 -2950 0
-3141 -2954 0
-3141 -2953 0
3142 2949 2964 -3058 -3143 0
-3142 3143 0
-3142 -2949 0
-3142 3058 0
-3142 -2964 0
3143 1434 -3144 0
3143 -1434 3144 0
-3143 -1434 -3144 0
-3143 1434 3144 0
3144 -3781 3782 -3783 0
-3144 3781 0
-3144 -3782 0
-3144 3783 0
-3145 -2961 3150 0
-3145 -2960 3150 0
-3145 3146 3150 0
3145 -3150 0
3145 2960 2961 -3146 0
3146 2958 2963 2970 -3147 0
-3146 3147 0
-3146 -2958 0
-3146 -2970 0
-3146 -2963 0
3147 2957 2972 2974 -3148 0
-3147 3148 0
-3147 -2957 0
-3147 -2974 0
-3147 -2972 0
3148 2950 2953 2954 -3149 0
-3148 3149 0
-3148 -2950 0
-3148 -2954 0
-3148 -2953 0
3149 2949 2964 -3059 -3143 0
-3149 3143 0
-3149 -2949 0
-3149 3059 0
-3149 -2964 0
-3150 -2961 3155 0
-3150 -2960 3155 0
-3150 3151 3155 0
3150 -3155 0
3150 2960 2961 -3151 0
3151 2958 2963 2970 -3152 0
-3151 3152 0
-3151 -2958 0
-3151 -2970 0
-3151 -2963 0
3152 2957 2972 2974 -3153 0
-3152 3153 0
-3152 -2957 0
-3152 -2974 0
-3152 -2972 0
3153 2950 2953 2954 -3154 0
-3153 3154 0
-3153 -2950 0
-3153 -2954 0
-3153 -2953 0
3154 2949 2964 -3069 -3143 0
-3154 3143 0
-3154 -2949 0
-3154 3069 0
-3154 -2964 0
-3155 -2961 3160 0
-3155 -2960 3160 0
-3155 3156 3160 0
3155 -3160 0
3155 2960 2961 -3156 0
3156 2958 2963 2970 -3157 0
-3156 3157 0
-3156 -2958 0
-3156 -2970 0
-3156 -2963 0
3157 2957 2972 2974 -3158 0
-3157 3158 0
-3157 -2957 0
-3157 -2974 0
-3157 -2972 0
3158 2950 2953 2954 -3159 0
-3158 3159 0
-3158 -2950 0
-3158 -2954 0
-3158 -2953 0
3159 2949 2964 -3080 -3143 0
-3159 3143 0
-3159 -2949 0
-3159 3080 0
-3159 -2964 0
-3160 -2960 0
-3160 -2961 0
-3160 3161 3165 0
3160 2960 2961 -3165 0
3160 2960 2961 -3161 0
3161 2958 2963 2970 -3162 0
-3161 3162 0
-3161 -2958 0
-3161 -2970 0
-3161 -2963 0
3162 2957 2972 2974 -3163 0
-3162 3163 0
-3162 -2957 0
-3162 -2974 0
-3162 -2972 0
3163 2950 2953 2954 -3164 0
-3163 3164 0
-3163 -2950 0
-3163 -2954 0
-3163 -2953 0
3164 2949 2964 -3096 -3143 0
-3164 3143 0
-3164 -2949 0
-3164 3096 0
-3164 -2964 0
3165 2958 2963 2970 -3166 0
-3165 3166 0
-3165 -2958 0
-3165 -2970 0
-3165 -2963 0
3166 2957 2972 2974 -3167 0
-3166 3167 0
-3166 -2957 0
-3166 -2974 0
-3166 -2972 0
3167 2950 2953 2954 -3168 0
-3167 3168 0
-3167 -2950 0
-3167 -2954 0
-3167 -2953 0
3168 2949 2964 -3117 -3143 0
-3168 3143 0
-3168 -2949 0
-3168 3117 0
-3168 -2964 0
-3169 2960 2961 2963 3170 0
3169 -3170 0
3169 -2960 0
3169 -2963 0
3169 -2961 0
-3170 2958 2972 2970 3171 0
3170 -3171 0
3170 -2958 0
3170 -2970 0
3170 -2972 0
-3171 2954 2957 2974 3172 0
3171 -3172 0
3171 -2954 0
3171 -2974 0
3171 -2957 0
-3172 2949 2950 2953 3173 0
3172 -3173 0
3172 -2949 0
3172 -2953 0
3172 -2950 0
-3173 2944 2946 2947 2964 0
3173 -2964 0
3173 -2944 0
3173 -2947 0
3173 -2946 0
3174 3766 -3852 2960 3175 0
3174 -3766 3852 2960 3175 0
-3174 -3175 0
-3174 3766 3852 0
-3174 -2960 0
-3174 -3766 -3852 0
-3175 2958 2961 2963 3176 0
3175 -3176 0
3175 -2958 0
3175 -2963 0
3175 -2961 0
-3176 2972 2970 2974 3177 0
3176 -3177 0
3176 -2972 0
3176 -2974 0
3176 -2970 0
-3177 2953 2954 2957 3178 0
3177 -3178 0
3177 -2953 0
3177 -2957 0
3177 -2954 0
-3178 2943 2949 2950 3173 0
3178 -3173 0
3178 -2943 0
3178 -2950 0
3178 -2949 0
-3179 2960 2961 2963 3180 0
3179 -3180 0
3179 -2960 0
3179 -2963 0
3179 -2961 0
-3180 2958 2972 2970 3181 0
3180 -3181 0
3180 -2958 0
3180 -2970 0
3180 -2972 0
-3181 2954 2957 2974 3182 0
3181 -3182 0
3181 -2954 0
3181 -2974 0
3181 -2957 0
-3182 2949 2950 2953 3183 0
3182 -3183 0
3182 -2949 0
3182 -2953 0
3182 -2950 0
-3183 2940 2943 3173 0
3183 -2940 0
3183 -2943 0
3183 -3173 0
3184 3780 -3866 2960 3185 0
3184 -3780 3866 2960 3185 0
-3184 -3185 0
-3184 3780 3866 0
-3184 -2960 0
-3184 -3780 -3866 0
-3185 2958 2961 2963 3186 0
3185 -3186 0
3185 -2958 0
3185 -2963 0
3185 -2961 0
-3186 2972 2970 2974 3187 0
3186 -3187 0
3186 -2972 0
3186 -2974 0
3186 -2970 0
-3187 2953 2954 2957 3188 0
3187 -3188 0
3187 -2953 0
3187 -2957 0
3187 -2954 0
-3188 2943 2949 2950 3189 0
3188 -3189 0
3188 -2943 0
3188 -2950 0
3188 -2949 0
-3189 2939 2940 3173 0
3189 -2939 0
3189 -2940 0
3189 -3173 0
-3190 2960 2961 2963 3191 0
3190 -3191 0
3190 -2960 0
3190 -2963 0
3190 -2961 0
-3191 2958 2972 2970 3192 0
3191 -3192 0
3191 -2958 0
3191 -2970 0
3191 -2972 0
-3192 2954 2957 2974 3193 0
3192 -3193 0
3192 -2954 0
3192 -2974 0
3192 -2957 0
-3193 2949 2950 2953 3194 0
3193 -3194 0
3193 -2949 0
3193 -2953 0
3193 -2950 0
-3194 2939 2940 2943 3195 0
3194 -3195 0
3194 -2939 0
3194 -2943 0
3194 -2940 0
-3195 2944 2946 2947 3196 0
3195 -3196 0
3195 -2944 0
3195 -2947 0
3195 -2946 0
-3196 2936 2964 0
3196 -2936 0
3196 -2964 0
3197 3776 -3862 2960 3198 0
3197 -3776 3862 2960 3198 0
-3197 -3198 0
-3197 3776 3862 0
-3197 -2960 0
-3197 -3776 -3862 0
-3198 2958 2961 2963 3199 0
3198 -3199 0
3198 -2958 0
3198 -2963 0
3198 -2961 0
-3199 2972 2970 2974 3200 0
3199 -3200 0
3199 -2972 0
3199 -2974 0
3199 -2970 0
-3200 2953 2954 2957 3201 0
3200 -3201 0
3200 -2953 0
3200 -2957 0
3200 -2954 0
-3201 2943 2949 2950 3202 0
3201 -3202 0
3201 -2943 0
3201 -2950 0
3201 -2949 0
-3202 2935 2939 2940 3195 0
3202 -3195 0
3202 -2935 0
3202 -2940 0
3202 -2939 0
-3203 2960 2961 2963 3204 0
3203 -3204 0
3203 -2960 0
3203 -2963 0
3203 -2961 0
-3204 2958 2972 2970 3205 0
3204 -3205 0
3204 -2958 0
3204 -2970 0
3204 -2972 0
-3205 2954 2957 2974 3206 0
3205 -3206 0
3205 -2954 0
3205 -2974 0
3205 -2957 0
-3206 2949 2950 2953 3207 0
3206 -3207 0
3206 -2949 0
3206 -2953 0
3206 -2950 0
-3207 2939 2940 2943 3208 0
3207 -3208 0
3207 -2939 0
3207 -2943 0
3207 -2940 0
-3208 2932 2935 3195 0
3208 -2932 0
3208 -2935 0
3208 -3195 0
-3209 2960 2961 2963 3210 0
3209 -3210 0
3209 -2960 0
3209 -2963 0
3209 -2961 0
-3210 2958 2972 2970 3211 0
3210 -3211 0
3210 -2958 0
3210 -2970 0
3210 -2972 0
-3211 2954 2957 2974 3212 0
3211 -3212 0
3211 -2954 0
3211 -2974 0
3211 -2957 0
-3212 2949 2950 2953 3213 0
3212 -3213 0
3212 -2949 0
3212 -2953 0
3212 -2950 0
-3213 2939 2940 2943 3214 0
3213 -3214 0
3213 -2939 0
3213 -2943 0
3213 -2940 0
-3214 2931 2932 2935 3195 0
3214 -3195 0
3214 -2931 0
3214 -2935 0
3214 -2932 0
3215 2960 -3216 -3217 3218 0
-3215 -3218 0
-3215 -2960 0
-3215 3217 0
-3215 3216 0
3216 1489 -1490 0
3216 -1489 1490 0
-3216 -1489 -1490 0
-3216 1489 1490 0
3217 1466 -1630 0
3217 -1466 1630 0
-3217 -1466 -1630 0
-3217 1466 1630 0
-3218 2958 2961 2963 3219 0
3218 -3219 0
3218 -2958 0
3218 -2963 0
3218 -2961 0
-3219 2972 2970 2974 3220 0
3219 -3220 0
3219 -2972 0
3219 -2974 0
3219 -2970 0
-3220 2953 2954 2957 3221 0
3220 -3221 0
3220 -2953 0
3220 -2957 0
3220 -2954 0
-3221 2943 2949 2950 3222 0
3221 -3222 0
3221 -2943 0
3221 -2950 0
3221 -2949 0
-3222 2935 2939 2940 3223 0
3222 -3223 0
3222 -2935 0
3222 -2940 0
3222 -2939 0
-3223 3224 2931 2932 3195 0
3223 -3195 0
3223 -3224 0
3223 -2932 0
3223 -2931 0
-3224 -3793 -3879 0
-3224 3793 3879 0
3224 3793 -3879 0
3224 -3793 3879 0
-3225 -2960 3243 0
-3225 3226 3235 3243 0
3225 -3243 0
3225 2960 -3235 0
3225 2960 -3226 0
3226 2958 2961 2963 -3227 0
-3226 3227 0
-3226 -2958 0
-3226 -2963 0
-3226 -2961 0
3227 2972 2970 2974 -3228 0
-3227 3228 0
-3227 -2972 0
-3227 -2974 0
-3227 -2970 0
3228 2953 2954 2957 -3229 0
-3228 3229 0
-3228 -2953 0
-3228 -2957 0
-3228 -2954 0
3229 2943 2949 2950 -3230 0
-3229 3230 0
-3229 -2943 0
-3229 -2950 0
-3229 -2949 0
3230 2935 2939 2940 -3231 0
-3230 3231 0
-3230 -2935 0
-3230 -2940 0
-3230 -2939 0
3231 3224 2931 2932 -3232 0
-3231 3232 0
-3231 -3224 0
-3231 -2932 0
-3231 -2931 0
3232 2944 2946 2947 -3233 0
-3232 3233 0
-3232 -2944 0
-3232 -2947 0
-3232 -2946 0
3233 2936 2964 -3216 -3234 0
-3233 3234 0
-3233 -2936 0
-3233 3216 0
-3233 -2964 0
3234 1437 -1484 0
3234 -1437 1484 0
-3234 -1437 -1484 0
-3234 1437 1484 0
3235 2958 2961 2963 -3236 0
-3235 3236 0
-3235 -2958 0
-3235 -2963 0
-3235 -2961 0
3236 2972 2970 2974 -3237 0
-3236 3237 0
-3236 -2972 0
-3236 -2974 0
-3236 -2970 0
3237 2953 2954 2957 -3238 0
-3237 3238 0
-3237 -2953 0
-3237 -2957 0
-3237 -2954 0
3238 2943 2949 2950 -3239 0
-3238 3239 0
-3238 -2943 0
-3238 -2950 0
-3238 -2949 0
3239 2935 2939 2940 -3240 0
-3239 3240 0
-3239 -2935 0
-3239 -2940 0
-3239 -2939 0
3240 3224 2931 2932 -3241 0
-3240 3241 0
-3240 -3224 0
-3240 -2932 0
-3240 -2931 0
3241 2944 2946 2947 -3242 0
-3241 3242 0
-3241 -2944 0
-3241 -2947 0
-3241 -2946 0
3242 2936 2964 -3217 -3234 0
-3242 3234 0
-3242 -2936 0
-3242 3217 0
-3242 -2964 0
-3243 -2960 3261 0
-3243 3244 3253 3261 0
3243 -3261 0
3243 2960 -3253 0
3243 2960 -3244 0
3244 2958 2961 2963 -3245 0
-3244 3245 0
-3244 -2958 0
-3244 -2963 0
-3244 -2961 0
3245 2972 2970 2974 -3246 0
-3245 3246 0
-3245 -2972 0
-3245 -2974 0
-3245 -2970 0
3246 2953 2954 2957 -3247 0
-3246 3247 0
-3246 -2953 0
-3246 -2957 0
-3246 -2954 0
3247 2943 2949 2950 -3248 0
-3247 3248 0
-3247 -2943 0
-3247 -2950 0
-3247 -2949 0
3248 2935 2939 2940 -3249 0
-3248 3249 0
-3248 -2935 0
-3248 -2940 0
-3248 -2939 0
3249 3224 2931 2932 -3250 0
-3249 3250 0
-3249 -3224 0
-3249 -2932 0
-3249 -2931 0
3250 2944 2946 2947 -3251 0
-3250 3251 0
-3250 -2944 0
-3250 -2947 0
-3250 -2946 0
3251 2936 2964 -3216 -3252 0
-3251 3252 0
-3251 -2936 0
-3251 3216 0
-3251 -2964 0
3252 1430 -1510 0
3252 -1430 1510 0
-3252 -1430 -1510 0
-3252 1430 1510 0
3253 2958 2961 2963 -3254 0
-3253 3254 0
-3253 -2958 0
-3253 -2963 0
-3253 -2961 0
3254 2972 2970 2974 -3255 0
-3254 3255 0
-3254 -2972 0
-3254 -2974 0
-3254 -2970 0
3255 2953 2954 2957 -3256 0
-3255 3256 0
-3255 -2953 0
-3255 -2957 0
-3255 -2954 0
3256 2943 2949 2950 -3257 0
-3256 3257 0
-3256 -2943 0
-3256 -2950 0
-3256 -2949 0
3257 2935 2939 2940 -3258 0
-3257 3258 0
-3257 -2935 0
-3257 -2940 0
-3257 -2939 0
3258 3224 2931 2932 -3259 0
-3258 3259 0
-3258 -3224 0
-3258 -2932 0
-3258 -2931 0
3259 2944 2946 2947 -3260 0
-3259 3260 0
-3259 -2944 0
-3259 -2947 0
-3259 -2946 0
3260 2936 2964 -3217 -3252 0
-3260 3252 0
-3260 -2936 0
-3260 3217 0
-3260 -2964 0
-3261 -2960 3279 0
-3261 3262 3270 3279 0
3261 -3279 0
3261 2960 -3270 0
3261 2960 -3262 0
3262 2958 2961 2963 -3263 0
-3262 3263 0
-3262 -2958 0
-3262 -2963 0
-3262 -2961 0
3263 2972 2970 2974 -3264 0
-3263 3264 0
-3263 -2972 0
-3263 -2974 0
-3263 -2970 0
3264 2953 2954 2957 -3265 0
-3264 3265 0
-3264 -2953 0
-3264 -2957 0
-3264 -2954 0
3265 2943 2949 2950 -3266 0
-3265 3266 0
-3265 -2943 0
-3265 -2950 0
-3265 -2949 0
3266 2935 2939 2940 -3267 0
-3266 3267 0
-3266 -2935 0
-3266 -2940 0
-3266 -2939 0
3267 3224 2931 2932 -3268 0
-3267 3268 0
-3267 -3224 0
-3267 -2932 0
-3267 -2931 0
3268 2944 2946 2947 -3269 0
-3268 3269 0
-3268 -2944 0
-3268 -2947 0
-3268 -2946 0
3269 2936 2964 -3234 -3252 0
-3269 3252 0
-3269 -2936 0
-3269 3234 0
-3269 -2964 0
3270 2958 2961 2963 -3271 0
-3270 3271 0
-3270 -2958 0
-3270 -2963 0
-3270 -2961 0
3271 2972 2970 2974 -3272 0
-3271 3272 0
-3271 -2972 0
-3271 -2974 0
-3271 -2970 0
3272 2953 2954 2957 -3273 0
-3272 3273 0
-3272 -2953 0
-3272 -2957 0
-3272 -2954 0
3273 2943 2949 2950 -3274 0
-3273 3274 0
-3273 -2943 0
-3273 -2950 0
-3273 -2949 0
3274 2935 2939 2940 -3275 0
-3274 3275 0
-3274 -2935 0
-3274 -2940 0
-3274 -2939 0
3275 3224 2931 2932 -3276 0
-3275 3276 0
-3275 -3224 0
-3275 -2932 0
-3275 -2931 0
3276 2944 2946 2947 -3277 0
-3276 3277 0
-3276 -2944 0
-3276 -2947 0
-3276 -2946 0
3277 2936 2964 -3216 -3278 0
-3277 3278 0
-3277 -2936 0
-3277 3216 0
-3277 -2964 0
3278 -1445 1532 0
3278 1445 -1532 0
-3278 1445 1532 0
-3278 -1445 -1532 0
-3279 -2960 0
-3279 3280 3288 3296 0
3279 2960 -3280 0
3279 2960 -3296 0
3279 2960 -3288 0
3280 2958 2961 2963 -3281 0
-3280 3281 0
-3280 -2958 0
-3280 -2963 0
-3280 -2961 0
3281 2972 2970 2974 -3282 0
-3281 3282 0
-3281 -2972 0
-3281 -2974 0
-3281 -2970 0
3282 2953 2954 2957 -3283 0
-3282 3283 0
-3282 -2953 0
-3282 -2957 0
-3282 -2954 0
3283 2943 2949 2950 -3284 0
-3283 3284 0
-3283 -2943 0
-3283 -2950 0
-3283 -2949 0
3284 2935 2939 2940 -3285 0
-3284 3285 0
-3284 -2935 0
-3284 -2940 0
-3284 -2939 0
3285 3224 2931 2932 -3286 0
-3285 3286 0
-3285 -3224 0
-3285 -2932 0
-3285 -2931 0
3286 2944 2946 2947 -3287 0
-3286 3287 0
-3286 -2944 0
-3286 -2947 0
-3286 -2946 0
3287 2936 2964 -3217 -3278 0
-3287 3278 0
-3287 -2936 0
-3287 3217 0
-3287 -2964 0
3288 2958 2961 2963 -3289 0
-3288 3289 0
-3288 -2958 0
-3288 -2963 0
-3288 -2961 0
3289 2972 2970 2974 -3290 0
-3289 3290 0
-3289 -2972 0
-3289 -2974 0
-3289 -2970 0
3290 2953 2954 2957 -3291 0
-3290 3291 0
-3290 -2953 0
-3290 -2957 0
-3290 -2954 0
3291 2943 2949 2950 -3292 0
-3291 3292 0
-3291 -2943 0
-3291 -2950 0
-3291 -2949 0
3292 2935 2939 2940 -3293 0
-3292 3293 0
-3292 -2935 0
-3292 -2940 0
-3292 -2939 0
3293 3224 2931 2932 -3294 0
-3293 3294 0
-3293 -3224 0
-3293 -2932 0
-3293 -2931 0
3294 2944 2946 2947 -3295 0
-3294 3295 0
-3294 -2944 0
-3294 -2947 0
-3294 -2946 0
3295 2936 2964 -3234 -3278 0
-3295 3278 0
-3295 -2936 0
-3295 3234 0
-3295 -2964 0
3296 2958 2961 2963 -3297 0
-3296 3297 0
-3296 -2958 0
-3296 -2963 0
-3296 -2961 0
3297 2972 2970 2974 -3298 0
-3297 3298 0
-3297 -2972 0
-3297 -2974 0
-3297 -2970 0
3298 2953 2954 2957 -3299 0
-3298 3299 0
-3298 -2953 0
-3298 -2957 0
-3298 -2954 0
3299 2943 2949 2950 -3300 0
-3299 3300 0
-3299 -2943 0
-3299 -2950 0
-3299 -2949 0
3300 2935 2939 2940 -3301 0
-3300 3301 0
-3300 -2935 0
-3300 -2940 0
-3300 -2939 0
3301 3224 2931 2932 -3302 0
-3301 3302 0
-3301 -3224 0
-3301 -2932 0
-3301 -2931 0
3302 2944 2946 2947 -3303 0
-3302 3303 0
-3302 -2944 0
-3302 -2947 0
-3302 -2946 0
3303 2936 2964 -3252 -3278 0
-3303 3278 0
-3303 -2936 0
-3303 3252 0
-3303 -2964 0
-3304 2960 2961 2963 3305 0
3304 -3305 0
3304 -2960 0
3304 -2963 0
3304 -2961 0
-3305 2958 2972 2970 3306 0
3305 -3306 0
3305 -2958 0
3305 -2970 0
3305 -2972 0
-3306 2954 2957 2974 3307 0
3306 -3307 0
3306 -2954 0
3306 -2974 0
3306 -2957 0
-3307 2949 2950 2953 3308 0
3307 -3308 0
3307 -2949 0
3307 -2953 0
3307 -2950 0
-3308 2939 2940 2943 3309 0
3308 -3309 0
3308 -2939 0
3308 -2943 0
3308 -2940 0
-3309 2931 2932 2935 3310 0
3309 -3310 0
3309 -2931 0
3309 -2935 0
3309 -2932 0
-3310 3224 2944 2946 3311 0
3310 -3311 0
3310 -3224 0
3310 -2946 0
3310 -2944 0
-3311 2936 2947 2964 3312 0
3311 -3312 0
3311 -2936 0
3311 -2964 0
3311 -2947 0
-3312 2925 2926 2927 0
3312 -2925 0
3312 -2926 0
3312 -2927 0
-3313 2960 2961 2963 3314 0
3313 -3314 0
3313 -2960 0
3313 -2963 0
3313 -2961 0
-3314 2958 2972 2970 3315 0
3314 -3315 0
3314 -2958 0
3314 -2970 0
3314 -2972 0
-3315 2954 2957 2974 3316 0
3315 -3316 0
3315 -2954 0
3315 -2974 0
3315 -2957 0
-3316 2949 2950 2953 3317 0
3316 -3317 0
3316 -2949 0
3316 -2953 0
3316 -2950 0
-3317 2939 2940 2943 3318 0
3317 -3318 0
3317 -2939 0
3317 -2943 0
3317 -2940 0
-3318 2931 2932 2935 3319 0
3318 -3319 0
3318 -2931 0
3318 -2935 0
3318 -2932 0
-3319 3224 2944 2946 3320 0
3319 -3320 0
3319 -3224 0
3319 -2946 0
3319 -2944 0
-3320 2925 2936 2947 3321 0
3320 -3321 0
3320 -2925 0
3320 -2947 0
3320 -2936 0
-3321 2923 2926 2927 2964 0
3321 -2964 0
3321 -2923 0
3321 -2927 0
3321 -2926 0
3322 3814 -3900 2960 3323 0
3322 -3814 3900 2960 3323 0
-3322 -3323 0
-3322 3814 3900 0
-3322 -2960 0
-3322 -3814 -3900 0
-3323 2958 2961 2963 3324 0
3323 -3324 0
3323 -2958 0
3323 -2963 0
3323 -2961 0
-3324 2972 2970 2974 3325 0
3324 -3325 0
3324 -2972 0
3324 -2974 0
3324 -2970 0
-3325 2953 2954 2957 3326 0
3325 -3326 0
3325 -2953 0
3325 -2957 0
3325 -2954 0
-3326 2943 2949 2950 3327 0
3326 -3327 0
3326 -2943 0
3326 -2950 0
3326 -2949 0
-3327 2935 2939 2940 3328 0
3327 -3328 0
3327 -2935 0
3327 -2940 0
3327 -2939 0
-3328 3224 2931 2932 3329 0
3328 -3329 0
3328 -3224 0
3328 -2932 0
3328 -2931 0
-3329 2944 2946 2947 3330 0
3329 -3330 0
3329 -2944 0
3329 -2947 0
3329 -2946 0
-3330 2925 2926 2936 3331 0
3330 -3331 0
3330 -2925 0
3330 -2936 0
3330 -2926 0
-3331 3332 2923 2927 2964 0
3331 -2964 0
3331 -3332 0
3331 -2927 0
3331 -2923 0
-3332 -3790 -3876 0
-3332 3790 3876 0
3332 3790 -3876 0
3332 -3790 3876 0
-3333 2960 2961 2963 3334 0
3333 -3334 0
3333 -2960 0
3333 -2963 0
3333 -2961 0
-3334 2958 2972 2970 3335 0
3334 -3335 0
3334 -2958 0
3334 -2970 0
3334 -2972 0
-3335 2954 2957 2974 3336 0
3335 -3336 0
3335 -2954 0
3335 -2974 0
3335 -2957 0
-3336 2949 2950 2953 3337 0
3336 -3337 0
3336 -2949 0
3336 -2953 0
3336 -2950 0
-3337 2939 2940 2943 3338 0
3337 -3338 0
3337 -2939 0
3337 -2943 0
3337 -2940 0
-3338 2931 2932 2935 3339 0
3338 -3339 0
3338 -2931 0
3338 -2935 0
3338 -2932 0
-3339 3224 2944 2946 3340 0
3339 -3340 0
3339 -3224 0
3339 -2946 0
3339 -2944 0
-3340 2925 2936 2947 3341 0
3340 -3341 0
3340 -2925 0
3340 -2947 0
3340 -2936 0
-3341 2923 2926 2927 3342 0
3341 -3342 0
3341 -2923 0
3341 -2927 0
3341 -2926 0
-3342 2919 3332 2964 0
3342 -2919 0
3342 -3332 0
3342 -2964 0
-3343 2960 2961 2963 3344 0
3343 -3344 0
3343 -2960 0
3343 -2963 0
3343 -2961 0
-3344 2958 2972 2970 3345 0
3344 -3345 0
3344 -2958 0
3344 -2970 0
3344 -2972 0
-3345 2954 2957 2974 3346 0
3345 -3346 0
3345 -2954 0
3345 -2974 0
3345 -2957 0
-3346 2949 2950 2953 3347 0
3346 -3347 0
3346 -2949 0
3346 -2953 0
3346 -2950 0
-3347 2939 2940 2943 3348 0
3347 -3348 0
3347 -2939 0
3347 -2943 0
3347 -2940 0
-3348 2931 2932 2935 3349 0
3348 -3349 0
3348 -2931 0
3348 -2935 0
3348 -2932 0
-3349 3224 2944 2946 3350 0
3349 -3350 0
3349 -3224 0
3349 -2946 0
3349 -2944 0
-3350 2925 2936 2947 3351 0
3350 -3351 0
3350 -2925 0
3350 -2947 0
3350 -2936 0
-3351 2923 2926 2927 3352 0
3351 -3352 0
3351 -2923 0
3351 -2927 0
3351 -2926 0
-3352 2918 2919 3332 2964 0
3352 -2964 0
3352 -2918 0
3352 -3332 0
3352 -2919 0
3353 3811 -3897 2960 3354 0
3353 -3811 3897 2960 3354 0
-3353 -3354 0
-3353 3811 3897 0
-3353 -2960 0
-3353 -3811 -3897 0
-3354 2958 2961 2963 3355 0
3354 -3355 0
3354 -2958 0
3354 -2963 0
3354 -2961 0
-3355 2972 2970 2974 3356 0
3355 -3356 0
3355 -2972 0
3355 -2974 0
3355 -2970 0
-3356 2953 2954 2957 3357 0
3356 -3357 0
3356 -2953 0
3356 -2957 0
3356 -2954 0
-3357 2943 2949 2950 3358 0
3357 -3358 0
3357 -2943 0
3357 -2950 0
3357 -2949 0
-3358 2935 2939 2940 3359 0
3358 -3359 0
3358 -2935 0
3358 -2940 0
3358 -2939 0
-3359 3224 2931 2932 3360 0
3359 -3360 0
3359 -3224 0
3359 -2932 0
3359 -2931 0
-3360 2944 2946 2947 3361 0
3360 -3361 0
3360 -2944 0
3360 -2947 0
3360 -2946 0
-3361 2925 2926 2936 3362 0
3361 -3362 0
3361 -2925 0
3361 -2936 0
3361 -2926 0
-3362 3332 2923 2927 3363 0
3362 -3363 0
3362 -3332 0
3362 -2927 0
3362 -2923 0
-3363 3364 2918 2919 2964 0
3363 -2964 0
3363 -3364 0
3363 -2919 0
3363 -2918 0
-3364 -3812 -3898 0
-3364 3812 3898 0
3364 3812 -3898 0
3364 -3812 3898 0
-3365 2960 2961 2963 3366 0
3365 -3366 0
3365 -2960 0
3365 -2963 0
3365 -2961 0
-3366 2958 2972 2970 3367 0
3366 -3367 0
3366 -2958 0
3366 -2970 0
3366 -2972 0
-3367 2954 2957 2974 3368 0
3367 -3368 0
3367 -2954 0
3367 -2974 0
3367 -2957 0
-3368 2949 2950 2953 3369 0
3368 -3369 0
3368 -2949 0
3368 -2953 0
3368 -2950 0
-3369 2939 2940 2943 3370 0
3369 -3370 0
3369 -2939 0
3369 -2943 0
3369 -2940 0
-3370 2931 2932 2935 3371 0
3370 -3371 0
3370 -2931 0
3370 -2935 0
3370 -2932 0
-3371 3224 2944 2946 3372 0
3371 -3372 0
3371 -3224 0
3371 -2946 0
3371 -2944 0
-3372 2925 2936 2947 3373 0
3372 -3373 0
3372 -2925 0
3372 -2947 0
3372 -2936 0
-3373 2923 2926 2927 3374 0
3373 -3374 0
3373 -2923 0
3373 -2927 0
3373 -2926 0
-3374 2919 3332 2964 3375 0
3374 -3375 0
3374 -2919 0
3374 -2964 0
3374 -3332 0
-3375 2914 3364 2918 0
3375 -2914 0
3375 -3364 0
3375 -2918 0
-3376 2960 2961 2963 3377 0
3376 -3377 0
3376 -2960 0
3376 -2963 0
3376 -2961 0
-3377 2958 2972 2970 3378 0
3377 -3378 0
3377 -2958 0
3377 -2970 0
3377 -2972 0
-3378 2954 2957 2974 3379 0
3378 -3379 0
3378 -2954 0
3378 -2974 0
3378 -2957 0
-3379 2949 2950 2953 3380 0
3379 -3380 0
3379 -2949 0
3379 -2953 0
3379 -2950 0
-3380 2939 2940 2943 3381 0
3380 -3381 0
3380 -2939 0
3380 -2943 0
3380 -2940 0
-3381 2931 2932 2935 3382 0
3381 -3382 0
3381 -2931 0
3381 -2935 0
3381 -2932 0
-3382 3224 2944 2946 3383 0
3382 -3383 0
3382 -3224 0
3382 -2946 0
3382 -2944 0
-3383 2925 2936 2947 3384 0
3383 -3384 0
3383 -2925 0
3383 -2947 0
3383 -2936 0
-3384 2923 2926 2927 3385 0
3384 -3385 0
3384 -2923 0
3384 -2927 0
3384 -2926 0
-3385 2919 3332 2964 3386 0
3385 -3386 0
3385 -2919 0
3385 -2964 0
3385 -3332 0
-3386 2913 2914 3364 2918 0
3386 -2918 0
3386 -2913 0
3386 -3364 0
3386 -2914 0
3387 3810 -3896 2960 3388 0
3387 -3810 3896 2960 3388 0
-3387 -3388 0
-3387 3810 3896 0
-3387 -2960 0
-3387 -3810 -3896 0
-3388 2958 2961 2963 3389 0
3388 -3389 0
3388 -2958 0
3388 -2963 0
3388 -2961 0
-3389 2972 2970 2974 3390 0
3389 -3390 0
3389 -2972 0
3389 -2974 0
3389 -2970 0
-3390 2953 2954 2957 3391 0
3390 -3391 0
3390 -2953 0
3390 -2957 0
3390 -2954 0
-3391 2943 2949 2950 3392 0
3391 -3392 0
3391 -2943 0
3391 -2950 0
3391 -2949 0
-3392 2935 2939 2940 3393 0
3392 -3393 0
3392 -2935 0
3392 -2940 0
3392 -2939 0
-3393 3224 2931 2932 3394 0
3393 -3394 0
3393 -3224 0
3393 -2932 0
3393 -2931 0
-3394 2944 2946 2947 3395 0
3394 -3395 0
3394 -2944 0
3394 -2947 0
3394 -2946 0
-3395 2925 2926 2936 3396 0
3395 -3396 0
3395 -2925 0
3395 -2936 0
3395 -2926 0
-3396 3332 2923 2927 3397 0
3396 -3397 0
3396 -3332 0
3396 -2927 0
3396 -2923 0
-3397 2918 2919 2964 3398 0
3397 -3398 0
3397 -2918 0
3397 -2964 0
3397 -2919 0
-3398 3399 2913 2914 3364 0
3398 -3364 0
3398 -3399 0
3398 -2914 0
3398 -2913 0
-3399 -3807 -3893 0
-3399 3807 3893 0
3399 3807 -3893 0
3399 -3807 3893 0
-3400 2960 2961 2963 3401 0
3400 -3401 0
3400 -2960 0
3400 -2963 0
3400 -2961 0
-3401 2958 2972 2970 3402 0
3401 -3402 0
3401 -2958 0
3401 -2970 0
3401 -2972 0
-3402 2954 2957 2974 3403 0
3402 -3403 0
3402 -2954 0
3402 -2974 0
3402 -2957 0
-3403 2949 2950 2953 3404 0
3403 -3404 0
3403 -2949 0
3403 -2953 0
3403 -2950 0
-3404 2939 2940 2943 3405 0
3404 -3405 0
3404 -2939 0
3404 -2943 0
3404 -2940 0
-3405 2931 2932 2935 3406 0
3405 -3406 0
3405 -2931 0
3405 -2935 0
3405 -2932 0
-3406 3224 2944 2946 3407 0
3406 -3407 0
3406 -3224 0
3406 -2946 0
3406 -2944 0
-3407 2925 2936 2947 3408 0
3407 -3408 0
3407 -2925 0
3407 -2947 0
3407 -2936 0
-3408 2923 2926 2927 3409 0
3408 -3409 0
3408 -2923 0
3408 -2927 0
3408 -2926 0
-3409 2919 3332 2964 3410 0
3409 -3410 0
3409 -2919 0
3409 -2964 0
3409 -3332 0
-3410 2914 3364 2918 3411 0
3410 -3411 0
3410 -2914 0
3410 -2918 0
3410 -3364 0
-3411 2909 3399 2913 0
3411 -2909 0
3411 -3399 0
3411 -2913 0
3412 3808 -3894 2908 3400 0
3412 -3808 3894 2908 3400 0
-3412 -3400 0
-3412 3808 3894 0
-3412 -2908 0
-3412 -3808 -3894 0
-3413 3414 3431 3445 3458 0
3413 -3458 0
3413 -3445 0
3413 -3414 0
3413 -3431 0
3414 2908 -3415 -3418 3419 0
-3414 -3419 0
-3414 -2908 0
-3414 3418 0
-3414 3415 0
3415 3416 -3417 0
3415 -3416 3417 0
-3415 -3416 -3417 0
-3415 3416 3417 0
3416 -3885 3886 3887 0
-3416 3885 0
-3416 -3887 0
-3416 -3886 0
3417 -3799 3800 3801 0
-3417 3799 0
-3417 -3801 0
-3417 -3800 0
3418 201 -288 0
3418 -201 288 0
-3418 -201 -288 0
-3418 201 288 0
-3419 2960 2961 2963 3420 0
3419 -3420 0
3419 -2960 0
3419 -2963 0
3419 -2961 0
-3420 2958 2972 2970 3421 0
3420 -3421 0
3420 -2958 0
3420 -2970 0
3420 -2972 0
-3421 2954 2957 2974 3422 0
3421 -3422 0
3421 -2954 0
3421 -2974 0
3421 -2957 0
-3422 2949 2950 2953 3423 0
3422 -3423 0
3422 -2949 0
3422 -2953 0
3422 -2950 0
-3423 2939 2940 2943 3424 0
3423 -3424 0
3423 -2939 0
3423 -2943 0
3423 -2940 0
-3424 2931 2932 2935 3425 0
3424 -3425 0
3424 -2931 0
3424 -2935 0
3424 -2932 0
-3425 3224 2944 2946 3426 0
3425 -3426 0
3425 -3224 0
3425 -2946 0
3425 -2944 0
-3426 2925 2936 2947 3427 0
3426 -3427 0
3426 -2925 0
3426 -2947 0
3426 -2936 0
-3427 2923 2926 2927 3428 0
3427 -3428 0
3427 -2923 0
3427 -2927 0
3427 -2926 0
-3428 2919 3332 2964 3429 0
3428 -3429 0
3428 -2919 0
3428 -2964 0
3428 -3332 0
-3429 2914 3364 2918 3430 0
3429 -3430 0
3429 -2914 0
3429 -2918 0
3429 -3364 0
-3430 2905 2909 3399 2913 0
3430 -2913 0
3430 -2905 0
3430 -3399 0
3430 -2909 0
3431 2908 2960 2961 -3432 0
-3431 3432 0
-3431 -2908 0
-3431 -2961 0
-3431 -2960 0
3432 2958 2963 2970 -3433 0
-3432 3433 0
-3432 -2958 0
-3432 -2970 0
-3432 -2963 0
3433 2957 2972 2974 -3434 0
-3433 3434 0
-3433 -2957 0
-3433 -2974 0
-3433 -2972 0
3434 2950 2953 2954 -3435 0
-3434 3435 0
-3434 -2950 0
-3434 -2954 0
-3434 -2953 0
3435 2940 2943 2949 -3436 0
-3435 3436 0
-3435 -2940 0
-3435 -2949 0
-3435 -2943 0
3436 2932 2935 2939 -3437 0
-3436 3437 0
-3436 -2932 0
-3436 -2939 0
-3436 -2935 0
3437 3224 2931 2944 -3438 0
-3437 3438 0
-3437 -3224 0
-3437 -2944 0
-3437 -2931 0
3438 2936 2946 2947 -3439 0
-3438 3439 0
-3438 -2936 0
-3438 -2947 0
-3438 -2946 0
3439 2925 2926 2927 -3440 0
-3439 3440 0
-3439 -2925 0
-3439 -2927 0
-3439 -2926 0
3440 3332 2923 2964 -3441 0
-3440 3441 0
-3440 -3332 0
-3440 -2964 0
-3440 -2923 0
3441 3364 2918 2919 -3442 0
-3441 3442 0
-3441 -3364 0
-3441 -2919 0
-3441 -2918 0
3442 2909 2913 2914 -3443 0
-3442 3443 0
-3442 -2909 0
-3442 -2914 0
-3442 -2913 0
3443 2905 3399 -3415 -3444 0
-3443 3444 0
-3443 -2905 0
-3443 3415 0
-3443 -3399 0
3444 290 -291 0
3444 -290 291 0
-3444 -290 -291 0
-3444 290 291 0
3445 2908 2960 2961 -3446 0
-3445 3446 0
-3445 -2908 0
-3445 -2961 0
-3445 -2960 0
3446 2958 2963 2970 -3447 0
-3446 3447 0
-3446 -2958 0
-3446 -2970 0
-3446 -2963 0
3447 2957 2972 2974 -3448 0
-3447 3448 0
-3447 -2957 0
-3447 -2974 0
-3447 -2972 0
3448 2950 2953 2954 -3449 0
-3448 3449 0
-3448 -2950 0
-3448 -2954 0
-3448 -2953 0
3449 2940 2943 2949 -3450 0
-3449 3450 0
-3449 -2940 0
-3449 -2949 0
-3449 -2943 0
3450 2932 2935 2939 -3451 0
-3450 3451 0
-3450 -2932 0
-3450 -2939 0
-3450 -2935 0
3451 3224 2931 2944 -3452 0
-3451 3452 0
-3451 -3224 0
-3451 -2944 0
-3451 -2931 0
3452 2936 2946 2947 -3453 0
-3452 3453 0
-3452 -2936 0
-3452 -2947 0
-3452 -2946 0
3453 2925 2926 2927 -3454 0
-3453 3454 0
-3453 -2925 0
-3453 -2927 0
-3453 -2926 0
3454 3332 2923 2964 -3455 0
-3454 3455 0
-3454 -3332 0
-3454 -2964 0
-3454 -2923 0
3455 3364 2918 2919 -3456 0
-3455 3456 0
-3455 -3364 0
-3455 -2919 0
-3455 -2918 0
3456 2909 2913 2914 -3457 0
-3456 3457 0
-3456 -2909 0
-3456 -2914 0
-3456 -2913 0
3457 2905 3399 -3418 -3444 0
-3457 3444 0
-3457 -2905 0
-3457 3418 0
-3457 -3399 0
-3458 -2908 3486 0
-3458 3459 3473 3486 0
3458 -3486 0
3458 2908 -3473 0
3458 2908 -3459 0
3459 2960 2961 2963 -3460 0
-3459 3460 0
-3459 -2960 0
-3459 -2963 0
-3459 -2961 0
3460 2958 2972 2970 -3461 0
-3460 3461 0
-3460 -2958 0
-3460 -2970 0
-3460 -2972 0
3461 2954 2957 2974 -3462 0
-3461 3462 0
-3461 -2954 0
-3461 -2974 0
-3461 -2957 0
3462 2949 2950 2953 -3463 0
-3462 3463 0
-3462 -2949 0
-3462 -2953 0
-3462 -2950 0
3463 2939 2940 2943 -3464 0
-3463 3464 0
-3463 -2939 0
-3463 -2943 0
-3463 -2940 0
3464 2931 2932 2935 -3465 0
-3464 3465 0
-3464 -2931 0
-3464 -2935 0
-3464 -2932 0
3465 3224 2944 2946 -3466 0
-3465 3466 0
-3465 -3224 0
-3465 -2946 0
-3465 -2944 0
3466 2925 2936 2947 -3467 0
-3466 3467 0
-3466 -2925 0
-3466 -2947 0
-3466 -2936 0
3467 2923 2926 2927 -3468 0
-3467 3468 0
-3467 -2923 0
-3467 -2927 0
-3467 -2926 0
3468 2919 3332 2964 -3469 0
-3468 3469 0
-3468 -2919 0
-3468 -2964 0
-3468 -3332 0
3469 2914 3364 2918 -3470 0
-3469 3470 0
-3469 -2914 0
-3469 -2918 0
-3469 -3364 0
3470 2909 3399 2913 -3471 0
-3470 3471 0
-3470 -2909 0
-3470 -2913 0
-3470 -3399 0
3471 2905 -3415 -3472 0
-3471 -2905 0
-3471 3415 0
-3471 3472 0
3472 270 -262 0
3472 -270 262 0
-3472 -270 -262 0
-3472 270 262 0
3473 2960 2961 2963 -3474 0
-3473 3474 0
-3473 -2960 0
-3473 -2963 0
-3473 -2961 0
3474 2958 2972 2970 -3475 0
-3474 3475 0
-3474 -2958 0
-3474 -2970 0
-3474 -2972 0
3475 2954 2957 2974 -3476 0
-3475 3476 0
-3475 -2954 0
-3475 -2974 0
-3475 -2957 0
3476 2949 2950 2953 -3477 0
-3476 3477 0
-3476 -2949 0
-3476 -2953 0
-3476 -2950 0
3477 2939 2940 2943 -3478 0
-3477 3478 0
-3477 -2939 0
-3477 -2943 0
-3477 -2940 0
3478 2931 2932 2935 -3479 0
-3478 3479 0
-3478 -2931 0
-3478 -2935 0
-3478 -2932 0
3479 3224 2944 2946 -3480 0
-3479 3480 0
-3479 -3224 0
-3479 -2946 0
-3479 -2944 0
3480 2925 2936 2947 -3481 0
-3480 3481 0
-3480 -2925 0
-3480 -2947 0
-3480 -2936 0
3481 2923 2926 2927 -3482 0
-3481 3482 0
-3481 -2923 0
-3481 -2927 0
-3481 -2926 0
3482 2919 3332 2964 -3483 0
-3482 3483 0
-3482 -2919 0
-3482 -2964 0
-3482 -3332 0
3483 2914 3364 2918 -3484 0
-3483 3484 0
-3483 -2914 0
-3483 -2918 0
-3483 -3364 0
3484 2909 3399 2913 -3485 0
-3484 3485 0
-3484 -2909 0
-3484 -2913 0
-3484 -3399 0
3485 2905 -3418 -3472 0
-3485 -2905 0
-3485 3418 0
-3485 3472 0
-3486 -2908 3514 0
-3486 3487 3500 3514 0
3486 -3514 0
3486 2908 -3500 0
3486 2908 -3487 0
3487 2960 2961 2963 -3488 0
-3487 3488 0
-3487 -2960 0
-3487 -2963 0
-3487 -2961 0
3488 2958 2972 2970 -3489 0
-3488 3489 0
-3488 -2958 0
-3488 -2970 0
-3488 -2972 0
3489 2954 2957 2974 -3490 0
-3489 3490 0
-3489 -2954 0
-3489 -2974 0
-3489 -2957 0
3490 2949 2950 2953 -3491 0
-3490 3491 0
-3490 -2949 0
-3490 -2953 0
-3490 -2950 0
3491 2939 2940 2943 -3492 0
-3491 3492 0
-3491 -2939 0
-3491 -2943 0
-3491 -2940 0
3492 2931 2932 2935 -3493 0
-3492 3493 0
-3492 -2931 0
-3492 -2935 0
-3492 -2932 0
3493 3224 2944 2946 -3494 0
-3493 3494 0
-3493 -3224 0
-3493 -2946 0
-3493 -2944 0
3494 2925 2936 2947 -3495 0
-3494 3495 0
-3494 -2925 0
-3494 -2947 0
-3494 -2936 0
3495 2923 2926 2927 -3496 0
-3495 3496 0
-3495 -2923 0
-3495 -2927 0
-3495 -2926 0
3496 2919 3332 2964 -3497 0
-3496 3497 0
-3496 -2919 0
-3496 -2964 0
-3496 -3332 0
3497 2914 3364 2918 -3498 0
-3497 3498 0
-3497 -2914 0
-3497 -2918 0
-3497 -3364 0
3498 2909 3399 2913 -3499 0
-3498 3499 0
-3498 -2909 0
-3498 -2913 0
-3498 -3399 0
3499 2905 -3444 -3472 0
-3499 -2905 0
-3499 3444 0
-3499 3472 0
3500 2960 2961 2963 -3501 0
-3500 3501 0
-3500 -2960 0
-3500 -2963 0
-3500 -2961 0
3501 2958 2972 2970 -3502 0
-3501 3502 0
-3501 -2958 0
-3501 -2970 0
-3501 -2972 0
3502 2954 2957 2974 -3503 0
-3502 3503 0
-3502 -2954 0
-3502 -2974 0
-3502 -2957 0
3503 2949 2950 2953 -3504 0
-3503 3504 0
-3503 -2949 0
-3503 -2953 0
-3503 -2950 0
3504 2939 2940 2943 -3505 0
-3504 3505 0
-3504 -2939 0
-3504 -2943 0
-3504 -2940 0
3505 2931 2932 2935 -3506 0
-3505 3506 0
-3505 -2931 0
-3505 -2935 0
-3505 -2932 0
3506 3224 2944 2946 -3507 0
-3506 3507 0
-3506 -3224 0
-3506 -2946 0
-3506 -2944 0
3507 2925 2936 2947 -3508 0
-3507 3508 0
-3507 -2925 0
-3507 -2947 0
-3507 -2936 0
3508 2923 2926 2927 -3509 0
-3508 3509 0
-3508 -2923 0
-3508 -2927 0
-3508 -2926 0
3509 2919 3332 2964 -3510 0
-3509 3510 0
-3509 -2919 0
-3509 -2964 0
-3509 -3332 0
3510 2914 3364 2918 -3511 0
-3510 3511 0
-3510 -2914 0
-3510 -2918 0
-3510 -3364 0
3511 2909 3399 2913 -3512 0
-3511 3512 0
-3511 -2909 0
-3511 -2913 0
-3511 -3399 0
3512 2905 -3415 -3513 0
-3512 -2905 0
-3512 3415 0
-3512 3513 0
3513 250 -321 0
3513 -250 321 0
-3513 -250 -321 0
-3513 250 321 0
-3514 -2908 3541 0
-3514 3515 3528 3541 0
3514 -3541 0
3514 2908 -3528 0
3514 2908 -3515 0
3515 2960 2961 2963 -3516 0
-3515 3516 0
-3515 -2960 0
-3515 -2963 0
-3515 -2961 0
3516 2958 2972 2970 -3517 0
-3516 3517 0
-3516 -2958 0
-3516 -2970 0
-3516 -2972 0
3517 2954 2957 2974 -3518 0
-3517 3518 0
-3517 -2954 0
-3517 -2974 0
-3517 -2957 0
3518 2949 2950 2953 -3519 0
-3518 3519 0
-3518 -2949 0
-3518 -2953 0
-3518 -2950 0
3519 2939 2940 2943 -3520 0
-3519 3520 0
-3519 -2939 0
-3519 -2943 0
-3519 -2940 0
3520 2931 2932 2935 -3521 0
-3520 3521 0
-3520 -2931 0
-3520 -2935 0
-3520 -2932 0
3521 3224 2944 2946 -3522 0
-3521 3522 0
-3521 -3224 0
-3521 -2946 0
-3521 -2944 0
3522 2925 2936 2947 -3523 0
-3522 3523 0
-3522 -2925 0
-3522 -2947 0
-3522 -2936 0
3523 2923 2926 2927 -3524 0
-3523 3524 0
-3523 -2923 0
-3523 -2927 0
-3523 -2926 0
3524 2919 3332 2964 -3525 0
-3524 3525 0
-3524 -2919 0
-3524 -2964 0
-3524 -3332 0
3525 2914 3364 2918 -3526 0
-3525 3526 0
-3525 -2914 0
-3525 -2918 0
-3525 -3364 0
3526 2909 3399 2913 -3527 0
-3526 3527 0
-3526 -2909 0
-3526 -2913 0
-3526 -3399 0
3527 2905 -3418 -3513 0
-3527 -2905 0
-3527 3418 0
-3527 3513 0
3528 2960 2961 2963 -3529 0
-3528 3529 0
-3528 -2960 0
-3528 -2963 0
-3528 -2961 0
3529 2958 2972 2970 -3530 0
-3529 3530 0
-3529 -2958 0
-3529 -2970 0
-3529 -2972 0
3530 2954 2957 2974 -3531 0
-3530 3531 0
-3530 -2954 0
-3530 -2974 0
-3530 -2957 0
3531 2949 2950 2953 -3532 0
-3531 3532 0
-3531 -2949 0
-3531 -2953 0
-3531 -2950 0
3532 2939 2940 2943 -3533 0
-3532 3533 0
-3532 -2939 0
-3532 -2943 0
-3532 -2940 0
3533 2931 2932 2935 -3534 0
-3533 3534 0
-3533 -2931 0
-3533 -2935 0
-3533 -2932 0
3534 3224 2944 2946 -3535 0
-3534 3535 0
-3534 -3224 0
-3534 -2946 0
-3534 -2944 0
3535 2925 2936 2947 -3536 0
-3535 3536 0
-3535 -2925 0
-3535 -2947 0
-3535 -2936 0
3536 2923 2926 2927 -3537 0
-3536 3537 0
-3536 -2923 0
-3536 -2927 0
-3536 -2926 0
3537 2919 3332 2964 -3538 0
-3537 3538 0
-3537 -2919 0
-3537 -2964 0
-3537 -3332 0
3538 2914 3364 2918 -3539 0
-3538 3539 0
-3538 -2914 0
-3538 -2918 0
-3538 -3364 0
3539 2909 3399 2913 -3540 0
-3539 3540 0
-3539 -2909 0
-3539 -2913 0
-3539 -3399 0
3540 2905 -3444 -3513 0
-3540 -2905 0
-3540 3444 0
-3540 3513 0
-3541 -2908 3569 0
-3541 3542 3555 3569 0
3541 -3569 0
3541 2908 -3555 0
3541 2908 -3542 0
3542 2960 2961 2963 -3543 0
-3542 3543 0
-3542 -2960 0
-3542 -2963 0
-3542 -2961 0
3543 2958 2972 2970 -3544 0
-3543 3544 0
-3543 -2958 0
-3543 -2970 0
-3543 -2972 0
3544 2954 2957 2974 -3545 0
-3544 3545 0
-3544 -2954 0
-3544 -2974 0
-3544 -2957 0
3545 2949 2950 2953 -3546 0
-3545 3546 0
-3545 -2949 0
-3545 -2953 0
-3545 -2950 0
3546 2939 2940 2943 -3547 0
-3546 3547 0
-3546 -2939 0
-3546 -2943 0
-3546 -2940 0
3547 2931 2932 2935 -3548 0
-3547 3548 0
-3547 -2931 0
-3547 -2935 0
-3547 -2932 0
3548 3224 2944 2946 -3549 0
-3548 3549 0
-3548 -3224 0
-3548 -2946 0
-3548 -2944 0
3549 2925 2936 2947 -3550 0
-3549 3550 0
-3549 -2925 0
-3549 -2947 0
-3549 -2936 0
3550 2923 2926 2927 -3551 0
-3550 3551 0
-3550 -2923 0
-3550 -2927 0
-3550 -2926 0
3551 2919 3332 2964 -3552 0
-3551 3552 0
-3551 -2919 0
-3551 -2964 0
-3551 -3332 0
3552 2914 3364 2918 -3553 0
-3552 3553 0
-3552 -2914 0
-3552 -2918 0
-3552 -3364 0
3553 2909 3399 2913 -3554 0
-3553 3554 0
-3553 -2909 0
-3553 -2913 0
-3553 -3399 0
3554 2905 -3472 -3513 0
-3554 -2905 0
-3554 3472 0
-3554 3513 0
3555 2960 2961 2963 -3556 0
-3555 3556 0
-3555 -2960 0
-3555 -2963 0
-3555 -2961 0
3556 2958 2972 2970 -3557 0
-3556 3557 0
-3556 -2958 0
-3556 -2970 0
-3556 -2972 0
3557 2954 2957 2974 -3558 0
-3557 3558 0
-3557 -2954 0
-3557 -2974 0
-3557 -2957 0
3558 2949 2950 2953 -3559 0
-3558 3559 0
-3558 -2949 0
-3558 -2953 0
-3558 -2950 0
3559 2939 2940 2943 -3560 0
-3559 3560 0
-3559 -2939 0
-3559 -2943 0
-3559 -2940 0
3560 2931 2932 2935 -3561 0
-3560 3561 0
-3560 -2931 0
-3560 -2935 0
-3560 -2932 0
3561 3224 2944 2946 -3562 0
-3561 3562 0
-3561 -3224 0
-3561 -2946 0
-3561 -2944 0
3562 2925 2936 2947 -3563 0
-3562 3563 0
-3562 -2925 0
-3562 -2947 0
-3562 -2936 0
3563 2923 2926 2927 -3564 0
-3563 3564 0
-3563 -2923 0
-3563 -2927 0
-3563 -2926 0
3564 2919 3332 2964 -3565 0
-3564 3565 0
-3564 -2919 0
-3564 -2964 0
-3564 -3332 0
3565 2914 3364 2918 -3566 0
-3565 3566 0
-3565 -2914 0
-3565 -2918 0
-3565 -3364 0
3566 2909 3399 2913 -3567 0
-3566 3567 0
-3566 -2909 0
-3566 -2913 0
-3566 -3399 0
3567 2905 -3415 -3568 0
-3567 -2905 0
-3567 3415 0
-3567 3568 0
3568 -200 325 0
3568 200 -325 0
-3568 200 325 0
-3568 -200 -325 0
-3569 -2908 3596 0
-3569 3570 3583 3596 0
3569 -3596 0
3569 2908 -3583 0
3569 2908 -3570 0
3570 2960 2961 2963 -3571 0
-3570 3571 0
-3570 -2960 0
-3570 -2963 0
-3570 -2961 0
3571 2958 2972 2970 -3572 0
-3571 3572 0
-3571 -2958 0
-3571 -2970 0
-3571 -2972 0
3572 2954 2957 2974 -3573 0
-3572 3573 0
-3572 -2954 0
-3572 -2974 0
-3572 -2957 0
3573 2949 2950 2953 -3574 0
-3573 3574 0
-3573 -2949 0
-3573 -2953 0
-3573 -2950 0
3574 2939 2940 2943 -3575 0
-3574 3575 0
-3574 -2939 0
-3574 -2943 0
-3574 -2940 0
3575 2931 2932 2935 -3576 0
-3575 3576 0
-3575 -2931 0
-3575 -2935 0
-3575 -2932 0
3576 3224 2944 2946 -3577 0
-3576 3577 0
-3576 -3224 0
-3576 -2946 0
-3576 -2944 0
3577 2925 2936 2947 -3578 0
-3577 3578 0
-3577 -2925 0
-3577 -2947 0
-3577 -2936 0
3578 2923 2926 2927 -3579 0
-3578 3579 0
-3578 -2923 0
-3578 -2927 0
-3578 -2926 0
3579 2919 3332 2964 -3580 0
-3579 3580 0
-3579 -2919 0
-3579 -2964 0
-3579 -3332 0
3580 2914 3364 2918 -3581 0
-3580 3581 0
-3580 -2914 0
-3580 -2918 0
-3580 -3364 0
3581 2909 3399 2913 -3582 0
-3581 3582 0
-3581 -2909 0
-3581 -2913 0
-3581 -3399 0
3582 2905 -3418 -3568 0
-3582 -2905 0
-3582 3418 0
-3582 3568 0
3583 2960 2961 2963 -3584 0
-3583 3584 0
-3583 -2960 0
-3583 -2963 0
-3583 -2961 0
3584 2958 2972 2970 -3585 0
-3584 3585 0
-3584 -2958 0
-3584 -2970 0
-3584 -2972 0
3585 2954 2957 2974 -3586 0
-3585 3586 0
-3585 -2954 0
-3585 -2974 0
-3585 -2957 0
3586 2949 2950 2953 -3587 0
-3586 3587 0
-3586 -2949 0
-3586 -2953 0
-3586 -2950 0
3587 2939 2940 2943 -3588 0
-3587 3588 0
-3587 -2939 0
-3587 -2943 0
-3587 -2940 0
3588 2931 2932 2935 -3589 0
-3588 3589 0
-3588 -2931 0
-3588 -2935 0
-3588 -2932 0
3589 3224 2944 2946 -3590 0
-3589 3590 0
-3589 -3224 0
-3589 -2946 0
-3589 -2944 0
3590 2925 2936 2947 -3591 0
-3590 3591 0
-3590 -2925 0
-3590 -2947 0
-3590 -2936 0
3591 2923 2926 2927 -3592 0
-3591 3592 0
-3591 -2923 0
-3591 -2927 0
-3591 -2926 0
3592 2919 3332 2964 -3593 0
-3592 3593 0
-3592 -2919 0
-3592 -2964 0
-3592 -3332 0
3593 2914 3364 2918 -3594 0
-3593 3594 0
-3593 -2914 0
-3593 -2918 0
-3593 -3364 0
3594 2909 3399 2913 -3595 0
-3594 3595 0
-3594 -2909 0
-3594 -2913 0
-3594 -3399 0
3595 2905 -3444 -3568 0
-3595 -2905 0
-3595 3444 0
-3595 3568 0
-3596 -2908 0
-3596 -2960 0
-3596 3597 3610 0
3596 2908 2960 -3610 0
3596 2908 2960 -3597 0
3597 2958 2961 2963 -3598 0
-3597 3598 0
-3597 -2958 0
-3597 -2963 0
-3597 -2961 0
3598 2972 2970 2974 -3599 0
-3598 3599 0
-3598 -2972 0
-3598 -2974 0
-3598 -2970 0
3599 2953 2954 2957 -3600 0
-3599 3600 0
-3599 -2953 0
-3599 -2957 0
-3599 -2954 0
3600 2943 2949 2950 -3601 0
-3600 3601 0
-3600 -2943 0
-3600 -2950 0
-3600 -2949 0
3601 2935 2939 2940 -3602 0
-3601 3602 0
-3601 -2935 0
-3601 -2940 0
-3601 -2939 0
3602 3224 2931 2932 -3603 0
-3602 3603 0
-3602 -3224 0
-3602 -2932 0
-3602 -2931 0
3603 2944 2946 2947 -3604 0
-3603 3604 0
-3603 -2944 0
-3603 -2947 0
-3603 -2946 0
3604 2925 2926 2936 -3605 0
-3604 3605 0
-3604 -2925 0
-3604 -2936 0
-3604 -2926 0
3605 3332 2923 2927 -3606 0
-3605 3606 0
-3605 -3332 0
-3605 -2927 0
-3605 -2923 0
3606 2918 2919 2964 -3607 0
-3606 3607 0
-3606 -2918 0
-3606 -2964 0
-3606 -2919 0
3607 2913 2914 3364 -3608 0
-3607 3608 0
-3607 -2913 0
-3607 -3364 0
-3607 -2914 0
3608 2905 2909 3399 -3609 0
-3608 3609 0
-3608 -2905 0
-3608 -3399 0
-3608 -2909 0
3609 -3472 -3568 0
-3609 3472 0
-3609 3568 0
3610 2958 2961 2963 -3611 0
-3610 3611 0
-3610 -2958 0
-3610 -2963 0
-3610 -2961 0
3611 2972 2970 2974 -3612 0
-3611 3612 0
-3611 -2972 0
-3611 -2974 0
-3611 -2970 0
3612 2953 2954 2957 -3613 0
-3612 3613 0
-3612 -2953 0
-3612 -2957 0
-3612 -2954 0
3613 2943 2949 2950 -3614 0
-3613 3614 0
-3613 -2943 0
-3613 -2950 0
-3613 -2949 0
3614 2935 2939 2940 -3615 0
-3614 3615 0
-3614 -2935 0
-3614 -2940 0
-3614 -2939 0
3615 3224 2931 2932 -3616 0
-3615 3616 0
-3615 -3224 0
-3615 -2932 0
-3615 -2931 0
3616 2944 2946 2947 -3617 0
-3616 3617 0
-3616 -2944 0
-3616 -2947 0
-3616 -2946 0
3617 2925 2926 2936 -3618 0
-3617 3618 0
-3617 -2925 0
-3617 -2936 0
-3617 -2926 0
3618 3332 2923 2927 -3619 0
-3618 3619 0
-3618 -3332 0
-3618 -2927 0
-3618 -2923 0
3619 2918 2919 2964 -3620 0
-3619 3620 0
-3619 -2918 0
-3619 -2964 0
-3619 -2919 0
3620 2913 2914 3364 -3621 0
-3620 3621 0
-3620 -2913 0
-3620 -3364 0
-3620 -2914 0
3621 2905 2909 3399 -3622 0
-3621 3622 0
-3621 -2905 0
-3621 -3399 0
-3621 -2909 0
3622 -3513 -3568 0
-3622 3513 0
-3622 3568 0
3623 3805 -3891 2908 3624 0
3623 -3805 3891 2908 3624 0
-3623 -3624 0
-3623 3805 3891 0
-3623 -2908 0
-3623 -3805 -3891 0
-3624 2960 2961 2963 3625 0
3624 -3625 0
3624 -2960 0
3624 -2963 0
3624 -2961 0
-3625 2958 2972 2970 3626 0
3625 -3626 0
3625 -2958 0
3625 -2970 0
3625 -2972 0
-3626 2954 2957 2974 3627 0
3626 -3627 0
3626 -2954 0
3626 -2974 0
3626 -2957 0
-3627 2949 2950 2953 3628 0
3627 -3628 0
3627 -2949 0
3627 -2953 0
3627 -2950 0
-3628 2939 2940 2943 3629 0
3628 -3629 0
3628 -2939 0
3628 -2943 0
3628 -2940 0
-3629 2931 2932 2935 3630 0
3629 -3630 0
3629 -2931 0
3629 -2935 0
3629 -2932 0
-3630 3224 2944 2946 3631 0
3630 -3631 0
3630 -3224 0
3630 -2946 0
3630 -2944 0
-3631 2925 2936 2947 3632 0
3631 -3632 0
3631 -2925 0
3631 -2947 0
3631 -2936 0
-3632 2923 2926 2927 3633 0
3632 -3633 0
3632 -2923 0
3632 -2927 0
3632 -2926 0
-3633 2919 3332 2964 3634 0
3633 -3634 0
3633 -2919 0
3633 -2964 0
3633 -3332 0
-3634 2914 3364 2918 3635 0
3634 -3635 0
3634 -2914 0
3634 -2918 0
3634 -3364 0
-3635 2905 2909 2913 3636 0
3635 -3636 0
3635 -2905 0
3635 -2913 0
3635 -2909 0
-3636 2901 2902 2904 3399 0
3636 -3399 0
3636 -2901 0
3636 -2904 0
3636 -2902 0
-3637 2908 2960 2961 3638 0
3637 -3638 0
3637 -2908 0
3637 -2961 0
3637 -2960 0
-3638 2958 2963 2970 3639 0
3638 -3639 0
3638 -2958 0
3638 -2970 0
3638 -2963 0
-3639 2957 2972 2974 3640 0
3639 -3640 0
3639 -2957 0
3639 -2974 0
3639 -2972 0
-3640 2950 2953 2954 3641 0
3640 -3641 0
3640 -2950 0
3640 -2954 0
3640 -2953 0
-3641 2940 2943 2949 3642 0
3641 -3642 0
3641 -2940 0
3641 -2949 0
3641 -2943 0
-3642 2932 2935 2939 3643 0
3642 -3643 0
3642 -2932 0
3642 -2939 0
3642 -2935 0
-3643 3224 2931 2944 3644 0
3643 -3644 0
3643 -3224 0
3643 -2944 0
3643 -2931 0
-3644 2936 2946 2947 3645 0
3644 -3645 0
3644 -2936 0
3644 -2947 0
3644 -2946 0
-3645 2925 2926 2927 3646 0
3645 -3646 0
3645 -2925 0
3645 -2927 0
3645 -2926 0
-3646 3332 2923 2964 3647 0
3646 -3647 0
3646 -3332 0
3646 -2964 0
3646 -2923 0
-3647 3364 2918 2919 3648 0
3647 -3648 0
3647 -3364 0
3647 -2919 0
3647 -2918 0
-3648 2909 2913 2914 3649 0
3648 -3649 0
3648 -2909 0
3648 -2914 0
3648 -2913 0
-3649 2901 2902 2905 3650 0
3649 -3650 0
3649 -2901 0
3649 -2905 0
3649 -2902 0
-3650 2899 2904 3399 0
3650 -2899 0
3650 -2904 0
3650 -3399 0
-3651 2908 2960 2961 3652 0
3651 -3652 0
3651 -2908 0
3651 -2961 0
3651 -2960 0
-3652 2958 2963 2970 3653 0
3652 -3653 0
3652 -2958 0
3652 -2970 0
3652 -2963 0
-3653 2957 2972 2974 3654 0
3653 -3654 0
3653 -2957 0
3653 -2974 0
3653 -2972 0
-3654 2950 2953 2954 3655 0
3654 -3655 0
3654 -2950 0
3654 -2954 0
3654 -2953 0
-3655 2940 2943 2949 3656 0
3655 -3656 0
3655 -2940 0
3655 -2949 0
3655 -2943 0
-3656 2932 2935 2939 3657 0
3656 -3657 0
3656 -2932 0
3656 -2939 0
3656 -2935 0
-3657 3224 2931 2944 3658 0
3657 -3658 0
3657 -3224 0
3657 -2944 0
3657 -2931 0
-3658 2936 2946 2947 3659 0
3658 -3659 0
3658 -2936 0
3658 -2947 0
3658 -2946 0
-3659 2925 2926 2927 3660 0
3659 -3660 0
3659 -2925 0
3659 -2927 0
3659 -2926 0
-3660 3332 2923 2964 3661 0
3660 -3661 0
3660 -3332 0
3660 -2964 0
3660 -2923 0
-3661 3364 2918 2919 3662 0
3661 -3662 0
3661 -3364 0
3661 -2919 0
3661 -2918 0
-3662 2909 2913 2914 3663 0
3662 -3663 0
3662 -2909 0
3662 -2914 0
3662 -2913 0
-3663 2901 2902 2905 3664 0
3663 -3664 0
3663 -2901 0
3663 -2905 0
3663 -2902 0
-3664 2898 2899 2904 3399 0
3664 -3399 0
3664 -2898 0
3664 -2904 0
3664 -2899 0
3665 3768 -3854 2908 3666 0
3665 -3768 3854 2908 3666 0
-3665 -3666 0
-3665 3768 3854 0
-3665 -2908 0
-3665 -3768 -3854 0
-3666 2960 2961 2963 3667 0
3666 -3667 0
3666 -2960 0
3666 -2963 0
3666 -2961 0
-3667 2958 2972 2970 3668 0
3667 -3668 0
3667 -2958 0
3667 -2970 0
3667 -2972 0
-3668 2954 2957 2974 3669 0
3668 -3669 0
3668 -2954 0
3668 -2974 0
3668 -2957 0
-3669 2949 2950 2953 3670 0
3669 -3670 0
3669 -2949 0
3669 -2953 0
3669 -2950 0
-3670 2939 2940 2943 3671 0
3670 -3671 0
3670 -2939 0
3670 -2943 0
3670 -2940 0
-3671 2931 2932 2935 3672 0
3671 -3672 0
3671 -2931 0
3671 -2935 0
3671 -2932 0
-3672 3224 2944 2946 3673 0
3672 -3673 0
3672 -3224 0
3672 -2946 0
3672 -2944 0
-3673 2925 2936 2947 3674 0
3673 -3674 0
3673 -2925 0
3673 -2947 0
3673 -2936 0
-3674 2923 2926 2927 3675 0
3674 -3675 0
3674 -2923 0
3674 -2927 0
3674 -2926 0
-3675 2919 3332 2964 3676 0
3675 -3676 0
3675 -2919 0
3675 -2964 0
3675 -3332 0
-3676 2914 3364 2918 3677 0
3676 -3677 0
3676 -2914 0
3676 -2918 0
3676 -3364 0
-3677 2905 2909 2913 3678 0
3677 -3678 0
3677 -2905 0
3677 -2913 0
3677 -2909 0
-3678 2901 2902 2904 3679 0
3678 -3679 0
3678 -2901 0
3678 -2904 0
3678 -2902 0
-3679 3680 2898 2899 3399 0
3679 -3399 0
3679 -3680 0
3679 -2899 0
3679 -2898 0
-3680 -3779 -3865 0
-3680 3779 3865 0
3680 3779 -3865 0
3680 -3779 3865 0
-3681 2908 2960 2961 3682 0
3681 -3682 0
3681 -2908 0
3681 -2961 0
3681 -2960 0
-3682 2958 2963 2970 3683 0
3682 -3683 0
3682 -2958 0
3682 -2970 0
3682 -2963 0
-3683 2957 2972 2974 3684 0
3683 -3684 0
3683 -2957 0
3683 -2974 0
3683 -2972 0
-3684 2950 2953 2954 3685 0
3684 -3685 0
3684 -2950 0
3684 -2954 0
3684 -2953 0
-3685 2940 2943 2949 3686 0
3685 -3686 0
3685 -2940 0
3685 -2949 0
3685 -2943 0
-3686 2932 2935 2939 3687 0
3686 -3687 0
3686 -2932 0
3686 -2939 0
3686 -2935 0
-3687 3224 2931 2944 3688 0
3687 -3688 0
3687 -3224 0
3687 -2944 0
3687 -2931 0
-3688 2936 2946 2947 3689 0
3688 -3689 0
3688 -2936 0
3688 -2947 0
3688 -2946 0
-3689 2925 2926 2927 3690 0
3689 -3690 0
3689 -2925 0
3689 -2927 0
3689 -2926 0
-3690 3332 2923 2964 3691 0
3690 -3691 0
3690 -3332 0
3690 -2964 0
3690 -2923 0
-3691 3364 2918 2919 3692 0
3691 -3692 0
3691 -3364 0
3691 -2919 0
3691 -2918 0
-3692 2909 2913 2914 3693 0
3692 -3693 0
3692 -2909 0
3692 -2914 0
3692 -2913 0
-3693 2901 2902 2905 3694 0
3693 -3694 0
3693 -2901 0
3693 -2905 0
3693 -2902 0
-3694 2899 2904 3399 3695 0
3694 -3695 0
3694 -2899 0
3694 -3399 0
3694 -2904 0
-3695 2894 3680 2898 0
3695 -2894 0
3695 -3680 0
3695 -2898 0
-3696 2908 2960 2961 3697 0
3696 -3697 0
3696 -2908 0
3696 -2961 0
3696 -2960 0
-3697 2958 2963 2970 3698 0
3697 -3698 0
3697 -2958 0
3697 -2970 0
3697 -2963 0
-3698 2957 2972 2974 3699 0
3698 -3699 0
3698 -2957 0
3698 -2974 0
3698 -2972 0
-3699 2950 2953 2954 3700 0
3699 -3700 0
3699 -2950 0
3699 -2954 0
3699 -2953 0
-3700 2940 2943 2949 3701 0
3700 -3701 0
3700 -2940 0
3700 -2949 0
3700 -2943 0
-3701 2932 2935 2939 3702 0
3701 -3702 0
3701 -2932 0
3701 -2939 0
3701 -2935 0
-3702 3224 2931 2944 3703 0
3702 -3703 0
3702 -3224 0
3702 -2944 0
3702 -2931 0
-3703 2936 2946 2947 3704 0
3703 -3704 0
3703 -2936 0
3703 -2947 0
3703 -2946 0
-3704 2925 2926 2927 3705 0
3704 -3705 0
3704 -2925 0
3704 -2927 0
3704 -2926 0
-3705 3332 2923 2964 3706 0
3705 -3706 0
3705 -3332 0
3705 -2964 0
3705 -2923 0
-3706 3364 2918 2919 3707 0
3706 -3707 0
3706 -3364 0
3706 -2919 0
3706 -2918 0
-3707 2909 2913 2914 3708 0
3707 -3708 0
3707 -2909 0
3707 -2914 0
3707 -2913 0
-3708 2901 2902 2905 3709 0
3708 -3709 0
3708 -2901 0
3708 -2905 0
3708 -2902 0
-3709 2899 2904 3399 3710 0
3709 -3710 0
3709 -2899 0
3709 -3399 0
3709 -2904 0
-3710 2893 2894 3680 2898 0
3710 -2898 0
3710 -2893 0
3710 -3680 0
3710 -2894 0
3711 2908 2960 2961 -3712 0
-3711 3712 0
-3711 -2908 0
-3711 -2961 0
-3711 -2960 0
3712 2958 2963 2970 -3713 0
-3712 3713 0
-3712 -2958 0
-3712 -2970 0
-3712 -2963 0
3713 2957 2972 2974 -3714 0
-3713 3714 0
-3713 -2957 0
-3713 -2974 0
-3713 -2972 0
3714 2950 2953 2954 -3715 0
-3714 3715 0
-3714 -2950 0
-3714 -2954 0
-3714 -2953 0
3715 2940 2943 2949 -3716 0
-3715 3716 0
-3715 -2940 0
-3715 -2949 0
-3715 -2943 0
3716 2932 2935 2939 -3717 0
-3716 3717 0
-3716 -2932 0
-3716 -2939 0
-3716 -2935 0
3717 3224 2931 2944 -3718 0
-3717 3718 0
-3717 -3224 0
-3717 -2944 0
-3717 -2931 0
3718 2936 2946 2947 -3719 0
-3718 3719 0
-3718 -2936 0
-3718 -2947 0
-3718 -2946 0
3719 2925 2926 2927 -3720 0
-3719 3720 0
-3719 -2925 0
-3719 -2927 0
-3719 -2926 0
3720 3332 2923 2964 -3721 0
-3720 3721 0
-3720 -3332 0
-3720 -2964 0
-3720 -2923 0
3721 3364 2918 2919 -3722 0
-3721 3722 0
-3721 -3364 0
-3721 -2919 0
-3721 -2918 0
3722 2909 2913 2914 -3723 0
-3722 3723 0
-3722 -2909 0
-3722 -2914 0
-3722 -2913 0
3723 2901 2902 2905 -3724 0
-3723 3724 0
-3723 -2901 0
-3723 -2905 0
-3723 -2902 0
3724 2899 2904 3399 -3725 0
-3724 3725 0
-3724 -2899 0
-3724 -3399 0
-3724 -2904 0
3725 2894 3680 2898 -3726 0
-3725 3726 0
-3725 -2894 0
-3725 -2898 0
-3725 -3680 0
3726 3802 -3888 3727 2893 0
3726 -3802 3888 3727 2893 0
-3726 -2893 0
-3726 3802 3888 0
-3726 -3727 0
-3726 -3802 -3888 0
-3727 -3778 -3864 0
-3727 3778 3864 0
3727 3778 -3864 0
3727 -3778 3864 0
-3728 143 3729 0
-3728 -1735 3729 0
-3728 3828 3729 0
3728 -3729 0
3728 -3828 -143 1735 0
3729 -152 1718 0
-3729 152 0
-3729 -1718 0
-3730 3731 2908 2960 3732 0
3730 -3732 0
3730 -3731 0
3730 -2960 0
3730 -2908 0
-3731 -3802 -3888 0
-3731 3802 3888 0
3731 3802 -3888 0
3731 -3802 3888 0
-3732 2958 2961 2963 3733 0
3732 -3733 0
3732 -2958 0
3732 -2963 0
3732 -2961 0
-3733 2972 2970 2974 3734 0
3733 -3734 0
3733 -2972 0
3733 -2974 0
3733 -2970 0
-3734 2953 2954 2957 3735 0
3734 -3735 0
3734 -2953 0
3734 -2957 0
3734 -2954 0
-3735 2943 2949 2950 3736 0
3735 -3736 0
3735 -2943 0
3735 -2950 0
3735 -2949 0
-3736 2935 2939 2940 3737 0
3736 -3737 0
3736 -2935 0
3736 -2940 0
3736 -2939 0
-3737 3224 2931 2932 3738 0
3737 -3738 0
3737 -3224 0
3737 -2932 0
3737 -2931 0
-3738 2944 2946 2947 3739 0
3738 -3739 0
3738 -2944 0
3738 -2947 0
3738 -2946 0
-3739 2925 2926 2936 3740 0
3739 -3740 0
3739 -2925 0
3739 -2936 0
3739 -2926 0
-3740 3332 2923 2927 3741 0
3740 -3741 0
3740 -3332 0
3740 -2927 0
3740 -2923 0
-3741 2918 2919 2964 3742 0
3741 -3742 0
3741 -2918 0
3741 -2964 0
3741 -2919 0
-3742 2913 2914 3364 3743 0
3742 -3743 0
3742 -2913 0
3742 -3364 0
3742 -2914 0
-3743 2901 2905 2909 3744 0
3743 -3744 0
3743 -2901 0
3743 -2909 0
3743 -2905 0
-3744 2902 2904 3399 3745 0
3744 -3745 0
3744 -2902 0
3744 -3399 0
3744 -2904 0
-3745 3680 2898 2899 3746 0
3745 -3746 0
3745 -3680 0
3745 -2899 0
3745 -2898 0
-3746 3727 2893 2894 0
3746 -3727 0
3746 -2893 0
3746 -2894 0
-3917 0
2 0
36 0
93 0
97 0
98 0
156 0
3747 0
3748 0
3749 0
3750 0
3751 0
-166 0
167 0
-168 0
169 0
170 0
3752 0
3753 0
3754 0
3755 0
3756 0
3757 0
3758 0
3759 0
3760 0
3761 0
3762 0
3763 0
3764 0
3765 0
3766 0
3767 0
3768 0
3769 0
3770 0
3771 0
3772 0
3773 0
3774 0
3775 0
3776 0
3777 0
3778 0
3779 0
3780 0
3781 0
3782 0
3783 0
3784 0
3785 0
3786 0
3787 0
3788 0
3789 0
3790 0
3791 0
3792 0
3793 0
3794 0
3795 0
3796 0
3797 0
3798 0
3799 0
3800 0
3801 0
3802 0
3803 0
3804 0
3805 0
3806 0
3807 0
3808 0
3809 0
3810 0
3811 0
3812 0
3813 0
3814 0
3815 0
3816 0
3817 0
3818 0
3819 0
3820 0
3907 0
3821 0
3822 0
3823 0
3824 0
3825 0
3826 0
3827 0
171 0
-3917 0

