c Result of efficient AIG-to-CNF conversion using package CNF
p cnf 1183 4103
2 -1181 -18 0
2 -1181 -3 -14 0
-2 1181 0
-2 3 18 0
-2 14 18 0
3 -1015 -1055 -4 -5 0
-3 1055 0
-3 5 0
-3 1015 0
-3 4 0
-4 1021 1023 0
4 -1021 0
4 -1023 0
-5 -1085 9 11 0
-5 1085 6 9 0
5 -9 0
5 1085 -6 0
5 -1085 -11 0
6 1063 -1064 -8 0
6 1063 -7 -8 0
-6 -1063 0
-6 8 0
-6 1064 7 0
-7 1065 1066 0
-7 1065 1067 1068 0
7 -1065 0
7 -1066 -1067 0
7 -1066 -1068 0
8 1013 -1014 0
-8 -1013 0
-8 1014 0
9 -1013 1014 -1063 0
9 -1013 1014 10 0
-9 1013 0
-9 -1014 0
-9 1063 -10 0
10 -1064 -1065 0
10 -1064 -1066 0
-10 1064 0
-10 1065 1066 0
11 1013 -1014 -12 0
-11 12 0
-11 1014 0
-11 -1013 0
12 1069 -13 0
12 1069 -1071 0
12 1069 -1070 0
-12 -1069 0
-12 1070 1071 13 0
13 -1072 -1073 0
13 -1072 -1074 0
-13 1072 0
-13 1073 1074 0
14 -1055 1084 -4 -15 0
-14 15 0
-14 4 0
-14 1055 0
-14 -1084 0
15 -1013 1015 -16 0
-15 1013 0
-15 16 0
-15 -1015 0
-16 1014 17 0
-16 1014 -1085 12 0
16 -1014 0
16 1085 -17 0
16 -12 -17 0
17 1063 -1064 -7 0
-17 -1063 0
-17 1064 0
-17 7 0
-18 19 25 0
-18 14 24 25 0
18 -25 0
18 -19 -24 0
18 -14 -19 0
19 -1055 -4 20 0
-19 1055 0
-19 -20 0
-19 4 0
20 -22 23 0
20 -1085 21 0
20 -1085 -22 0
-20 -21 22 0
-20 1085 -23 0
-20 1085 22 0
21 1069 -1072 0
21 1069 -1071 0
21 1069 -1070 0
-21 -1069 0
-21 1070 1071 1072 0
-22 1013 1015 0
-22 1013 1014 0
22 -1013 0
22 -1014 -1015 0
23 -1013 1014 1015 12 0
-23 -12 0
-23 -1015 0
-23 1013 0
-23 -1014 0
24 1084 -3 0
-24 -1084 0
-24 3 0
-25 26 34 0
-25 14 24 34 0
25 -34 0
25 -24 -26 0
25 -14 -26 0
26 -1055 29 0
26 -1055 27 -28 0
-26 1055 0
-26 -27 -29 0
-26 28 -29 0
27 -1090 1091 -1092 0
-27 1090 0
-27 -1091 0
-27 1092 0
28 -1084 -1086 0
-28 1084 0
-28 1086 0
29 -1084 0
29 1085 -30 0
29 -30 33 0
-29 1084 30 0
-29 1084 -1085 -33 0
30 -4 31 0
30 1085 -4 0
30 -1013 -4 0
-30 4 0
-30 1013 -1085 -31 0
31 -1014 -1015 32 0
31 -1014 -1015 -1069 0
-31 1014 0
-31 1015 0
-31 1069 -32 0
-32 1070 1071 1072 1073 0
32 -1073 0
32 -1072 0
32 -1070 0
32 -1071 0
33 -4 21 22 0
-33 -22 0
-33 -21 0
-33 4 0
-34 26 38 0
-34 35 36 0
-34 35 38 0
-34 26 36 0
34 -26 -35 0
34 -36 -38 0
35 1084 -19 0
-35 -1084 0
-35 19 0
36 -1055 -1084 -37 0
36 -1055 -1084 1086 0
-36 1055 0
-36 1084 0
-36 -1086 37 0
37 -1090 1091 -1092 0
-37 1090 0
-37 -1091 0
-37 1092 0
-38 14 24 26 35 0
38 -35 0
38 -26 0
38 -14 0
38 -24 0
39 -1052 -1181 -53 0
39 -1052 -1181 -40 0
-39 1052 0
-39 1181 0
-39 40 53 0
40 -41 -47 0
-40 41 0
-40 47 0
41 -42 44 0
-41 42 0
-41 -44 0
42 1120 1121 1122 -43 0
-42 43 0
-42 -1122 0
-42 -1120 0
-42 -1121 0
43 -1117 1118 1119 0
-43 1117 0
-43 -1119 0
-43 -1118 0
44 1107 1108 1109 -45 0
-44 45 0
-44 -1109 0
-44 -1107 0
-44 -1108 0
45 1106 -46 0
-45 -1106 0
-45 46 0
46 -1104 1105 0
-46 1104 0
-46 -1105 0
47 1025 -48 0
-47 -1025 0
-47 48 0
48 49 -51 0
-48 -49 0
-48 51 0
49 1107 1108 1109 -50 0
-49 50 0
-49 -1109 0
-49 -1107 0
-49 -1108 0
50 -1106 -46 0
-50 1106 0
-50 46 0
51 -1117 1118 -1119 52 0
-51 -52 0
-51 1117 0
-51 1119 0
-51 -1118 0
-52 1120 1121 1122 0
52 -1120 0
52 -1122 0
52 -1121 0
-53 47 54 61 0
-53 54 59 61 0
53 -61 0
53 -54 0
53 -47 -59 0
54 -55 -58 0
-54 55 0
-54 58 0
55 1075 -49 51 0
55 -49 51 -56 0
-55 49 0
-55 -51 0
-55 -1075 56 0
-56 1076 1077 57 0
56 -1076 0
56 -57 0
56 -1077 0
57 -1078 -1079 -1080 0
-57 1078 0
-57 1079 0
-57 1080 0
58 1025 -41 0
-58 -1025 0
-58 41 0
59 -1075 42 -44 0
59 42 -44 60 0
-59 44 0
-59 -42 0
-59 1075 -60 0
60 -1076 -1077 -1079 0
60 -1076 -1077 -1078 0
-60 1076 0
-60 1077 0
-60 1078 1079 0
-61 59 62 0
-61 55 62 0
61 -62 0
61 -55 -59 0
-62 63 69 0
-62 47 58 69 0
62 -69 0
62 -58 -63 0
62 -47 -63 0
63 55 -64 65 -66 0
-63 -55 0
-63 66 0
-63 -65 0
-63 64 0
64 1025 -1026 0
-64 -1025 0
-64 1026 0
-65 41 48 0
65 -41 0
65 -48 0
-66 64 67 0
-66 1041 -1042 67 0
66 -67 0
66 -1041 -64 0
66 1042 -64 0
67 1110 -46 68 0
-67 -1110 0
-67 46 0
-67 -68 0
68 1116 -1117 1118 1119 0
-68 1117 0
-68 -1119 0
-68 -1116 0
-68 -1118 0
-69 47 70 74 0
-69 70 71 74 0
69 -74 0
69 -70 0
69 -47 -71 0
70 -59 -63 0
-70 59 0
-70 63 0
71 59 65 72 -73 0
-71 -59 0
-71 73 0
-71 -72 0
-71 -65 0
-72 1025 1026 0
72 -1025 0
72 -1026 0
-73 67 -72 0
-73 1041 1042 67 0
73 -67 0
73 -1042 72 0
73 -1041 72 0
-74 71 75 0
-74 55 58 75 0
74 -75 0
74 -58 -71 0
74 -55 -71 0
-75 76 0
75 -76 0
76 -1025 -77 0
-76 1025 0
-76 77 0
-77 55 59 63 71 0
77 -71 0
77 -63 0
77 -55 0
77 -59 0
78 -1052 -1181 -64 -79 0
-78 64 0
-78 79 0
-78 1052 0
-78 1181 0
-79 80 141 0
-79 80 -144 0
-79 80 -142 0
79 -80 0
79 -141 142 144 0
80 -105 106 0
80 -81 -106 0
-80 105 106 0
-80 81 -106 0
81 -1153 -82 0
-81 1153 0
-81 82 0
-82 -1084 -1153 0
-82 1084 88 0
-82 1084 83 0
82 -1084 1153 0
82 1084 -83 -88 0
-83 1084 84 0
83 -1084 0
83 -84 0
-84 1100 1101 1102 85 0
84 -85 0
84 -1102 0
84 -1100 0
84 -1101 0
-85 1097 1098 1099 86 0
85 -86 0
85 -1099 0
85 -1097 0
85 -1098 0
-86 1094 1095 1096 87 0
86 -87 0
86 -1096 0
86 -1094 0
86 -1095 0
-87 1085 1093 0
87 -1085 0
87 -1093 0
-88 -1135 -89 0
-88 89 93 96 0
88 1135 -89 0
88 89 -96 0
88 89 -93 0
89 1084 -84 90 0
89 1084 1102 -84 0
-89 -1084 0
-89 84 0
-89 -1102 -90 0
90 -1099 -1100 -1101 -91 0
-90 91 0
-90 1099 0
-90 1101 0
-90 1100 0
91 -1096 -1097 -1098 -92 0
-91 92 0
-91 1096 0
-91 1098 0
-91 1097 0
92 -1085 -1093 -1094 -1095 0
-92 1095 0
-92 1085 0
-92 1094 0
-92 1093 0
93 1084 -1085 -94 0
-93 94 0
-93 1085 0
-93 -1084 0
94 1069 -1070 0
94 1069 -95 0
94 1069 -1071 0
-94 -1069 0
-94 1070 1071 95 0
-95 1072 1074 0
-95 1072 1073 0
95 -1072 0
95 -1073 -1074 0
96 -97 -98 0
96 -97 99 0
-96 97 0
-96 98 -99 0
97 1084 -1085 94 0
-97 -1084 0
-97 1085 0
-97 -94 0
98 -1069 1153 0
-98 1069 0
-98 -1153 0
-99 -1069 -1153 100 0
-99 1069 1153 100 0
99 -100 0
99 -1069 1153 0
99 1069 -1153 0
-100 1070 -1154 0
-100 -1154 101 0
-100 1070 101 0
100 1154 -101 0
100 -1070 1154 0
100 -1070 -101 0
-101 1071 -1155 0
-101 -1155 102 0
-101 1071 102 0
101 1155 -102 0
101 -1071 1155 0
101 -1071 -102 0
-102 1072 -1156 0
-102 -1156 103 0
-102 1072 103 0
102 1156 -103 0
102 -1072 1156 0
102 -1072 -103 0
-103 -1157 104 0
-103 1073 104 0
-103 1073 -1157 0
103 -1073 -104 0
103 -1073 1157 0
103 1157 -104 0
104 -1074 1158 0
-104 1074 0
-104 -1158 0
105 -1153 82 0
105 1153 -82 0
-105 1153 82 0
-105 -1153 -82 0
106 -107 108 0
-106 107 0
-106 -108 0
-107 1153 82 0
107 -1153 0
107 -82 0
108 -109 -105 0
-108 109 0
-108 105 0
-109 -1153 114 0
-109 -1153 110 0
-109 110 114 0
109 -110 -114 0
109 1153 -114 0
109 1153 -110 0
110 -1084 -1153 0
110 1084 -83 111 0
-110 -1084 1153 0
-110 1084 -111 0
-110 1084 83 0
-111 89 112 0
-111 -1135 -89 0
-111 89 -93 0
111 1135 -89 0
111 89 93 -112 0
112 -97 -100 -113 0
112 -97 100 113 0
-112 97 0
-112 100 -113 0
-112 -100 113 0
-113 -1069 -1153 0
-113 1069 1153 0
113 1069 -1153 0
113 -1069 1153 0
-114 -1154 119 0
-114 -1154 115 0
-114 115 119 0
114 -115 -119 0
114 1154 -119 0
114 1154 -115 0
115 -1084 -1154 0
115 1084 -83 116 0
-115 -1084 1154 0
-115 1084 -116 0
-115 1084 83 0
-116 89 117 0
-116 -1136 -89 0
-116 89 -93 0
116 1136 -89 0
116 89 93 -117 0
117 -97 -101 -118 0
117 -97 101 118 0
-117 97 0
-117 101 -118 0
-117 -101 118 0
-118 -1070 -1154 0
-118 1070 1154 0
118 1070 -1154 0
118 -1070 1154 0
-119 -1155 124 0
-119 -1155 120 0
-119 120 124 0
119 -120 -124 0
119 1155 -124 0
119 1155 -120 0
120 -1084 -1155 0
120 1084 -83 121 0
-120 -1084 1155 0
-120 1084 -121 0
-120 1084 83 0
-121 89 122 0
-121 -1137 -89 0
-121 89 -93 0
121 1137 -89 0
121 89 93 -122 0
122 -97 -102 -123 0
122 -97 102 123 0
-122 97 0
-122 102 -123 0
-122 -102 123 0
-123 -1071 -1155 0
-123 1071 1155 0
123 1071 -1155 0
123 -1071 1155 0
-124 -1156 129 0
-124 -1156 125 0
-124 125 129 0
124 -125 -129 0
124 1156 -129 0
124 1156 -125 0
125 -1084 -1156 0
125 1084 -83 126 0
-125 -1084 1156 0
-125 1084 -126 0
-125 1084 83 0
-126 89 127 0
-126 -1138 -89 0
-126 89 -93 0
126 1138 -89 0
126 89 93 -127 0
127 -97 -103 -128 0
127 -97 103 128 0
-127 97 0
-127 103 -128 0
-127 -103 128 0
-128 -1072 -1156 0
-128 1072 1156 0
128 1072 -1156 0
128 -1072 1156 0
-129 130 135 0
129 -130 0
129 -135 0
130 1157 -131 0
-130 -1157 0
-130 131 0
131 -1084 -1157 0
131 1084 -83 132 0
-131 -1084 1157 0
-131 1084 -132 0
-131 1084 83 0
-132 89 133 0
-132 -1139 -89 0
-132 89 -93 0
132 1139 -89 0
132 89 93 -133 0
133 -97 104 134 0
133 -97 -104 -134 0
-133 97 0
-133 -104 134 0
-133 104 -134 0
-134 -1073 -1157 0
-134 1073 1157 0
134 1073 -1157 0
134 -1073 1157 0
135 -136 140 0
-135 136 0
-135 -140 0
136 1158 -137 0
-136 -1158 0
-136 137 0
137 -1084 -1158 0
137 1084 -83 138 0
-137 -1084 1158 0
-137 1084 -138 0
-137 1084 83 0
-138 89 139 0
-138 -1140 -89 0
-138 89 -93 0
138 1140 -89 0
138 89 93 -139 0
139 -1074 -1158 -97 0
139 1074 1158 -97 0
-139 97 0
-139 -1074 1158 0
-139 1074 -1158 0
-140 -1157 -131 0
-140 1157 131 0
140 1157 -131 0
140 -1157 131 0
-141 -109 -105 0
-141 109 105 0
141 109 -105 0
141 -109 105 0
142 -114 143 0
142 114 -143 0
-142 114 143 0
-142 -114 -143 0
-143 -1153 -110 0
-143 1153 110 0
143 1153 -110 0
143 -1153 110 0
-144 145 147 149 0
144 -149 0
144 -147 0
144 -145 0
145 -119 146 0
145 119 -146 0
-145 119 146 0
-145 -119 -146 0
-146 -1154 -115 0
-146 1154 115 0
146 1154 -115 0
146 -1154 115 0
147 -124 148 0
147 124 -148 0
-147 124 148 0
-147 -124 -148 0
-148 -1155 -120 0
-148 1155 120 0
148 1155 -120 0
148 -1155 120 0
-149 150 152 153 0
149 -150 0
149 -153 0
149 -152 0
150 -129 151 0
150 129 -151 0
-150 129 151 0
-150 -129 -151 0
-151 -1156 -125 0
-151 1156 125 0
151 1156 -125 0
151 -1156 125 0
152 1158 -137 0
152 -1158 137 0
-152 -1158 -137 0
-152 1158 137 0
153 -136 140 0
153 136 -140 0
-153 136 140 0
-153 -136 -140 0
154 -1052 -1181 21 -155 0
-154 155 0
-154 1052 0
-154 1181 0
-154 -21 0
155 -1085 -49 0
-155 1085 0
-155 49 0
156 -1052 -1181 72 157 0
-156 -72 0
-156 -157 0
-156 1052 0
-156 1181 0
157 158 -189 0
157 158 -198 -209 0
-157 -158 0
-157 189 209 0
-157 189 198 0
158 1025 -159 0
-158 -1025 0
-158 159 0
159 71 -160 0
159 -71 -183 0
-159 -71 183 0
-159 71 160 0
160 -63 165 0
160 59 63 -161 0
-160 -59 63 0
-160 -63 -165 0
-160 63 161 0
-161 55 -58 0
-161 47 55 162 0
161 -55 0
161 -47 58 0
161 58 -162 0
-162 1129 163 0
162 -1129 0
162 -163 0
-163 47 55 58 164 0
163 -164 0
163 -58 0
163 -47 0
163 -55 0
-164 1025 59 63 71 0
164 -71 0
164 -63 0
164 -1025 0
164 -59 0
165 1129 -166 0
-165 -1129 0
-165 166 0
166 167 -176 0
-166 -167 0
-166 176 0
167 -168 170 0
-167 168 0
-167 -170 0
168 -1075 1076 0
168 -1075 1077 169 0
-168 1075 0
-168 -1076 -1077 0
-168 -1076 -169 0
-169 1078 1079 0
169 -1078 0
169 -1079 0
170 1075 -1129 0
170 1075 171 -172 0
170 -1129 171 -172 0
-170 1129 172 0
-170 -1075 -171 0
-170 -1075 1129 0
-170 -1075 172 0
-170 1129 -171 0
171 1076 -1130 0
-171 -1076 0
-171 1130 0
-172 1077 -1131 173 0
-172 1077 173 174 0
-172 -1131 173 174 0
172 1131 -174 0
172 -1077 1131 0
172 -173 0
172 -1077 -174 0
173 -1076 1130 0
-173 1076 0
-173 -1130 0
174 -1078 -175 0
174 -1078 1132 0
174 1132 -175 0
-174 -1132 175 0
-174 1078 175 0
-174 1078 -1132 0
175 -1079 1133 0
175 -1079 -1080 1134 0
175 -1080 1133 1134 0
-175 1079 -1134 0
-175 -1133 -1134 0
-175 1079 -1133 0
-175 1080 -1133 0
-175 1079 1080 0
176 177 -181 0
-176 -177 0
-176 181 0
177 -1075 1129 0
177 -1075 173 -178 0
177 1129 173 -178 0
-177 1075 178 0
-177 -1129 178 0
-177 1075 -1129 0
-177 -1129 -173 0
-177 1075 -173 0
-178 -1077 1131 171 0
-178 -1077 171 179 0
-178 1131 171 179 0
178 1077 -179 0
178 -1131 -179 0
178 -171 0
178 1077 -1131 0
179 1078 -1132 0
179 -1132 -180 0
179 1078 -180 0
-179 1132 180 0
-179 -1078 1132 0
-179 -1078 180 0
180 1079 -1133 0
180 1080 -1133 -1134 0
180 1079 1080 -1134 0
-180 -1079 -1080 0
-180 -1080 1133 0
-180 -1079 1133 0
-180 1133 1134 0
-180 -1079 1134 0
181 -1129 1130 0
181 -1129 1131 182 0
-181 1129 0
-181 -1130 -1131 0
-181 -1130 -182 0
-182 1132 1133 0
182 -1132 0
182 -1133 0
183 -1075 -184 0
183 -1129 184 -186 0
-183 184 186 0
-183 1075 -184 0
-183 1129 184 0
184 177 -185 0
-184 -177 0
-184 185 0
185 1075 -1076 0
185 1075 -1077 -57 0
-185 -1075 0
-185 1076 57 0
-185 1076 1077 0
186 170 -187 0
-186 -170 0
-186 187 0
187 1129 -1130 0
187 1129 -1131 -188 0
-187 -1129 0
-187 1130 188 0
-187 1130 1131 0
188 -1132 -1133 -1134 0
-188 1132 0
-188 1133 0
-188 1134 0
189 1025 -190 0
-189 -1025 0
-189 190 0
190 71 -191 0
190 -71 -197 0
-190 -71 197 0
-190 71 191 0
191 -59 63 0
191 -63 196 0
191 63 -192 0
-191 -63 -196 0
-191 59 63 192 0
192 55 -193 0
-192 -55 0
-192 193 0
193 58 -194 0
193 1075 -1076 -58 0
-193 58 194 0
-193 -1075 -58 0
-193 1076 -58 0
194 47 -195 0
194 1075 -47 0
194 -1076 -47 0
-194 47 195 0
-194 -1075 1076 -47 0
-195 1130 163 0
195 -1130 0
195 -163 0
-196 -1130 167 0
-196 -1076 166 0
-196 -1076 -1130 0
-196 167 166 0
196 1130 -166 0
196 1076 -167 0
197 -1076 -184 0
197 -1130 184 -186 0
-197 184 186 0
-197 1076 -184 0
-197 1130 184 0
198 1025 -199 0
-198 -1025 0
-198 199 0
199 71 -200 0
199 -71 207 0
-199 -71 -207 0
-199 71 200 0
200 63 -201 0
200 -63 -205 206 0
-200 63 201 0
-200 -63 -206 0
-200 -63 205 0
-201 59 202 0
-201 -55 59 0
201 -59 0
201 55 -202 0
202 -1077 -58 0
202 58 -203 0
202 -58 185 0
-202 58 203 0
-202 1077 -58 -185 0
203 47 -204 0
203 -1077 -47 -168 0
-203 1077 -47 0
-203 47 204 0
-203 -47 168 0
-204 1131 163 0
204 -1131 0
204 -163 0
-205 167 176 0
205 -167 0
205 -176 0
-206 -1131 167 0
-206 -1077 166 0
-206 -1077 -1131 0
-206 167 166 0
206 1131 -166 0
206 1077 -167 0
-207 -1131 184 0
-207 -1077 208 0
-207 -1077 -1131 0
-207 184 208 0
207 1131 -208 0
207 1077 -184 0
208 184 -186 0
-208 -184 0
-208 186 0
209 -210 -219 -227 0
-209 210 0
-209 219 0
-209 227 0
210 1025 -211 0
-210 -1025 0
-210 211 0
211 71 -212 0
211 -71 218 0
-211 -71 -218 0
-211 71 212 0
212 63 -213 0
212 -63 -205 217 0
-212 -63 205 0
-212 63 213 0
-212 -63 -217 0
213 -55 59 0
213 59 -214 0
-213 -59 0
-213 55 214 0
214 -1078 -58 0
214 58 -215 0
214 -58 185 0
-214 58 215 0
-214 1078 -58 -185 0
215 47 -216 0
215 -1078 -47 -168 0
-215 1078 -47 0
-215 47 216 0
-215 -47 168 0
-216 1132 163 0
216 -1132 0
216 -163 0
-217 -1132 167 0
-217 -1078 166 0
-217 -1078 -1132 0
-217 167 166 0
217 1132 -166 0
217 1078 -167 0
-218 -1132 184 0
-218 -1078 208 0
-218 -1078 -1132 0
-218 184 208 0
218 1132 -208 0
218 1078 -184 0
219 71 -220 0
219 -71 226 0
-219 -71 -226 0
-219 71 220 0
220 63 -221 0
220 -63 225 0
220 -59 63 0
-220 -63 -225 0
-220 59 63 221 0
-221 55 222 0
221 -55 0
221 -222 0
222 -1080 -58 0
222 58 -223 0
222 -58 185 0
-222 58 223 0
-222 1080 -58 -185 0
223 47 -224 0
223 -47 168 0
223 -1080 -47 0
-223 47 224 0
-223 1080 -47 -168 0
-224 1134 163 0
224 -1134 0
224 -163 0
-225 -1134 167 0
-225 -1080 166 0
-225 -1080 -1134 0
-225 167 166 0
225 1134 -166 0
225 1080 -167 0
-226 -1134 184 0
-226 -1080 208 0
-226 -1080 -1134 0
-226 184 208 0
226 1134 -208 0
226 1080 -184 0
227 1025 -228 0
-227 -1025 0
-227 228 0
228 -71 235 0
228 71 -229 233 0
-228 71 229 0
-228 -71 -235 0
-228 71 -233 0
-229 -59 63 0
-229 55 63 230 0
229 -63 0
229 -55 59 0
229 59 -230 0
230 -1079 -58 0
230 58 -231 0
230 -58 185 0
-230 58 231 0
-230 1079 -58 -185 0
231 47 -232 0
231 -1079 -47 -168 0
-231 1079 -47 0
-231 47 232 0
-231 -47 168 0
-232 1133 163 0
232 -1133 0
232 -163 0
233 -63 234 0
233 1079 -63 -167 0
-233 63 0
-233 -1079 -234 0
-233 167 -234 0
234 -1133 -205 0
234 166 -205 0
-234 205 0
-234 1133 -166 0
-235 -1133 184 0
-235 -1079 208 0
-235 -1079 -1133 0
-235 184 208 0
235 1133 -208 0
235 1079 -184 0
236 -1033 -1034 -1054 -1181 0
-236 1181 0
-236 1033 0
-236 1054 0
-236 1034 0
237 -1182 -239 0
237 -1013 -1182 -238 0
-237 1182 0
-237 1013 239 0
-237 238 239 0
238 -1014 -1015 0
-238 1014 0
-238 1015 0
-239 1027 240 243 0
-239 240 242 243 0
239 -243 0
239 -240 0
239 -1027 -242 0
240 -1016 -241 0
-240 1016 0
-240 241 0
241 -1017 -1018 0
-241 1017 0
-241 1018 0
-242 1028 1029 0
242 -1028 0
242 -1029 0
-243 1030 244 0
-243 1031 1032 244 0
243 -244 0
243 -1030 -1032 0
243 -1030 -1031 0
-244 1036 245 0
-244 1035 245 0
-244 1037 245 0
244 -245 0
244 -1035 -1036 -1037 0
-245 1038 246 0
-245 1039 1040 246 0
245 -246 0
245 -1038 -1040 0
245 -1038 -1039 0
-246 1043 247 0
-246 1044 1045 247 0
246 -247 0
246 -1043 -1045 0
246 -1043 -1044 0
-247 1087 248 250 0
-247 248 249 250 0
247 -250 0
247 -248 0
247 -1087 -249 0
248 -1046 -1047 0
248 -1046 -1048 0
-248 1046 0
-248 1047 1048 0
249 -1088 -1089 0
-249 1088 0
-249 1089 0
-250 1107 251 253 0
-250 251 252 253 0
250 -253 0
250 -251 0
250 -1107 -252 0
251 -1104 -1105 0
-251 1104 0
-251 1105 0
252 -1108 -1109 0
-252 1108 0
-252 1109 0
-253 1115 254 255 0
-253 1114 254 255 0
253 -255 0
253 -254 0
253 -1114 -1115 0
254 -1111 -1112 0
-254 1111 0
-254 1112 0
-255 1118 256 257 0
-255 1117 256 257 0
255 -257 0
255 -256 0
255 -1117 -1118 0
256 -1120 -1121 -1122 0
-256 1120 0
-256 1121 0
-256 1122 0
-257 1127 258 259 0
-257 1126 258 259 0
257 -259 0
257 -258 0
257 -1126 -1127 0
258 -1123 -1124 0
-258 1123 0
-258 1124 0
-259 1167 260 261 0
-259 1166 260 261 0
259 -261 0
259 -260 0
259 -1166 -1167 0
260 -1162 -1163 0
-260 1162 0
-260 1163 0
-261 1169 262 263 0
-261 1168 262 263 0
261 -263 0
261 -262 0
261 -1168 -1169 0
262 -994 -995 0
-262 994 0
-262 995 0
-263 1172 264 0
-263 1171 264 0
263 -264 0
263 -1171 -1172 0
-264 1175 1177 0
-264 1174 1178 0
-264 1175 1178 0
-264 1174 1177 0
264 -1174 -1175 0
264 -1177 -1178 0
265 -1182 266 268 -270 0
-265 270 0
-265 -268 0
-265 1182 0
-265 -266 0
266 -1050 -37 0
266 1016 -1050 267 0
-266 1050 0
-266 -1016 37 0
-266 37 -267 0
-267 1017 1018 0
267 -1017 0
267 -1018 0
268 1016 -1050 37 -269 0
-268 1050 0
-268 -37 0
-268 -1016 0
-268 269 0
269 1017 -1018 0
-269 -1017 0
-269 1018 0
270 271 277 -299 0
270 271 277 -290 0
-270 -271 0
-270 -277 0
-270 290 299 0
271 -1050 -272 -273 0
271 -1050 -272 -275 0
-271 1050 0
-271 272 0
-271 273 275 0
-272 1016 1018 0
-272 1016 1017 0
-272 -1016 -1017 -1018 0
272 -1016 1017 0
272 1016 -1017 -1018 0
272 -1016 1018 0
273 1087 1088 -1089 274 0
-273 -1087 0
-273 -274 0
-273 1089 0
-273 -1088 0
274 -1090 1091 -1092 0
274 -1090 -1091 1092 0
-274 1090 0
-274 -1091 -1092 0
-274 1091 1092 0
275 1087 -1088 276 0
275 -1087 1089 276 0
275 1088 -1089 276 0
-275 -276 0
-275 1087 1088 1089 0
-275 -1087 -1088 -1089 0
-276 1090 1091 1092 0
276 -1090 0
276 -1092 0
276 -1091 0
277 -1050 -278 0
277 -1050 -287 0
277 -1050 -282 0
-277 1050 0
-277 278 282 287 0
278 27 -279 280 0
-278 -280 0
-278 279 0
-278 -27 0
279 1016 -241 0
-279 -1016 0
-279 241 0
-280 1087 281 0
280 -1087 0
280 -281 0
-281 1088 1089 0
281 -1088 0
281 -1089 0
282 -272 -284 0
282 -283 -272 -286 0
-282 272 0
-282 284 286 0
-282 283 284 0
283 1090 1091 -1092 0
-283 1092 0
-283 -1091 0
-283 -1090 0
284 1087 -1088 1089 -285 0
-284 1088 0
-284 285 0
-284 -1087 0
-284 -1089 0
-285 -1090 1091 -1092 0
-285 -1090 -1091 1092 0
-285 1090 1091 1092 0
285 1090 -1091 0
285 -1091 -1092 0
285 1090 -1092 0
285 -1090 1091 1092 0
-286 1087 1088 0
-286 -1087 -1088 -1089 0
286 1087 -1088 0
286 -1087 1088 0
286 -1088 1089 0
-287 279 0
-287 285 288 0
-287 286 288 0
287 -279 -288 0
287 -279 -285 -286 0
288 -1090 -289 0
-288 1090 0
-288 289 0
289 -1091 1092 0
-289 1091 0
-289 -1092 0
290 -291 292 0
290 -291 -298 0
290 -291 -293 0
-290 291 0
-290 -292 293 298 0
291 -1016 -1050 0
-291 1016 0
-291 1050 0
-292 27 267 280 0
292 -280 0
292 -267 0
292 -27 0
293 241 -295 0
293 -294 241 -297 0
-293 -241 0
-293 295 297 0
-293 294 295 0
294 1090 -289 0
-294 -1090 0
-294 289 0
295 1087 -249 -296 0
-295 -1087 0
-295 249 0
-295 296 0
-296 1091 -1092 0
-296 1090 1091 0
-296 -1090 -1091 1092 0
296 1090 -1091 0
296 -1091 -1092 0
296 -1090 1091 1092 0
-297 1087 1089 0
-297 1087 1088 0
-297 -1087 -1088 -1089 0
297 -1087 1088 0
297 1087 -1088 -1089 0
297 -1087 1089 0
-298 -267 0
-298 288 297 0
-298 288 296 0
298 267 -288 0
298 267 -296 -297 0
-299 1013 300 309 0
299 -1013 0
299 -309 0
299 -300 0
300 -291 -301 0
300 -291 -307 0
300 -291 -302 0
-300 291 0
-300 301 302 307 0
301 27 -269 280 0
-301 -280 0
-301 269 0
-301 -27 0
302 -1017 1018 -1087 -303 0
302 1017 -1018 -1087 -303 0
-302 303 0
-302 1017 1018 0
-302 1087 0
-302 -1017 -1018 0
-303 -1088 -1089 0
-303 -1088 304 0
-303 -1089 304 0
-303 304 305 0
303 1089 -304 0
303 1088 -304 0
303 1088 1089 -305 0
304 1090 -1091 -1092 0
-304 1092 0
-304 1091 0
-304 -1090 0
-305 1091 306 0
-305 1092 306 0
305 -306 0
305 -1091 -1092 0
306 -1090 1091 1092 0
-306 1090 0
-306 -1092 0
-306 -1091 0
-307 269 0
-307 288 308 0
-307 288 305 0
307 -269 -288 0
307 -269 -305 -308 0
308 -1087 249 0
-308 1087 0
-308 -249 0
309 -1050 -310 311 0
-309 1050 0
-309 310 0
-309 -311 0
310 -1016 -1017 1018 0
-310 1016 0
-310 1017 0
-310 -1018 0
311 1090 -280 0
311 -27 312 0
311 1090 -27 0
311 -280 312 0
-311 -1090 -312 0
-311 27 280 0
-312 289 314 0
-312 289 -313 0
-312 1087 289 0
312 -289 0
312 -1087 313 -314 0
313 1091 -1092 0
-313 -1091 0
-313 1092 0
314 1088 -1089 0
314 -1088 1089 0
-314 -1088 -1089 0
-314 1088 1089 0
315 -1182 -266 0
315 -1182 316 0
315 -1182 -268 0
-315 1182 0
-315 266 268 -316 0
-316 271 277 317 0
-316 271 277 -290 0
316 -271 0
316 -277 0
316 290 -317 0
317 -1014 300 0
317 300 -309 0
-317 -300 0
-317 1014 309 0
318 -1182 -266 0
318 -1182 268 319 0
-318 1182 0
-318 266 -319 0
-318 266 -268 0
319 271 -277 0
319 271 290 -320 0
-319 -271 0
-319 277 320 0
-319 277 -290 0
-320 300 -309 0
-320 1015 300 0
320 -300 0
320 -1015 309 0
321 -1182 26 36 -322 0
-321 322 0
-321 -36 0
-321 1182 0
-321 -26 0
322 -1016 35 0
322 -14 35 0
322 -24 35 0
-322 -35 0
-322 1016 14 24 0
323 -1182 -26 0
323 -1182 324 0
323 -1182 -36 0
-323 1182 0
-323 26 36 -324 0
-324 -14 35 0
-324 -24 35 0
-324 1017 35 0
324 -35 0
324 -1017 14 24 0
325 -1182 -36 0
325 -1182 26 326 0
-325 1182 0
-325 -26 36 0
-325 36 -326 0
-326 -24 35 0
-326 1018 14 35 0
326 -35 0
326 -14 24 0
326 -1018 24 0
327 -1019 -1020 -1182 0
327 -1019 1049 -1182 0
-327 1182 0
-327 1019 0
-327 1020 -1049 0
328 -1182 -329 0
328 -1182 -332 0
-328 1182 0
-328 329 332 0
329 1019 1020 -1049 -330 0
-329 -1019 0
-329 330 0
-329 1049 0
-329 -1020 0
330 1153 -1154 -1155 0
330 1153 -1154 -331 0
-330 -1153 0
-330 1154 0
-330 1155 331 0
331 -1156 -1157 0
331 -1156 -1158 0
-331 1156 0
-331 1157 1158 0
332 -1019 1020 -1049 0
332 1019 -1020 333 0
332 -1020 1049 333 0
-332 1020 1049 0
-332 -1019 -1020 -1049 0
-332 1019 1020 0
-332 -1020 -333 0
333 1019 -1020 -1049 334 0
-333 -1019 0
-333 -334 0
-333 1049 0
-333 1020 0
334 1153 -1154 -1155 0
334 1153 -1154 -1156 0
-334 -1153 0
-334 1154 0
-334 1155 1156 0
335 -1182 336 0
-335 1182 0
-335 -336 0
336 -1022 1049 0
336 1022 -1049 -343 0
336 -1022 337 0
-336 1022 343 0
-336 -1022 -1049 -337 0
-336 1022 1049 0
337 -1082 -338 0
337 -338 -339 0
337 -1083 -338 0
-337 338 0
-337 1082 1083 339 0
338 -1025 -1026 0
-338 1025 0
-338 1026 0
339 1058 1153 -340 0
339 1153 -1154 -340 0
339 1058 1153 -1154 0
-339 -1058 1154 0
-339 -1058 340 0
-339 -1153 0
-339 1154 340 0
-340 -1059 341 0
-340 -1059 1155 0
-340 1155 341 0
340 -1155 -341 0
340 1059 -341 0
340 1059 -1155 0
-341 -1060 342 0
-341 -1060 1156 0
-341 1156 342 0
341 -1156 -342 0
341 1060 -342 0
341 1060 -1156 0
-342 -1061 -1062 0
-342 -1062 1157 0
-342 -1061 1157 0
-342 1157 1158 0
-342 -1061 1158 0
342 1061 -1157 0
342 1062 -1157 -1158 0
342 1061 1062 -1158 0
343 1022 1083 344 -345 0
-343 345 0
-343 -344 0
-343 -1022 0
-343 -1083 0
344 -1081 -339 0
-344 1081 0
-344 339 0
345 1082 -338 0
-345 -1082 0
-345 338 0
346 -1182 347 0
-346 1182 0
-346 -347 0
-347 1023 -348 0
-347 -1023 -1049 -79 0
-347 1023 1049 0
347 -1023 79 0
347 -1023 1049 0
347 1023 -1049 348 0
-348 80 141 0
-348 80 -349 0
-348 80 -142 0
348 -80 0
348 -141 142 349 0
-349 145 147 350 0
349 -350 0
349 -147 0
349 -145 0
-350 150 153 0
-350 150 152 0
350 -150 0
350 -152 -153 0
351 -1182 352 0
-351 1182 0
-351 -352 0
352 -1024 1049 0
352 1024 -1049 21 0
352 -1024 -21 0
352 -1049 1085 0
-352 1024 1049 0
-352 1024 -1085 -21 0
-352 -1024 -1049 -1085 21 0
353 -1182 354 -361 0
353 -1182 354 362 0
-353 1182 0
-353 -354 0
-353 361 -362 0
354 355 357 358 -359 0
-354 359 0
-354 -358 0
-354 -355 0
-354 -357 0
355 -50 -356 0
-355 50 0
-355 356 0
-356 -1107 -252 0
-356 1107 252 0
356 1107 -252 0
356 -1107 252 0
357 1107 1108 -50 0
-357 50 0
-357 -1108 0
-357 -1107 0
358 -45 -356 0
-358 45 0
-358 356 0
359 -1103 360 0
-359 1103 0
-359 -360 0
360 1107 1108 -45 0
-360 45 0
-360 -1108 0
-360 -1107 0
361 -1103 -360 0
-361 1103 0
-361 360 0
362 -1025 363 0
362 363 -364 0
-362 -363 0
-362 1025 364 0
363 -1103 -357 0
-363 1103 0
-363 357 0
364 -1103 -46 -356 0
-364 1103 0
-364 46 0
-364 356 0
365 -1182 354 -361 0
365 -1182 354 366 0
-365 1182 0
-365 -354 0
-365 361 -366 0
-366 363 -364 0
-366 1026 363 0
366 -363 0
366 -1026 364 0
367 368 369 -374 0
367 368 369 -372 0
-367 -368 0
-367 -369 0
-367 372 374 0
368 -1103 45 -355 0
-368 1103 0
-368 -45 0
-368 355 0
369 -364 -370 0
-369 364 0
-369 370 0
370 -45 -371 0
-370 45 0
-370 371 0
371 1107 -1108 -1109 0
-371 1109 0
-371 1108 0
-371 -1107 0
372 371 -364 -373 0
-372 373 0
-372 364 0
-372 -371 0
373 -1107 -1108 1109 -45 0
-373 45 0
-373 1107 0
-373 1108 0
-373 -1109 0
374 -1027 375 377 0
-374 1027 0
-374 -377 0
-374 -375 0
375 -364 -376 0
-375 364 0
-375 376 0
376 -1107 1108 1109 -45 0
-376 45 0
-376 -1109 0
-376 1107 0
-376 -1108 0
377 -364 -378 0
-377 364 0
-377 378 0
378 -1107 1108 -1109 -45 0
-378 45 0
-378 1107 0
-378 1109 0
-378 -1108 0
379 364 368 -380 0
379 368 370 -380 0
-379 380 0
-379 -368 0
-379 -364 -370 0
380 372 -377 0
380 -1028 372 0
380 372 -375 0
-380 -372 0
-380 1028 375 377 0
381 368 -369 0
381 368 372 -382 0
-381 -368 0
-381 369 382 0
-381 369 -372 0
382 -1029 375 0
382 375 -377 0
-382 -375 0
-382 1029 377 0
383 364 384 -386 0
383 384 385 -386 0
-383 386 0
-383 -384 0
-383 -364 -385 0
384 -1103 50 -358 0
-384 1103 0
-384 -50 0
-384 358 0
385 -50 -371 0
-385 50 0
-385 371 0
-386 387 -391 0
-386 387 -389 0
-386 1030 387 0
386 -387 0
386 -1030 389 391 0
387 371 -364 -388 0
-387 388 0
-387 364 0
-387 -371 0
388 -1107 -1108 1109 -50 0
-388 50 0
-388 1107 0
-388 1108 0
-388 -1109 0
389 -364 -390 0
-389 364 0
-389 390 0
390 -1107 1108 1109 -50 0
-390 50 0
-390 -1109 0
-390 1107 0
-390 -1108 0
391 -364 -392 0
-391 364 0
-391 392 0
392 -1107 1108 -1109 -50 0
-392 50 0
-392 1107 0
-392 1109 0
-392 -1108 0
393 364 384 -394 0
393 384 385 -394 0
-393 394 0
-393 -384 0
-393 -364 -385 0
394 387 -391 0
394 -1031 387 0
394 387 -389 0
-394 -387 0
-394 1031 389 391 0
395 384 -396 0
395 384 -397 0
-395 -384 0
-395 396 397 0
396 -364 -385 0
-396 364 0
-396 385 0
397 387 389 -391 0
397 -1032 387 389 0
-397 -389 0
-397 -387 0
-397 1032 391 0
398 -1182 -399 0
398 -1182 -438 0
-398 1182 0
-398 399 438 0
399 1033 -1052 -59 0
399 1033 -1052 -400 0
-399 -1033 0
-399 1052 0
-399 59 400 0
-400 1075 -401 0
-400 401 405 0
-400 -401 -404 0
400 401 -405 0
400 -1075 -401 404 0
401 1027 1028 -402 403 0
-401 -1027 0
-401 -403 0
-401 402 0
-401 -1028 0
402 -1025 1026 0
-402 1025 0
-402 -1026 0
-403 1030 1031 0
403 -1030 0
403 -1031 0
404 -1076 -1077 0
-404 1076 0
-404 1077 0
-405 1075 -427 0
-405 406 -429 0
-405 406 -427 0
-405 1075 406 0
-405 -427 -429 0
-405 1075 -429 0
405 -1075 -406 429 0
405 -1075 427 429 0
405 -1075 -406 427 0
405 -406 427 429 0
-406 407 425 0
406 -407 0
406 -425 0
-407 408 423 0
407 -408 0
407 -423 0
-408 409 421 0
408 -409 0
408 -421 0
409 -410 -419 0
-409 410 0
-409 419 0
410 411 -412 0
-410 -411 0
-410 412 0
-411 1026 -242 0
-411 1026 -1027 0
-411 1025 1026 0
411 -1026 0
411 -1025 1027 242 0
412 413 -416 0
412 413 -415 0
412 413 -414 0
-412 -413 0
-412 414 415 416 0
413 1027 -1028 -1029 -402 0
-413 -1027 0
-413 402 0
-413 1029 0
-413 1028 0
414 1027 -1028 1029 -402 0
-414 1028 0
-414 -1029 0
-414 -1027 0
-414 402 0
415 -1027 1028 1029 -402 0
-415 402 0
-415 -1029 0
-415 1027 0
-415 -1028 0
416 -228 417 0
416 -72 417 0
-416 -417 0
-416 72 228 0
417 -402 -418 0
-417 402 0
-417 418 0
418 1027 1028 -1029 0
-418 1029 0
-418 -1028 0
-418 -1027 0
419 413 414 -420 0
419 413 414 -415 0
-419 -413 0
-419 -414 0
-419 415 420 0
420 -219 417 0
420 -72 417 0
-420 -417 0
-420 72 219 0
421 411 -413 0
421 411 -422 0
421 411 -414 0
-421 -411 0
-421 413 414 422 0
422 -72 415 417 0
422 -211 415 417 0
-422 -417 0
-422 -415 0
-422 72 211 0
423 411 -413 0
423 411 414 -424 0
-423 -411 0
-423 413 424 0
-423 413 -414 0
-424 415 -417 0
-424 72 199 415 0
424 -415 0
424 -199 417 0
424 -72 417 0
425 411 413 -414 0
425 411 413 -426 0
-425 -411 0
-425 -413 0
-425 414 426 0
-426 415 -417 0
-426 72 190 415 0
426 -415 0
426 -190 417 0
426 -72 417 0
-427 411 413 414 428 0
427 -428 0
427 -414 0
427 -411 0
427 -413 0
-428 415 -417 0
-428 72 159 415 0
428 -415 0
428 -159 417 0
428 -72 417 0
429 -1076 -431 0
429 -1076 -430 0
429 -430 -431 0
-429 430 431 0
-429 1076 431 0
-429 1076 430 0
-430 -407 -425 0
-430 407 425 0
430 407 -425 0
430 -407 425 0
431 -1077 -433 0
431 -1077 -432 0
431 -432 -433 0
-431 432 433 0
-431 1077 433 0
-431 1077 432 0
-432 -408 -423 0
-432 408 423 0
432 408 -423 0
432 -408 423 0
433 -1078 -435 0
433 -1078 -434 0
433 -434 -435 0
-433 434 435 0
-433 1078 435 0
-433 1078 434 0
-434 -409 -421 0
-434 409 421 0
434 409 -421 0
434 -409 421 0
435 -1079 -1080 0
435 -1079 437 0
435 -1080 437 0
435 -1079 -436 0
435 -436 437 0
-435 1079 -437 0
-435 1080 436 -437 0
-435 1079 1080 436 0
436 411 -419 0
-436 -411 0
-436 419 0
437 412 -436 0
437 411 -412 436 0
-437 -411 -412 0
-437 412 436 0
-437 -412 -436 0
438 -1033 1052 0
438 -1033 439 451 0
-438 1033 0
-438 -1052 -439 0
-438 -1052 -451 0
439 -401 440 441 -443 0
-439 443 0
-439 -441 0
-439 401 0
-439 -440 0
440 -1075 1077 0
440 -1075 1076 0
-440 1075 0
-440 -1076 -1077 0
441 1075 -442 0
441 1075 -1077 0
441 1075 -1076 0
-441 -1075 0
-441 1076 1077 442 0
442 -1078 -1079 0
442 -1078 -1080 0
-442 1078 0
-442 1079 1080 0
-443 65 444 0
443 -65 0
443 -444 0
444 -1123 -445 0
444 -445 -450 0
444 -1123 -450 0
-444 1123 450 0
-444 445 450 0
-444 1123 445 0
445 -1124 448 0
445 -1125 -446 448 0
445 -1124 -1125 -446 0
-445 1124 -448 0
-445 446 -448 0
-445 1124 446 0
-445 1125 -448 0
-445 1124 1125 0
446 -72 447 0
-446 72 0
-446 -447 0
447 -1027 1028 1029 -402 0
447 1027 -1028 -1029 -402 0
-447 -1028 1029 0
-447 -1027 -1029 0
-447 402 0
-447 1027 1028 0
448 -72 -449 0
-448 72 0
-448 449 0
449 -1027 1028 1029 -402 0
449 1027 -1028 1029 -402 0
-449 402 0
-449 1027 1028 0
-449 -1029 0
-449 -1027 -1028 0
450 -72 417 0
-450 72 0
-450 -417 0
-451 -452 0
-451 -401 0
-451 65 444 0
451 -65 401 452 0
451 401 -444 452 0
452 453 -454 0
-452 -453 0
-452 454 0
453 1075 -427 0
-453 -1075 0
-453 427 0
-454 1075 427 456 0
-454 -1075 -427 -455 0
-454 1075 427 -455 0
-454 -1075 -427 456 0
454 -1075 427 0
454 1075 -427 0
454 455 -456 0
455 -1076 425 0
-455 1076 0
-455 -425 0
-456 -1077 423 457 0
-456 -1077 457 458 0
-456 423 457 458 0
456 1077 -458 0
456 -423 -458 0
456 -457 0
456 1077 -423 0
457 1076 -425 0
-457 -1076 0
-457 425 0
458 1078 -421 0
458 -421 -459 0
458 1078 -459 0
-458 421 459 0
-458 -1078 421 0
-458 -1078 459 0
459 1079 -410 0
459 1080 -410 -436 0
459 1079 1080 -436 0
-459 -1079 -1080 0
-459 -1080 410 0
-459 -1079 410 0
-459 410 436 0
-459 -1079 436 0
460 -1182 -461 0
-460 1182 0
-460 461 0
-461 1034 462 0
-461 -1034 -1053 -501 0
-461 1034 1053 0
461 -1034 1053 0
461 1034 -1053 -462 0
461 -1034 501 0
-462 55 -401 499 0
-462 55 401 463 0
462 -55 0
462 -401 -499 0
462 401 -463 0
-463 -1075 488 0
-463 464 490 0
-463 464 488 0
-463 -1075 464 0
-463 488 490 0
-463 -1075 490 0
463 -464 -488 -490 0
463 1075 -488 -490 0
463 1075 -464 -490 0
463 1075 -464 -488 0
-464 465 485 0
464 -465 0
464 -485 0
-465 466 482 0
465 -466 0
465 -482 0
-466 467 480 0
466 -467 0
466 -480 0
467 -468 -475 0
-467 468 0
-467 475 0
-468 469 470 472 0
-468 469 470 -471 0
468 -469 0
468 -470 0
468 471 -472 0
469 1030 -1031 -1032 -402 0
-469 -1030 0
-469 402 0
-469 1032 0
-469 1031 0
470 1030 -1031 1032 -402 0
-470 1031 0
-470 -1032 0
-470 -1030 0
-470 402 0
471 -1030 1031 1032 -402 0
-471 402 0
-471 -1032 0
-471 1030 0
-471 -1031 0
-472 -219 473 0
-472 64 473 0
472 -473 0
472 -64 219 0
473 -402 -474 0
-473 402 0
-473 474 0
474 1030 1031 -1032 0
-474 1032 0
-474 -1031 0
-474 -1030 0
475 -476 -478 0
-475 476 0
-475 478 0
476 1025 -1026 0
476 -1025 1026 -1030 0
476 -1025 1026 -477 0
-476 -1025 -1026 0
-476 1025 1026 0
-476 1026 1030 477 0
-477 1031 1032 0
477 -1031 0
477 -1032 0
-478 469 -470 0
-478 469 471 479 0
478 -469 0
478 470 -479 0
478 470 -471 0
-479 -228 473 0
-479 64 473 0
479 -473 0
479 -64 228 0
480 469 -470 -476 0
480 469 -476 -481 0
-480 -469 0
-480 476 0
-480 470 481 0
481 471 -473 0
481 -64 211 471 0
-481 -471 0
-481 -211 473 0
-481 64 473 0
482 -469 -476 0
482 -476 -483 0
-482 476 0
-482 469 483 0
483 470 -484 0
483 470 -473 0
483 470 -471 0
-483 -470 0
-483 471 473 484 0
484 -64 199 0
-484 64 0
-484 -199 0
485 -476 -486 0
-485 476 0
-485 486 0
486 469 -470 0
486 469 -487 0
486 469 -471 0
-486 -469 0
-486 470 471 487 0
-487 -190 473 0
-487 64 473 0
487 -473 0
487 -64 190 0
488 469 470 -476 489 0
-488 -469 0
-488 -489 0
-488 476 0
-488 -470 0
-489 64 471 473 0
-489 -159 471 473 0
489 -473 0
489 -471 0
489 -64 159 0
-490 1076 -491 0
-490 -491 492 0
-490 1076 492 0
490 491 -492 0
490 -1076 491 0
490 -1076 -492 0
491 465 -485 0
491 -465 485 0
-491 -465 -485 0
-491 465 485 0
-492 1077 -493 0
-492 -493 494 0
-492 1077 494 0
492 493 -494 0
492 -1077 493 0
492 -1077 -494 0
493 466 -482 0
493 -466 482 0
-493 -466 -482 0
-493 466 482 0
-494 1078 -495 0
-494 -495 496 0
-494 1078 496 0
494 495 -496 0
494 -1078 495 0
494 -1078 -496 0
495 467 -480 0
495 -467 480 0
-495 -467 -480 0
-495 467 480 0
-496 1079 498 0
-496 -497 498 0
-496 1079 -497 0
-496 1080 498 0
-496 1079 1080 0
496 -1079 -498 0
496 -1079 -1080 497 0
496 -1080 497 -498 0
497 -468 -476 0
-497 468 0
-497 476 0
-498 476 0
-498 468 478 0
-498 -468 -478 0
498 -468 -476 478 0
498 468 -476 -478 0
499 1075 -1076 0
499 1075 -500 0
-499 -1075 0
-499 1076 500 0
500 -1077 -1078 0
500 -1077 -1080 0
500 -1077 -1079 0
-500 1077 0
-500 1078 1079 1080 0
-501 502 512 521 0
-501 401 512 521 0
501 -521 0
501 -512 0
501 -401 -502 0
502 -1075 1076 -504 0
502 -1075 503 -504 0
-502 1075 0
-502 504 0
-502 -1076 -503 0
503 -1077 -1078 0
503 -1077 -1079 -1080 0
-503 1077 0
-503 1078 1080 0
-503 1078 1079 0
-504 -1033 -443 0
-504 65 505 0
-504 -1033 505 0
504 1033 -65 0
504 443 -505 0
504 1033 -505 0
505 -1126 -506 0
505 -506 511 0
505 -1126 511 0
-505 1126 -511 0
-505 506 -511 0
-505 1126 506 0
506 -1127 509 0
506 -1128 507 509 0
506 -1127 -1128 507 0
-506 1127 -509 0
-506 -507 -509 0
-506 1127 -507 0
-506 1128 -509 0
-506 1127 1128 0
-507 64 508 0
507 -64 0
507 -508 0
508 -1030 1031 1032 -402 0
508 1030 -1031 -1032 -402 0
-508 -1031 1032 0
-508 -1030 -1032 0
-508 402 0
-508 1030 1031 0
509 64 -510 0
-509 -64 0
-509 510 0
510 -1030 1031 1032 -402 0
510 1030 -1031 1032 -402 0
-510 402 0
-510 1030 1031 0
-510 -1032 0
-510 -1030 -1031 0
-511 64 473 0
511 -64 0
511 -473 0
512 1033 401 -505 513 0
-512 -1033 0
-512 -513 0
-512 505 0
-512 -401 0
513 514 -515 0
-513 -514 0
-513 515 0
514 -1075 488 0
-514 1075 0
-514 -488 0
-515 -1075 -488 517 0
-515 1075 488 516 0
-515 1075 488 517 0
-515 -1075 -488 516 0
515 1075 -488 0
515 -1075 488 0
515 -516 -517 0
-516 1076 485 0
516 -1076 0
516 -485 0
-517 1077 518 519 0
-517 482 518 519 0
-517 1077 482 518 0
517 -1077 -482 0
517 -482 -519 0
517 -518 0
517 -1077 -519 0
518 -1076 -485 0
-518 1076 0
-518 485 0
519 -1078 -480 0
519 -480 -520 0
519 -1078 -520 0
-519 1078 520 0
-519 480 520 0
-519 1078 480 0
520 -1079 -475 0
520 -1079 -1080 -497 0
520 -1080 -475 -497 0
-520 475 497 0
-520 1079 1080 0
-520 1079 475 0
-520 1080 475 0
-520 1079 497 0
-521 505 522 0
-521 -513 522 0
-521 -401 522 0
521 -522 0
521 401 -505 513 0
-522 505 0
-522 -513 0
-522 523 -524 0
522 -505 513 524 0
522 -523 -505 513 0
523 -65 401 0
-523 65 0
-523 -401 0
-524 65 401 444 0
524 -65 0
524 -444 0
524 -401 0
525 -1182 526 532 0
-525 1182 0
-525 -532 0
-525 -526 0
526 527 -528 0
-526 -527 0
-526 528 0
527 -1110 -68 0
527 46 -68 0
-527 68 0
-527 1110 -46 0
528 529 -530 0
-528 -529 0
-528 530 0
529 1104 1105 -68 0
-529 68 0
-529 -1105 0
-529 -1104 0
530 -1054 -338 531 0
-530 1054 0
-530 338 0
-530 -531 0
531 1111 1112 -46 0
-531 46 0
-531 -1112 0
-531 -1111 0
532 533 -534 0
532 1033 1034 -533 0
-532 533 534 0
-532 -1033 -533 0
-532 -1034 -533 0
533 -1054 338 0
-533 1054 0
-533 -338 0
534 535 -537 0
534 -1035 535 538 0
-534 -535 0
-534 537 -538 0
-534 1035 537 0
535 -1054 -338 -531 -536 0
-535 531 0
-535 536 0
-535 1054 0
-535 338 0
-536 -1035 -1036 0
-536 1036 1037 0
-536 -1036 -1037 0
536 1036 -1037 0
536 1035 -1036 1037 0
537 -529 -530 -536 0
-537 529 0
-537 530 0
-537 536 0
538 -527 -528 -536 0
-538 527 0
-538 528 0
-538 536 0
539 -1182 540 543 -544 0
-539 544 0
-539 1182 0
-539 -543 0
-539 -540 0
-540 1115 542 0
-540 541 542 0
-540 -1034 542 0
540 -542 0
540 1034 -1115 -541 0
541 -1054 1113 44 49 0
-541 -49 0
-541 -44 0
-541 1054 0
-541 -1113 0
-542 541 0
-542 1115 0
-542 1025 -1033 0
542 -1025 -1115 -541 0
542 1033 -1115 -541 0
-543 1054 0
-543 44 49 0
543 -1054 -44 0
543 -1054 -49 0
544 545 550 -553 0
544 -1038 545 550 0
-544 -550 0
-544 -545 0
-544 1038 553 0
-545 1115 547 0
-545 546 547 0
-545 -1034 547 0
545 -547 0
545 1034 -1115 -546 0
546 -1054 1113 49 -64 0
-546 64 0
-546 -49 0
-546 1054 0
-546 -1113 0
-547 1115 548 0
-547 546 548 0
-547 -1033 548 0
547 -548 0
547 1033 -1115 -546 0
-548 549 0
-548 1115 0
-548 -1033 -1034 0
548 1033 -1115 -549 0
548 1034 -1115 -549 0
549 -1054 1113 44 72 0
-549 -72 0
-549 -44 0
-549 1054 0
-549 -1113 0
-550 -1033 0
-550 -1034 0
-550 551 552 0
550 1033 1034 -552 0
550 1033 1034 -551 0
551 -1054 44 72 0
-551 1054 0
-551 -44 0
-551 -72 0
552 -1054 49 -64 0
-552 1054 0
-552 -49 0
-552 64 0
-553 1113 0
-553 1054 0
-553 1025 1033 0
553 -1025 -1054 -1113 0
553 -1033 -1054 -1113 0
554 -1182 540 555 0
554 -1182 540 -543 0
-554 1182 0
-554 -540 0
-554 543 -555 0
555 545 -550 0
555 -1039 545 553 0
-555 -545 0
-555 550 -553 0
-555 1039 550 0
556 -1182 540 543 557 0
-556 -543 0
-556 -557 0
-556 1182 0
-556 -540 0
557 -1040 545 550 553 0
-557 -553 0
-557 1040 0
-557 -550 0
-557 -545 0
558 -1055 -1182 0
-558 1055 0
-558 1182 0
559 -1054 -1182 0
-559 1054 0
-559 1182 0
560 -1182 -363 0
560 -1182 -561 0
560 -1182 -364 0
-560 1182 0
-560 363 364 561 0
-561 354 361 0
561 -354 0
561 -361 0
562 -1052 -1182 0
-562 1052 0
-562 1182 0
563 -1053 -1182 0
-563 1053 0
-563 1182 0
564 -1049 -1182 0
-564 1049 0
-564 1182 0
565 -1050 -1182 0
-565 1050 0
-565 1182 0
566 -1056 -1182 0
-566 1056 0
-566 1182 0
567 1056 -1107 0
567 1008 -1056 -568 0
-567 -1008 -1056 0
-567 1056 1107 0
-567 -1056 568 0
-568 1009 1010 0
568 -1009 0
568 -1010 0
569 1056 -1108 0
569 -1056 570 0
-569 -1056 -570 0
-569 1056 1108 0
-570 -1008 -1179 0
-570 1008 -1009 -1010 0
-570 1008 1009 1010 0
570 -1008 1179 0
570 1008 -1009 1010 0
570 1008 1009 -1010 0
571 1056 -1109 0
571 -1056 572 0
-571 -1056 -572 0
-571 1056 1109 0
-572 1008 1010 0
-572 -1008 1179 -1180 0
572 1008 -1010 0
572 -1008 1180 0
572 -1008 -1179 0
573 -1182 -583 0
573 -955 1182 -574 0
-573 1182 574 0
-573 -1182 583 0
-573 955 1182 0
574 -952 -953 -954 -575 0
-574 575 0
-574 952 0
-574 954 0
-574 953 0
575 939 950 951 -576 0
-575 576 0
-575 -951 0
-575 -939 0
-575 -950 0
576 928 929 938 -577 0
-576 577 0
-576 -938 0
-576 -928 0
-576 -929 0
577 871 872 873 -578 0
577 -871 872 873 578 0
-577 -872 0
-577 871 578 0
-577 -873 0
-577 -871 -578 0
-578 907 579 0
-578 907 -974 0
-578 906 907 0
578 -907 0
578 -906 974 -579 0
-579 -883 580 0
-579 -883 975 0
-579 975 580 0
579 -975 -580 0
579 883 -580 0
579 883 -975 0
-580 -884 581 0
-580 -884 976 0
-580 976 581 0
580 -976 -581 0
580 884 -581 0
580 884 -976 0
-581 -885 582 0
-581 -885 977 0
-581 977 582 0
581 -977 -582 0
581 885 -582 0
581 885 -977 0
-582 -886 -887 0
-582 -887 978 0
-582 -886 978 0
-582 978 979 0
-582 -886 979 0
582 886 -978 0
582 887 -978 -979 0
582 886 887 -979 0
583 -871 -1181 -584 -868 0
583 871 -1181 -584 868 0
-583 1181 0
-583 871 -868 0
-583 584 0
-583 -871 868 0
584 1179 -585 610 623 0
584 -1179 585 610 623 0
-584 -623 0
-584 1179 585 0
-584 -610 0
-584 -1179 -585 0
585 -4 -586 609 0
585 -4 586 589 0
-585 4 0
-585 -586 -609 0
-585 586 -589 0
586 -1021 1023 587 0
-586 1021 0
-586 -587 0
-586 -1023 0
587 -1022 -360 588 0
587 -1022 -1075 -360 0
-587 1022 0
-587 360 0
-587 1075 -588 0
588 -1076 -500 0
-588 1076 0
-588 500 0
589 590 -593 0
589 930 -590 0
589 -1160 -590 0
-589 590 593 0
-589 -930 1160 -590 0
590 1021 -1023 591 0
-590 -1021 0
-590 1023 0
-590 -591 0
591 -1024 1075 -357 0
591 -1024 -357 -592 0
-591 1024 0
-591 357 0
-591 -1075 592 0
-592 1076 1077 0
592 -1076 0
592 -1077 0
593 -1161 -594 0
593 594 -597 0
-593 1161 -594 0
-593 594 597 0
594 595 -596 0
-594 -595 0
-594 596 0
595 -1023 -591 0
-595 1023 0
-595 591 0
596 -1021 -1023 587 0
-596 1021 0
-596 1023 0
-596 -587 0
597 598 -599 0
597 -930 -598 0
597 -1162 -598 0
-597 598 599 0
-597 930 1162 -598 0
598 -1021 1023 -587 0
-598 1021 0
-598 -1023 0
-598 587 0
-599 600 0
599 -600 0
600 601 -602 0
600 930 -601 0
600 -1166 -601 0
-600 601 602 0
-600 -930 1166 -601 0
601 1021 -1023 -591 0
-601 591 0
-601 1023 0
-601 -1021 0
-602 603 0
602 -603 0
603 604 -605 0
603 -604 -608 0
-603 -604 608 0
-603 604 605 0
604 -595 -596 0
-604 595 0
-604 596 0
605 -606 -607 0
605 -1177 606 0
-605 -606 607 0
-605 1177 606 0
606 -1021 -1023 595 -587 0
-606 587 0
-606 1021 0
-606 1023 0
-606 -595 0
607 930 -1174 0
607 -930 -1176 0
-607 -930 1176 0
-607 930 1174 0
608 -930 -1171 0
608 930 -1173 0
-608 930 1173 0
-608 -930 1171 0
-609 930 1159 0
609 -930 0
609 -1159 0
-610 -1180 -611 0
-610 1180 611 0
610 1180 -611 0
610 -1180 611 0
611 -4 -612 0
-611 4 0
-611 612 0
612 586 -613 0
612 930 1159 -586 0
-612 586 613 0
-612 -930 -586 0
-612 -1159 -586 0
613 590 -614 0
613 -930 1160 -590 0
-613 590 614 0
-613 930 -590 0
-613 -1160 -590 0
614 1161 -594 0
614 594 -615 0
-614 -1161 -594 0
-614 594 615 0
615 598 -616 0
615 930 -1163 -598 0
-615 598 616 0
-615 -930 -598 0
-615 1163 -598 0
-616 617 0
616 -617 0
617 601 -618 0
617 -930 -1167 -601 0
-617 601 618 0
-617 1167 -601 0
-617 930 -601 0
-618 619 0
618 -619 0
619 604 -620 0
619 -604 622 0
-619 -604 -622 0
-619 604 620 0
620 -606 -621 0
620 -1178 606 0
-620 -606 621 0
-620 1178 606 0
621 930 -1175 0
621 -930 1176 0
-621 -930 -1176 0
-621 930 1175 0
-622 -930 -1172 0
-622 930 1173 0
622 -930 1172 0
622 930 -1173 0
-623 874 624 625 627 0
-623 -874 -624 625 627 0
623 -627 0
623 -874 624 0
623 -625 0
623 874 -624 0
624 -882 -1025 0
624 882 -1041 0
-624 882 1041 0
-624 -882 1025 0
-625 -875 -626 0
-625 875 626 0
625 875 -626 0
625 -875 626 0
626 -882 -1026 0
626 882 -1042 0
-626 882 1042 0
-626 -882 1026 0
-627 876 628 629 631 0
-627 -876 -628 629 631 0
627 -631 0
627 -876 628 0
627 -629 0
627 876 -628 0
628 -882 -1027 0
628 882 -1043 0
-628 882 1043 0
-628 -882 1027 0
-629 -877 -630 0
-629 877 630 0
629 877 -630 0
629 -877 630 0
630 -882 -1028 0
630 882 -1044 0
-630 882 1044 0
-630 -882 1028 0
-631 878 632 633 635 0
-631 -878 -632 633 635 0
631 -635 0
631 -878 632 0
631 -633 0
631 878 -632 0
632 -882 -1029 0
632 882 -1045 0
-632 882 1045 0
-632 -882 1029 0
-633 -879 -634 0
-633 879 634 0
633 879 -634 0
633 -879 634 0
634 -882 -1030 0
634 882 -1046 0
-634 882 1046 0
-634 -882 1030 0
-635 880 636 637 639 0
-635 -880 -636 637 639 0
635 -639 0
635 -880 636 0
635 -637 0
635 880 -636 0
636 -882 -1031 0
636 882 -1047 0
-636 882 1047 0
-636 -882 1031 0
-637 -881 -638 0
-637 881 638 0
637 881 -638 0
637 -881 638 0
638 -882 -1032 0
638 882 -1048 0
-638 882 1048 0
-638 -882 1032 0
-639 918 640 641 643 0
-639 -918 -640 641 643 0
639 -643 0
639 -918 640 0
639 -641 0
639 918 -640 0
640 -882 -1085 0
640 882 -1093 0
-640 882 1093 0
-640 -882 1085 0
-641 -919 -642 0
-641 919 642 0
641 919 -642 0
641 -919 642 0
642 -882 -1093 0
642 882 -1094 0
-642 882 1094 0
-642 -882 1093 0
-643 920 644 645 647 0
-643 -920 -644 645 647 0
643 -647 0
643 -920 644 0
643 -645 0
643 920 -644 0
644 -882 -1094 0
644 882 -1095 0
-644 882 1095 0
-644 -882 1094 0
-645 -921 -646 0
-645 921 646 0
645 921 -646 0
645 -921 646 0
646 -882 -1095 0
646 882 -1096 0
-646 882 1096 0
-646 -882 1095 0
-647 922 648 649 651 0
-647 -922 -648 649 651 0
647 -651 0
647 -922 648 0
647 -649 0
647 922 -648 0
648 -882 -1096 0
648 882 -1097 0
-648 882 1097 0
-648 -882 1096 0
-649 -923 -650 0
-649 923 650 0
649 923 -650 0
649 -923 650 0
650 -882 -1097 0
650 882 -1098 0
-650 882 1098 0
-650 -882 1097 0
-651 924 652 653 655 0
-651 -924 -652 653 655 0
651 -655 0
651 -924 652 0
651 -653 0
651 924 -652 0
652 -882 -1098 0
652 882 -1099 0
-652 882 1099 0
-652 -882 1098 0
-653 -925 -654 0
-653 925 654 0
653 925 -654 0
653 -925 654 0
654 -882 -1099 0
654 882 -1100 0
-654 882 1100 0
-654 -882 1099 0
-655 926 656 657 659 0
-655 -926 -656 657 659 0
655 -659 0
655 -926 656 0
655 -657 0
655 926 -656 0
656 -882 -1100 0
656 882 -1101 0
-656 882 1101 0
-656 -882 1100 0
-657 -927 -658 0
-657 927 658 0
657 927 -658 0
657 -927 658 0
658 -882 -1101 0
658 882 -1102 0
-658 882 1102 0
-658 -882 1101 0
-659 938 660 662 663 0
-659 -938 660 -662 663 0
659 -663 0
659 -938 662 0
659 -660 0
659 938 -662 0
-660 -937 -661 0
-660 937 661 0
660 937 -661 0
660 -937 661 0
661 -882 -1110 0
661 882 -1116 0
-661 882 1116 0
-661 -882 1110 0
662 -882 -1104 0
662 882 -1117 0
-662 882 1117 0
-662 -882 1104 0
-663 939 664 665 667 0
-663 -939 -664 665 667 0
663 -667 0
663 -939 664 0
663 -665 0
663 939 -664 0
664 -882 -1105 0
664 882 -1118 0
-664 882 1118 0
-664 -882 1105 0
-665 -940 -666 0
-665 940 666 0
665 940 -666 0
665 -940 666 0
666 -882 -1106 0
666 882 -1119 0
-666 882 1119 0
-666 -882 1106 0
-667 941 668 669 671 0
-667 -941 -668 669 671 0
667 -671 0
667 -941 668 0
667 -669 0
667 941 -668 0
668 -882 -1107 0
668 882 -1120 0
-668 882 1120 0
-668 -882 1107 0
-669 -942 -670 0
-669 942 670 0
669 942 -670 0
669 -942 670 0
670 -882 -1108 0
670 882 -1121 0
-670 882 1121 0
-670 -882 1108 0
-671 943 672 673 675 0
-671 -943 -672 673 675 0
671 -675 0
671 -943 672 0
671 -673 0
671 943 -672 0
672 -882 -1109 0
672 882 -1122 0
-672 882 1122 0
-672 -882 1109 0
-673 -934 -674 0
-673 934 674 0
673 934 -674 0
673 -934 674 0
674 1056 -1113 0
674 930 -1056 -1106 0
674 -930 -1056 1106 0
-674 1056 1113 0
-674 930 -1056 1106 0
-674 -930 -1056 -1106 0
-675 944 676 677 679 0
-675 -944 -676 677 679 0
675 -679 0
675 -944 676 0
675 -677 0
675 944 -676 0
676 882 -1123 0
676 -882 450 0
-676 -882 -450 0
-676 882 1123 0
-677 -945 -678 0
-677 945 678 0
677 945 -678 0
677 -945 678 0
678 882 -1124 0
678 -882 -448 0
-678 -882 448 0
-678 882 1124 0
-679 946 680 681 683 0
-679 -946 -680 681 683 0
679 -683 0
679 -946 680 0
679 -681 0
679 946 -680 0
680 882 -1125 0
680 -882 446 0
-680 -882 -446 0
-680 882 1125 0
-681 -947 -682 0
-681 947 682 0
681 947 -682 0
681 -947 682 0
682 882 -1126 0
682 -882 -511 0
-682 -882 511 0
-682 882 1126 0
-683 948 684 685 687 0
-683 -948 -684 685 687 0
683 -687 0
683 -948 684 0
683 -685 0
683 948 -684 0
684 882 -1127 0
684 -882 -509 0
-684 -882 509 0
-684 882 1127 0
-685 -949 -686 0
-685 949 686 0
685 949 -686 0
685 -949 686 0
686 882 -1128 0
686 -882 -507 0
-686 -882 507 0
-686 882 1128 0
-687 950 688 689 691 0
-687 -950 -688 689 691 0
687 -691 0
687 -950 688 0
687 -689 0
687 950 -688 0
688 882 -1129 0
688 -882 -158 0
-688 -882 158 0
-688 882 1129 0
-689 -951 -690 0
-689 951 690 0
689 951 -690 0
689 -951 690 0
690 882 -1130 0
690 -882 -189 0
-690 -882 189 0
-690 882 1130 0
-691 952 692 693 695 0
-691 -952 -692 693 695 0
691 -695 0
691 -952 692 0
691 -693 0
691 952 -692 0
692 882 -1131 0
692 -882 -198 0
-692 -882 198 0
-692 882 1131 0
-693 -953 -694 0
-693 953 694 0
693 953 -694 0
693 -953 694 0
694 882 -1132 0
694 -882 -210 0
-694 -882 210 0
-694 882 1132 0
-695 954 696 697 699 0
-695 -954 -696 697 699 0
695 -699 0
695 -954 696 0
695 -697 0
695 954 -696 0
696 882 -1133 0
696 -882 -227 0
-696 -882 227 0
-696 882 1133 0
-697 -955 -698 0
-697 955 698 0
697 955 -698 0
697 -955 698 0
698 882 -1134 0
698 -882 1025 -219 0
-698 -882 -1025 0
-698 882 1134 0
-698 -882 219 0
-699 956 700 701 703 0
-699 -956 -700 701 703 0
699 -703 0
699 -956 700 0
699 -701 0
699 956 -700 0
700 882 -1135 0
700 -882 -110 0
-700 -882 110 0
-700 882 1135 0
-701 -957 -702 0
-701 957 702 0
701 957 -702 0
701 -957 702 0
702 882 -1136 0
702 -882 -115 0
-702 -882 115 0
-702 882 1136 0
-703 958 704 705 707 0
-703 -958 -704 705 707 0
703 -707 0
703 -958 704 0
703 -705 0
703 958 -704 0
704 882 -1137 0
704 -882 -120 0
-704 -882 120 0
-704 882 1137 0
-705 -959 -706 0
-705 959 706 0
705 959 -706 0
705 -959 706 0
706 882 -1138 0
706 -882 -125 0
-706 -882 125 0
-706 882 1138 0
-707 960 708 709 711 0
-707 -960 -708 709 711 0
707 -711 0
707 -960 708 0
707 -709 0
707 960 -708 0
708 882 -1139 0
708 -882 -131 0
-708 -882 131 0
-708 882 1139 0
-709 -961 -710 0
-709 961 710 0
709 961 -710 0
709 -961 710 0
710 882 -1140 0
710 -882 -137 0
-710 -882 137 0
-710 882 1140 0
-711 962 712 713 715 0
-711 -962 -712 713 715 0
711 -715 0
711 -962 712 0
711 -713 0
711 962 -712 0
712 -882 -1075 0
712 882 -1141 0
-712 882 1141 0
-712 -882 1075 0
-713 -963 -714 0
-713 963 714 0
713 963 -714 0
713 -963 714 0
714 -882 -1076 0
714 882 -1142 0
-714 882 1142 0
-714 -882 1076 0
-715 964 716 717 719 0
-715 -964 -716 717 719 0
715 -719 0
715 -964 716 0
715 -717 0
715 964 -716 0
716 -882 -1077 0
716 882 -1143 0
-716 882 1143 0
-716 -882 1077 0
-717 -965 -718 0
-717 965 718 0
717 965 -718 0
717 -965 718 0
718 -882 -1078 0
718 882 -1144 0
-718 882 1144 0
-718 -882 1078 0
-719 966 720 721 723 0
-719 -966 -720 721 723 0
719 -723 0
719 -966 720 0
719 -721 0
719 966 -720 0
720 -882 -1079 0
720 882 -1145 0
-720 882 1145 0
-720 -882 1079 0
-721 -967 -722 0
-721 967 722 0
721 967 -722 0
721 -967 722 0
722 -882 -1080 0
722 882 -1146 0
-722 882 1146 0
-722 -882 1080 0
-723 968 724 725 727 0
-723 -968 -724 725 727 0
723 -727 0
723 -968 724 0
723 -725 0
723 968 -724 0
724 882 -1147 0
724 -882 -1153 0
-724 -882 1153 0
-724 882 1147 0
-725 -969 -726 0
-725 969 726 0
725 969 -726 0
725 -969 726 0
726 882 -1148 0
726 -882 -1154 0
-726 -882 1154 0
-726 882 1148 0
-727 970 728 729 731 0
-727 -970 -728 729 731 0
727 -731 0
727 -970 728 0
727 -729 0
727 970 -728 0
728 882 -1149 0
728 -882 -1155 0
-728 -882 1155 0
-728 882 1149 0
-729 -971 -730 0
-729 971 730 0
729 971 -730 0
729 -971 730 0
730 882 -1150 0
730 -882 -1156 0
-730 -882 1156 0
-730 882 1150 0
-731 -972 -732 733 0
-731 972 732 733 0
731 -733 0
731 -972 732 0
731 972 -732 0
732 882 -1151 0
732 -882 -1157 0
-732 -882 1157 0
-732 882 1151 0
-733 973 734 735 738 0
-733 -973 -734 735 738 0
733 -735 0
733 973 -734 0
733 -738 0
733 -973 734 0
734 882 -1152 0
734 -882 -1158 0
-734 -882 1158 0
-734 882 1152 0
735 -1049 -1057 0
735 -1049 -736 0
735 -1049 -1103 0
-735 1049 0
-735 1057 1103 736 0
-736 1054 1055 1056 737 0
736 -737 0
736 -1056 0
736 -1054 0
736 -1055 0
-737 1050 1051 1052 1053 0
737 -1053 0
737 -1052 0
737 -1050 0
737 -1051 0
-738 1050 739 0
-738 1051 1052 739 0
738 -739 0
738 -1050 -1052 0
738 -1050 -1051 0
-739 1050 740 0
-739 1053 1054 740 0
739 -740 0
739 -1050 -1054 0
739 -1050 -1053 0
-740 1050 741 0
-740 1055 1056 741 0
740 -741 0
740 -1050 -1056 0
740 -1050 -1055 0
-741 1050 742 0
-741 1057 1103 742 0
741 -742 0
741 -1050 -1103 0
741 -1050 -1057 0
-742 1051 743 0
-742 1052 1053 743 0
742 -743 0
742 -1051 -1053 0
742 -1051 -1052 0
-743 1051 744 0
-743 1054 1055 744 0
743 -744 0
743 -1051 -1055 0
743 -1051 -1054 0
-744 1051 745 0
-744 1056 1103 745 0
744 -745 0
744 -1051 -1103 0
744 -1051 -1056 0
-745 1052 746 0
-745 1053 1054 746 0
745 -746 0
745 -1052 -1054 0
745 -1052 -1053 0
-746 1052 747 0
-746 1055 1056 747 0
746 -747 0
746 -1052 -1056 0
746 -1052 -1055 0
-747 1052 748 0
-747 1057 1103 748 0
747 -748 0
747 -1052 -1103 0
747 -1052 -1057 0
-748 1053 749 0
-748 1054 1055 749 0
748 -749 0
748 -1053 -1055 0
748 -1053 -1054 0
-749 1053 750 0
-749 1056 1057 750 0
749 -750 0
749 -1053 -1057 0
749 -1053 -1056 0
-750 1103 751 0
-750 1053 751 0
750 -751 0
750 -1053 -1103 0
-751 1054 752 0
-751 1055 1056 752 0
751 -752 0
751 -1054 -1056 0
751 -1054 -1055 0
-752 1054 753 0
-752 1057 1103 753 0
752 -753 0
752 -1054 -1103 0
752 -1054 -1057 0
-753 1055 754 0
-753 1056 1057 754 0
753 -754 0
753 -1055 -1057 0
753 -1055 -1056 0
-754 1103 755 0
-754 1055 755 0
754 -755 0
754 -1055 -1103 0
-755 1056 1057 756 0
-755 1057 1103 756 0
-755 1056 1103 756 0
755 -1056 -1057 0
755 -1057 -1103 0
755 -756 0
755 -1056 -1103 0
-756 757 760 0
-756 -979 -1158 760 0
-756 979 1158 760 0
756 -760 0
756 979 -1158 -757 0
756 -979 1158 -757 0
-757 1052 1053 1054 758 0
757 -758 0
757 -1054 0
757 -1052 0
757 -1053 0
-758 1050 1055 1056 759 0
758 -759 0
758 -1056 0
758 -1050 0
758 -1055 0
-759 1049 1103 0
759 -1049 0
759 -1103 0
-760 757 761 0
-760 -978 -1157 761 0
-760 978 1157 761 0
760 -761 0
760 978 -1157 -757 0
760 -978 1157 -757 0
-761 757 762 0
-761 -977 -1156 762 0
-761 977 1156 762 0
761 -762 0
761 977 -1156 -757 0
761 -977 1156 -757 0
-762 757 763 0
-762 -976 -1155 763 0
-762 976 1155 763 0
762 -763 0
762 976 -1155 -757 0
762 -976 1155 -757 0
-763 757 764 0
-763 -975 -1154 764 0
-763 975 1154 764 0
763 -764 0
763 975 -1154 -757 0
763 -975 1154 -757 0
-764 757 765 0
-764 -974 -1153 765 0
-764 974 1153 765 0
764 -765 0
764 974 -1153 -757 0
764 -974 1153 -757 0
-765 757 766 0
-765 -883 -1058 766 0
-765 883 1058 766 0
765 -766 0
765 883 -1058 -757 0
765 -883 1058 -757 0
-766 757 767 0
-766 -884 -1059 767 0
-766 884 1059 767 0
766 -767 0
766 884 -1059 -757 0
766 -884 1059 -757 0
-767 757 768 0
-767 -885 -1060 768 0
-767 885 1060 768 0
767 -768 0
767 885 -1060 -757 0
767 -885 1060 -757 0
-768 757 769 0
-768 -886 -1061 769 0
-768 886 1061 769 0
768 -769 0
768 886 -1061 -757 0
768 -886 1061 -757 0
-769 757 770 0
-769 -887 -1062 770 0
-769 887 1062 770 0
769 -770 0
769 887 -1062 -757 0
769 -887 1062 -757 0
-770 757 771 0
-770 -888 -1063 771 0
-770 888 1063 771 0
770 -771 0
770 888 -1063 -757 0
770 -888 1063 -757 0
-771 757 772 0
-771 -889 -1064 772 0
-771 889 1064 772 0
771 -772 0
771 889 -1064 -757 0
771 -889 1064 -757 0
-772 757 773 0
-772 -890 -1065 773 0
-772 890 1065 773 0
772 -773 0
772 890 -1065 -757 0
772 -890 1065 -757 0
-773 757 774 0
-773 -891 -1066 774 0
-773 891 1066 774 0
773 -774 0
773 891 -1066 -757 0
773 -891 1066 -757 0
-774 757 775 0
-774 -892 -1067 775 0
-774 892 1067 775 0
774 -775 0
774 892 -1067 -757 0
774 -892 1067 -757 0
-775 757 776 0
-775 -893 -1068 776 0
-775 893 1068 776 0
775 -776 0
775 893 -1068 -757 0
775 -893 1068 -757 0
-776 757 777 0
-776 -894 -1069 777 0
-776 894 1069 777 0
776 -777 0
776 894 -1069 -757 0
776 -894 1069 -757 0
-777 757 778 0
-777 -895 -1070 778 0
-777 895 1070 778 0
777 -778 0
777 895 -1070 -757 0
777 -895 1070 -757 0
-778 757 779 0
-778 -896 -1071 779 0
-778 896 1071 779 0
778 -779 0
778 896 -1071 -757 0
778 -896 1071 -757 0
-779 757 780 0
-779 -897 -1072 780 0
-779 897 1072 780 0
779 -780 0
779 897 -1072 -757 0
779 -897 1072 -757 0
-780 757 781 0
-780 -898 -1073 781 0
-780 898 1073 781 0
780 -781 0
780 898 -1073 -757 0
780 -898 1073 -757 0
-781 757 782 0
-781 -899 -1074 782 0
-781 899 1074 782 0
781 -782 0
781 899 -1074 -757 0
781 -899 1074 -757 0
-782 757 783 0
-782 -900 -1075 783 0
-782 900 1075 783 0
782 -783 0
782 900 -1075 -757 0
782 -900 1075 -757 0
-783 757 784 0
-783 -901 -1076 784 0
-783 901 1076 784 0
783 -784 0
783 901 -1076 -757 0
783 -901 1076 -757 0
-784 757 785 0
-784 -902 -1077 785 0
-784 902 1077 785 0
784 -785 0
784 902 -1077 -757 0
784 -902 1077 -757 0
-785 757 786 0
-785 -903 -1078 786 0
-785 903 1078 786 0
785 -786 0
785 903 -1078 -757 0
785 -903 1078 -757 0
-786 757 787 0
-786 -904 -1079 787 0
-786 904 1079 787 0
786 -787 0
786 904 -1079 -757 0
786 -904 1079 -757 0
-787 757 788 0
-787 -905 -1080 788 0
-787 905 1080 788 0
787 -788 0
787 905 -1080 -757 0
787 -905 1080 -757 0
-788 757 789 0
-788 906 907 789 0
788 -789 0
788 -907 -757 0
788 -906 -757 0
-789 908 790 791 0
-789 757 790 791 0
789 -791 0
789 -790 0
789 -908 -757 0
790 909 -1084 -757 0
790 -909 1084 -757 0
-790 757 0
-790 909 1084 0
-790 -909 -1084 0
-791 757 792 0
-791 -910 -1085 792 0
-791 910 1085 792 0
791 -792 0
791 910 -1085 -757 0
791 -910 1085 -757 0
-792 911 793 810 0
-792 757 793 810 0
792 -810 0
792 -793 0
792 -911 -757 0
793 -795 804 0
793 912 -794 804 0
793 -912 794 804 0
-793 -804 0
-793 912 794 795 0
-793 -912 -794 795 0
794 -1087 -757 0
-794 1087 0
-794 757 0
795 798 -800 0
795 -796 802 0
-795 796 800 0
-795 -798 -802 0
-795 796 -798 0
-795 800 -802 0
-796 -914 -797 0
-796 914 797 0
796 914 -797 0
796 -914 797 0
797 -1089 -757 0
-797 1089 0
-797 757 0
798 913 -799 0
798 -913 799 0
-798 -913 -799 0
-798 913 799 0
799 1088 -757 0
-799 -1088 0
-799 757 0
-800 -913 -801 0
-800 913 801 0
800 913 -801 0
800 -913 801 0
801 -1088 -757 0
-801 1088 0
-801 757 0
802 914 -803 0
802 -914 803 0
-802 -914 -803 0
-802 914 803 0
803 1089 -757 0
-803 -1089 0
-803 757 0
-804 -796 808 0
-804 805 808 809 0
804 -808 0
804 796 -809 0
804 796 -805 0
805 800 -806 0
-805 -800 0
-805 806 0
806 912 -807 0
806 -912 807 0
-806 -912 -807 0
-806 912 807 0
807 1087 -757 0
-807 -1087 0
-807 757 0
808 800 -802 -806 0
-808 -800 0
-808 802 0
-808 806 0
809 -798 -806 0
-809 798 0
-809 806 0
-810 822 830 0
-810 -811 -813 830 0
810 -830 0
810 813 -822 0
810 811 -822 0
811 915 -812 0
811 -915 812 0
-811 -915 -812 0
-811 915 812 0
812 1090 -757 0
-812 -1090 0
-812 757 0
-813 -816 818 0
-813 814 -820 0
-813 814 818 0
813 -814 816 0
813 -818 820 0
813 -814 -818 0
814 916 -815 0
814 -916 815 0
-814 -916 -815 0
-814 916 815 0
815 1091 -757 0
-815 -1091 0
-815 757 0
-816 -917 -817 0
-816 917 817 0
816 917 -817 0
816 -917 817 0
817 -1092 -757 0
-817 1092 0
-817 757 0
818 917 -819 0
818 -917 819 0
-818 -917 -819 0
-818 917 819 0
819 1092 -757 0
-819 -1092 0
-819 757 0
-820 -916 -821 0
-820 916 821 0
820 916 -821 0
820 -916 821 0
821 -1091 -757 0
-821 1091 0
-821 757 0
822 -823 826 827 0
822 -820 826 827 0
-822 -827 0
-822 -826 0
-822 820 823 0
-823 816 824 0
823 -816 0
823 -824 0
-824 -915 -825 0
-824 915 825 0
824 915 -825 0
824 -915 825 0
825 -1090 -757 0
-825 1090 0
-825 757 0
826 -818 820 824 0
-826 818 0
-826 -820 0
-826 -824 0
-827 814 828 829 0
-827 -823 828 829 0
827 -829 0
827 -828 0
827 -814 823 0
828 -814 -818 824 0
-828 814 0
-828 818 0
-828 -824 0
829 -811 816 820 0
-829 811 0
-829 -816 0
-829 -820 0
-830 833 838 0
-830 831 836 838 0
830 -838 0
830 -833 -836 0
830 -831 -833 0
-831 -929 -832 0
-831 929 832 0
831 929 -832 0
831 -929 832 0
832 1056 -1105 0
-832 -1056 0
-832 1105 0
-833 -1056 834 0
-833 929 1105 834 0
-833 -929 -1105 834 0
833 -834 0
833 929 1056 -1105 0
833 -929 1056 1105 0
-834 -928 -835 0
-834 928 835 0
834 928 -835 0
834 -928 835 0
835 1056 -1104 0
-835 -1056 0
-835 1104 0
-836 928 837 0
-836 -928 -837 0
836 -928 837 0
836 928 -837 0
-837 1056 1104 0
837 -1056 0
837 -1104 0
-838 -1056 839 0
-838 930 1106 839 0
-838 -930 -1106 839 0
838 -839 0
838 930 1056 -1106 0
838 -930 1056 1106 0
-839 840 847 854 855 0
839 -855 0
839 -854 0
839 -840 0
839 -847 0
840 -841 -844 0
840 932 -843 -844 0
840 -932 843 -844 0
-840 844 0
-840 932 841 843 0
-840 -932 841 -843 0
-841 -933 -842 0
-841 933 842 0
841 933 -842 0
841 -933 842 0
842 1056 -1112 0
-842 -1056 0
-842 1112 0
-843 1056 1111 0
843 -1056 0
843 -1111 0
844 -845 0
844 933 1056 -1112 0
844 -933 1056 1112 0
-844 -1056 845 0
-844 933 1112 845 0
-844 -933 -1112 845 0
-845 -932 -846 0
-845 932 846 0
845 932 -846 0
845 -932 846 0
846 1056 -1111 0
-846 -1056 0
-846 1111 0
847 -848 -850 0
847 -936 -850 853 0
847 936 -850 -853 0
-847 850 0
-847 936 848 853 0
-847 -936 848 -853 0
-848 -935 -849 0
-848 935 849 0
848 935 -849 0
848 -935 849 0
849 1056 -1114 0
-849 -1056 0
-849 1114 0
-850 -1056 851 0
-850 935 1114 851 0
-850 -935 -1114 851 0
850 -851 0
850 935 1056 -1114 0
850 -935 1056 1114 0
-851 -936 -852 0
-851 936 852 0
851 936 -852 0
851 -936 852 0
852 1056 -1115 0
-852 -1056 0
-852 1115 0
-853 1056 1115 0
853 -1056 0
853 -1115 0
854 -931 1056 1110 0
854 931 1056 -1110 0
-854 -1056 0
-854 -931 -1110 0
-854 931 1110 0
-855 757 865 0
-855 882 856 0
-855 757 856 0
-855 882 865 0
855 -856 -865 0
855 -882 -757 0
-856 -872 873 857 -862 0
-856 -872 -873 -857 -862 0
-856 872 873 857 862 0
-856 872 -873 -857 862 0
856 872 -862 0
856 -872 862 0
856 -873 857 0
856 873 -857 0
857 526 -858 0
857 526 -860 0
-857 -526 0
-857 858 860 0
858 -1033 -859 0
-858 1033 0
-858 859 0
859 -1034 -533 0
-859 1034 0
-859 533 0
-860 533 861 0
-860 1033 -1034 -533 0
860 533 -861 0
860 -1033 -533 0
860 1034 -533 0
861 535 537 -538 0
861 -1037 535 537 0
-861 -537 0
-861 -535 0
-861 1037 538 0
862 526 858 -863 0
-862 863 0
-862 -858 0
-862 -526 0
863 533 -864 0
863 1033 -1034 -533 0
-863 533 864 0
-863 -1033 -533 0
-863 1034 -533 0
864 535 -538 0
864 -1036 535 0
864 535 -537 0
-864 -535 0
-864 1036 537 538 0
-865 -872 873 866 -867 0
-865 -872 -873 -866 -867 0
-865 872 873 866 867 0
-865 872 -873 -866 867 0
865 872 -867 0
865 -872 867 0
865 -873 866 0
865 873 -866 0
866 526 858 -860 0
-866 -526 0
-866 860 0
-866 -858 0
867 526 -858 0
867 526 -863 0
-867 -526 0
-867 858 863 0
868 -1021 1049 0
868 1021 -1049 -870 0
868 -1021 869 0
-868 1021 870 0
-868 -1021 -1049 -869 0
-868 1021 1049 0
869 -1082 -338 0
869 -338 -344 0
-869 338 0
-869 1082 344 0
870 1021 1082 -338 344 0
-870 -1021 0
-870 -344 0
-870 338 0
-870 -1082 0
-1183 0
2 0
39 0
78 0
154 0
156 0
236 0
237 0
265 0
-315 0
-318 0
321 0
-323 0
-325 0
327 0
328 0
871 0
-335 0
-346 0
-351 0
-353 0
-365 0
367 0
379 0
381 0
383 0
393 0
395 0
398 0
460 0
-525 0
872 0
873 0
539 0
-554 0
-556 0
874 0
875 0
876 0
877 0
878 0
879 0
880 0
881 0
882 0
558 0
559 0
560 0
562 0
563 0
564 0
565 0
559 0
883 0
884 0
885 0
886 0
887 0
888 0
889 0
890 0
891 0
892 0
893 0
894 0
895 0
896 0
897 0
898 0
899 0
900 0
901 0
902 0
903 0
904 0
905 0
906 0
907 0
908 0
909 0
910 0
911 0
912 0
913 0
914 0
915 0
916 0
917 0
918 0
919 0
920 0
921 0
922 0
923 0
924 0
925 0
926 0
927 0
566 0
928 0
929 0
930 0
567 0
569 0
571 0
931 0
932 0
933 0
934 0
935 0
936 0
937 0
938 0
939 0
940 0
941 0
942 0
943 0
944 0
945 0
946 0
947 0
948 0
949 0
950 0
951 0
952 0
953 0
954 0
955 0
956 0
957 0
958 0
959 0
960 0
961 0
962 0
963 0
964 0
965 0
966 0
967 0
968 0
969 0
970 0
971 0
972 0
973 0
974 0
975 0
976 0
977 0
978 0
979 0
980 0
981 0
984 0
985 0
986 0
987 0
988 0
991 0
992 0
997 0
998 0
999 0
1000 0
1001 0
1002 0
1003 0
1004 0
1005 0
1006 0
1007 0
1011 0
1012 0
573 0
-1183 0

