c Result of efficient AIG-to-CNF conversion using package CNF
p cnf 1162 3996
2 -1160 -18 0
2 -1160 -3 -14 0
-2 1160 0
-2 3 18 0
-2 14 18 0
3 -994 -1034 -4 -5 0
-3 1034 0
-3 5 0
-3 994 0
-3 4 0
-4 1000 1002 0
4 -1000 0
4 -1002 0
-5 -1064 9 11 0
-5 1064 6 9 0
5 -9 0
5 1064 -6 0
5 -1064 -11 0
6 1042 -1043 -8 0
6 1042 -7 -8 0
-6 -1042 0
-6 8 0
-6 1043 7 0
-7 1044 1045 0
-7 1044 1046 1047 0
7 -1044 0
7 -1045 -1046 0
7 -1045 -1047 0
8 992 -993 0
-8 -992 0
-8 993 0
9 -992 993 -1042 0
9 -992 993 10 0
-9 992 0
-9 -993 0
-9 1042 -10 0
10 -1043 -1044 0
10 -1043 -1045 0
-10 1043 0
-10 1044 1045 0
11 992 -993 -12 0
-11 12 0
-11 993 0
-11 -992 0
12 1048 -13 0
12 1048 -1050 0
12 1048 -1049 0
-12 -1048 0
-12 1049 1050 13 0
13 -1051 -1052 0
13 -1051 -1053 0
-13 1051 0
-13 1052 1053 0
14 -1034 1063 -4 -15 0
-14 15 0
-14 4 0
-14 1034 0
-14 -1063 0
15 -992 994 -16 0
-15 992 0
-15 16 0
-15 -994 0
-16 993 17 0
-16 993 -1064 12 0
16 -993 0
16 1064 -17 0
16 -12 -17 0
17 1042 -1043 -7 0
-17 -1042 0
-17 1043 0
-17 7 0
-18 19 25 0
-18 14 24 25 0
18 -25 0
18 -19 -24 0
18 -14 -19 0
19 -1034 -4 20 0
-19 1034 0
-19 -20 0
-19 4 0
20 -22 23 0
20 -1064 21 0
20 -1064 -22 0
-20 -21 22 0
-20 1064 -23 0
-20 1064 22 0
21 1048 -1051 0
21 1048 -1050 0
21 1048 -1049 0
-21 -1048 0
-21 1049 1050 1051 0
-22 992 994 0
-22 992 993 0
22 -992 0
22 -993 -994 0
23 -992 993 994 12 0
-23 -12 0
-23 -994 0
-23 992 0
-23 -993 0
24 1063 -3 0
-24 -1063 0
-24 3 0
-25 26 34 0
-25 14 24 34 0
25 -34 0
25 -24 -26 0
25 -14 -26 0
26 -1034 29 0
26 -1034 27 -28 0
-26 1034 0
-26 -27 -29 0
-26 28 -29 0
27 -1069 1070 -1071 0
-27 1069 0
-27 -1070 0
-27 1071 0
28 -1063 -1065 0
-28 1063 0
-28 1065 0
29 -1063 0
29 1064 -30 0
29 -30 33 0
-29 1063 30 0
-29 1063 -1064 -33 0
30 -4 31 0
30 1064 -4 0
30 -992 -4 0
-30 4 0
-30 992 -1064 -31 0
31 -993 -994 32 0
31 -993 -994 -1048 0
-31 993 0
-31 994 0
-31 1048 -32 0
-32 1049 1050 1051 1052 0
32 -1052 0
32 -1051 0
32 -1049 0
32 -1050 0
33 -4 21 22 0
-33 -22 0
-33 -21 0
-33 4 0
-34 26 38 0
-34 35 36 0
-34 35 38 0
-34 26 36 0
34 -26 -35 0
34 -36 -38 0
35 1063 -19 0
-35 -1063 0
-35 19 0
36 -1034 -1063 -37 0
36 -1034 -1063 1065 0
-36 1034 0
-36 1063 0
-36 -1065 37 0
37 -1069 1070 -1071 0
-37 1069 0
-37 -1070 0
-37 1071 0
-38 14 24 26 35 0
38 -35 0
38 -26 0
38 -14 0
38 -24 0
39 -1031 -1160 -53 0
39 -1031 -1160 -40 0
-39 1031 0
-39 1160 0
-39 40 53 0
40 -41 -47 0
-40 41 0
-40 47 0
41 -42 44 0
-41 42 0
-41 -44 0
42 1099 1100 1101 -43 0
-42 43 0
-42 -1101 0
-42 -1099 0
-42 -1100 0
43 -1096 1097 1098 0
-43 1096 0
-43 -1098 0
-43 -1097 0
44 1086 1087 1088 -45 0
-44 45 0
-44 -1088 0
-44 -1086 0
-44 -1087 0
45 1085 -46 0
-45 -1085 0
-45 46 0
46 -1083 1084 0
-46 1083 0
-46 -1084 0
47 1004 -48 0
-47 -1004 0
-47 48 0
48 49 -51 0
-48 -49 0
-48 51 0
49 1086 1087 1088 -50 0
-49 50 0
-49 -1088 0
-49 -1086 0
-49 -1087 0
50 -1085 -46 0
-50 1085 0
-50 46 0
51 -1096 1097 -1098 52 0
-51 -52 0
-51 1096 0
-51 1098 0
-51 -1097 0
-52 1099 1100 1101 0
52 -1099 0
52 -1101 0
52 -1100 0
-53 47 54 61 0
-53 54 59 61 0
53 -61 0
53 -54 0
53 -47 -59 0
54 -55 -58 0
-54 55 0
-54 58 0
55 1054 -49 51 0
55 -49 51 -56 0
-55 49 0
-55 -51 0
-55 -1054 56 0
-56 1055 1056 57 0
56 -1055 0
56 -57 0
56 -1056 0
57 -1057 -1058 -1059 0
-57 1057 0
-57 1058 0
-57 1059 0
58 1004 -41 0
-58 -1004 0
-58 41 0
59 -1054 42 -44 0
59 42 -44 60 0
-59 44 0
-59 -42 0
-59 1054 -60 0
60 -1055 -1056 -1058 0
60 -1055 -1056 -1057 0
-60 1055 0
-60 1056 0
-60 1057 1058 0
-61 59 62 0
-61 55 62 0
61 -62 0
61 -55 -59 0
-62 63 69 0
-62 47 58 69 0
62 -69 0
62 -58 -63 0
62 -47 -63 0
63 55 -64 65 -66 0
-63 -55 0
-63 66 0
-63 -65 0
-63 64 0
64 1004 -1005 0
-64 -1004 0
-64 1005 0
-65 41 48 0
65 -41 0
65 -48 0
-66 64 67 0
-66 1020 -1021 67 0
66 -67 0
66 -1020 -64 0
66 1021 -64 0
67 1089 -46 68 0
-67 -1089 0
-67 46 0
-67 -68 0
68 1095 -1096 1097 1098 0
-68 1096 0
-68 -1098 0
-68 -1095 0
-68 -1097 0
-69 47 70 74 0
-69 70 71 74 0
69 -74 0
69 -70 0
69 -47 -71 0
70 -59 -63 0
-70 59 0
-70 63 0
71 59 65 72 -73 0
-71 -59 0
-71 73 0
-71 -72 0
-71 -65 0
-72 1004 1005 0
72 -1004 0
72 -1005 0
-73 67 -72 0
-73 1020 1021 67 0
73 -67 0
73 -1021 72 0
73 -1020 72 0
-74 71 75 0
-74 55 58 75 0
74 -75 0
74 -58 -71 0
74 -55 -71 0
-75 76 0
75 -76 0
76 -1004 -77 0
-76 1004 0
-76 77 0
-77 55 59 63 71 0
77 -71 0
77 -63 0
77 -55 0
77 -59 0
78 -1031 -1160 -64 -79 0
-78 64 0
-78 79 0
-78 1031 0
-78 1160 0
-79 80 141 0
-79 80 -144 0
-79 80 -142 0
79 -80 0
79 -141 142 144 0
80 -105 106 0
80 -81 -106 0
-80 105 106 0
-80 81 -106 0
81 -1132 -82 0
-81 1132 0
-81 82 0
-82 -1063 -1132 0
-82 1063 88 0
-82 1063 83 0
82 -1063 1132 0
82 1063 -83 -88 0
-83 1063 84 0
83 -1063 0
83 -84 0
-84 1079 1080 1081 85 0
84 -85 0
84 -1081 0
84 -1079 0
84 -1080 0
-85 1076 1077 1078 86 0
85 -86 0
85 -1078 0
85 -1076 0
85 -1077 0
-86 1073 1074 1075 87 0
86 -87 0
86 -1075 0
86 -1073 0
86 -1074 0
-87 1064 1072 0
87 -1064 0
87 -1072 0
-88 -1114 -89 0
-88 89 93 96 0
88 1114 -89 0
88 89 -96 0
88 89 -93 0
89 1063 -84 90 0
89 1063 1081 -84 0
-89 -1063 0
-89 84 0
-89 -1081 -90 0
90 -1078 -1079 -1080 -91 0
-90 91 0
-90 1078 0
-90 1080 0
-90 1079 0
91 -1075 -1076 -1077 -92 0
-91 92 0
-91 1075 0
-91 1077 0
-91 1076 0
92 -1064 -1072 -1073 -1074 0
-92 1074 0
-92 1064 0
-92 1073 0
-92 1072 0
93 1063 -1064 -94 0
-93 94 0
-93 1064 0
-93 -1063 0
94 1048 -1049 0
94 1048 -95 0
94 1048 -1050 0
-94 -1048 0
-94 1049 1050 95 0
-95 1051 1053 0
-95 1051 1052 0
95 -1051 0
95 -1052 -1053 0
96 -97 -98 0
96 -97 99 0
-96 97 0
-96 98 -99 0
97 1063 -1064 94 0
-97 -1063 0
-97 1064 0
-97 -94 0
98 -1048 1132 0
-98 1048 0
-98 -1132 0
-99 -1048 -1132 100 0
-99 1048 1132 100 0
99 -100 0
99 -1048 1132 0
99 1048 -1132 0
-100 1049 -1133 0
-100 -1133 101 0
-100 1049 101 0
100 1133 -101 0
100 -1049 1133 0
100 -1049 -101 0
-101 1050 -1134 0
-101 -1134 102 0
-101 1050 102 0
101 1134 -102 0
101 -1050 1134 0
101 -1050 -102 0
-102 1051 -1135 0
-102 -1135 103 0
-102 1051 103 0
102 1135 -103 0
102 -1051 1135 0
102 -1051 -103 0
-103 -1136 104 0
-103 1052 104 0
-103 1052 -1136 0
103 -1052 -104 0
103 -1052 1136 0
103 1136 -104 0
104 -1053 1137 0
-104 1053 0
-104 -1137 0
105 -1132 82 0
105 1132 -82 0
-105 1132 82 0
-105 -1132 -82 0
106 -107 108 0
-106 107 0
-106 -108 0
-107 1132 82 0
107 -1132 0
107 -82 0
108 -109 -105 0
-108 109 0
-108 105 0
-109 -1132 114 0
-109 -1132 110 0
-109 110 114 0
109 -110 -114 0
109 1132 -114 0
109 1132 -110 0
110 -1063 -1132 0
110 1063 -83 111 0
-110 -1063 1132 0
-110 1063 -111 0
-110 1063 83 0
-111 89 112 0
-111 -1114 -89 0
-111 89 -93 0
111 1114 -89 0
111 89 93 -112 0
112 -97 -100 -113 0
112 -97 100 113 0
-112 97 0
-112 100 -113 0
-112 -100 113 0
-113 -1048 -1132 0
-113 1048 1132 0
113 1048 -1132 0
113 -1048 1132 0
-114 -1133 119 0
-114 -1133 115 0
-114 115 119 0
114 -115 -119 0
114 1133 -119 0
114 1133 -115 0
115 -1063 -1133 0
115 1063 -83 116 0
-115 -1063 1133 0
-115 1063 -116 0
-115 1063 83 0
-116 89 117 0
-116 -1115 -89 0
-116 89 -93 0
116 1115 -89 0
116 89 93 -117 0
117 -97 -101 -118 0
117 -97 101 118 0
-117 97 0
-117 101 -118 0
-117 -101 118 0
-118 -1049 -1133 0
-118 1049 1133 0
118 1049 -1133 0
118 -1049 1133 0
-119 -1134 124 0
-119 -1134 120 0
-119 120 124 0
119 -120 -124 0
119 1134 -124 0
119 1134 -120 0
120 -1063 -1134 0
120 1063 -83 121 0
-120 -1063 1134 0
-120 1063 -121 0
-120 1063 83 0
-121 89 122 0
-121 -1116 -89 0
-121 89 -93 0
121 1116 -89 0
121 89 93 -122 0
122 -97 -102 -123 0
122 -97 102 123 0
-122 97 0
-122 102 -123 0
-122 -102 123 0
-123 -1050 -1134 0
-123 1050 1134 0
123 1050 -1134 0
123 -1050 1134 0
-124 -1135 129 0
-124 -1135 125 0
-124 125 129 0
124 -125 -129 0
124 1135 -129 0
124 1135 -125 0
125 -1063 -1135 0
125 1063 -83 126 0
-125 -1063 1135 0
-125 1063 -126 0
-125 1063 83 0
-126 89 127 0
-126 -1117 -89 0
-126 89 -93 0
126 1117 -89 0
126 89 93 -127 0
127 -97 -103 -128 0
127 -97 103 128 0
-127 97 0
-127 103 -128 0
-127 -103 128 0
-128 -1051 -1135 0
-128 1051 1135 0
128 1051 -1135 0
128 -1051 1135 0
-129 130 135 0
129 -130 0
129 -135 0
130 1136 -131 0
-130 -1136 0
-130 131 0
131 -1063 -1136 0
131 1063 -83 132 0
-131 -1063 1136 0
-131 1063 -132 0
-131 1063 83 0
-132 89 133 0
-132 -1118 -89 0
-132 89 -93 0
132 1118 -89 0
132 89 93 -133 0
133 -97 104 134 0
133 -97 -104 -134 0
-133 97 0
-133 -104 134 0
-133 104 -134 0
-134 -1052 -1136 0
-134 1052 1136 0
134 1052 -1136 0
134 -1052 1136 0
135 -136 140 0
-135 136 0
-135 -140 0
136 1137 -137 0
-136 -1137 0
-136 137 0
137 -1063 -1137 0
137 1063 -83 138 0
-137 -1063 1137 0
-137 1063 -138 0
-137 1063 83 0
-138 89 139 0
-138 -1119 -89 0
-138 89 -93 0
138 1119 -89 0
138 89 93 -139 0
139 -1053 -1137 -97 0
139 1053 1137 -97 0
-139 97 0
-139 -1053 1137 0
-139 1053 -1137 0
-140 -1136 -131 0
-140 1136 131 0
140 1136 -131 0
140 -1136 131 0
-141 -109 -105 0
-141 109 105 0
141 109 -105 0
141 -109 105 0
142 -114 143 0
142 114 -143 0
-142 114 143 0
-142 -114 -143 0
-143 -1132 -110 0
-143 1132 110 0
143 1132 -110 0
143 -1132 110 0
-144 145 147 149 0
144 -149 0
144 -147 0
144 -145 0
145 -119 146 0
145 119 -146 0
-145 119 146 0
-145 -119 -146 0
-146 -1133 -115 0
-146 1133 115 0
146 1133 -115 0
146 -1133 115 0
147 -124 148 0
147 124 -148 0
-147 124 148 0
-147 -124 -148 0
-148 -1134 -120 0
-148 1134 120 0
148 1134 -120 0
148 -1134 120 0
-149 150 152 153 0
149 -150 0
149 -153 0
149 -152 0
150 -129 151 0
150 129 -151 0
-150 129 151 0
-150 -129 -151 0
-151 -1135 -125 0
-151 1135 125 0
151 1135 -125 0
151 -1135 125 0
152 1137 -137 0
152 -1137 137 0
-152 -1137 -137 0
-152 1137 137 0
153 -136 140 0
153 136 -140 0
-153 136 140 0
-153 -136 -140 0
154 -1031 -1160 21 -155 0
-154 155 0
-154 1031 0
-154 1160 0
-154 -21 0
155 -1064 -49 0
-155 1064 0
-155 49 0
156 -1031 -1160 72 157 0
-156 -72 0
-156 -157 0
-156 1031 0
-156 1160 0
157 158 -189 0
157 158 -198 -209 0
-157 -158 0
-157 189 209 0
-157 189 198 0
158 1004 -159 0
-158 -1004 0
-158 159 0
159 71 -160 0
159 -71 -183 0
-159 -71 183 0
-159 71 160 0
160 -63 165 0
160 59 63 -161 0
-160 -59 63 0
-160 -63 -165 0
-160 63 161 0
-161 55 -58 0
-161 47 55 162 0
161 -55 0
161 -47 58 0
161 58 -162 0
-162 1108 163 0
162 -1108 0
162 -163 0
-163 47 55 58 164 0
163 -164 0
163 -58 0
163 -47 0
163 -55 0
-164 1004 59 63 71 0
164 -71 0
164 -63 0
164 -1004 0
164 -59 0
165 1108 -166 0
-165 -1108 0
-165 166 0
166 167 -176 0
-166 -167 0
-166 176 0
167 -168 170 0
-167 168 0
-167 -170 0
168 -1054 1055 0
168 -1054 1056 169 0
-168 1054 0
-168 -1055 -1056 0
-168 -1055 -169 0
-169 1057 1058 0
169 -1057 0
169 -1058 0
170 1054 -1108 0
170 1054 171 -172 0
170 -1108 171 -172 0
-170 1108 172 0
-170 -1054 -171 0
-170 -1054 1108 0
-170 -1054 172 0
-170 1108 -171 0
171 1055 -1109 0
-171 -1055 0
-171 1109 0
-172 1056 -1110 173 0
-172 1056 173 174 0
-172 -1110 173 174 0
172 1110 -174 0
172 -1056 1110 0
172 -173 0
172 -1056 -174 0
173 -1055 1109 0
-173 1055 0
-173 -1109 0
174 -1057 -175 0
174 -1057 1111 0
174 1111 -175 0
-174 -1111 175 0
-174 1057 175 0
-174 1057 -1111 0
175 -1058 1112 0
175 -1058 -1059 1113 0
175 -1059 1112 1113 0
-175 1058 -1113 0
-175 -1112 -1113 0
-175 1058 -1112 0
-175 1059 -1112 0
-175 1058 1059 0
176 177 -181 0
-176 -177 0
-176 181 0
177 -1054 1108 0
177 -1054 173 -178 0
177 1108 173 -178 0
-177 1054 178 0
-177 -1108 178 0
-177 1054 -1108 0
-177 -1108 -173 0
-177 1054 -173 0
-178 -1056 1110 171 0
-178 -1056 171 179 0
-178 1110 171 179 0
178 1056 -179 0
178 -1110 -179 0
178 -171 0
178 1056 -1110 0
179 1057 -1111 0
179 -1111 -180 0
179 1057 -180 0
-179 1111 180 0
-179 -1057 1111 0
-179 -1057 180 0
180 1058 -1112 0
180 1059 -1112 -1113 0
180 1058 1059 -1113 0
-180 -1058 -1059 0
-180 -1059 1112 0
-180 -1058 1112 0
-180 1112 1113 0
-180 -1058 1113 0
181 -1108 1109 0
181 -1108 1110 182 0
-181 1108 0
-181 -1109 -1110 0
-181 -1109 -182 0
-182 1111 1112 0
182 -1111 0
182 -1112 0
183 -1054 -184 0
183 -1108 184 -186 0
-183 184 186 0
-183 1054 -184 0
-183 1108 184 0
184 177 -185 0
-184 -177 0
-184 185 0
185 1054 -1055 0
185 1054 -1056 -57 0
-185 -1054 0
-185 1055 57 0
-185 1055 1056 0
186 170 -187 0
-186 -170 0
-186 187 0
187 1108 -1109 0
187 1108 -1110 -188 0
-187 -1108 0
-187 1109 188 0
-187 1109 1110 0
188 -1111 -1112 -1113 0
-188 1111 0
-188 1112 0
-188 1113 0
189 1004 -190 0
-189 -1004 0
-189 190 0
190 71 -191 0
190 -71 -197 0
-190 -71 197 0
-190 71 191 0
191 -59 63 0
191 -63 196 0
191 63 -192 0
-191 -63 -196 0
-191 59 63 192 0
192 55 -193 0
-192 -55 0
-192 193 0
193 58 -194 0
193 1054 -1055 -58 0
-193 58 194 0
-193 -1054 -58 0
-193 1055 -58 0
194 47 -195 0
194 1054 -47 0
194 -1055 -47 0
-194 47 195 0
-194 -1054 1055 -47 0
-195 1109 163 0
195 -1109 0
195 -163 0
-196 -1109 167 0
-196 -1055 166 0
-196 -1055 -1109 0
-196 167 166 0
196 1109 -166 0
196 1055 -167 0
197 -1055 -184 0
197 -1109 184 -186 0
-197 184 186 0
-197 1055 -184 0
-197 1109 184 0
198 1004 -199 0
-198 -1004 0
-198 199 0
199 71 -200 0
199 -71 207 0
-199 -71 -207 0
-199 71 200 0
200 63 -201 0
200 -63 -205 206 0
-200 63 201 0
-200 -63 -206 0
-200 -63 205 0
-201 59 202 0
-201 -55 59 0
201 -59 0
201 55 -202 0
202 -1056 -58 0
202 58 -203 0
202 -58 185 0
-202 58 203 0
-202 1056 -58 -185 0
203 47 -204 0
203 -1056 -47 -168 0
-203 1056 -47 0
-203 47 204 0
-203 -47 168 0
-204 1110 163 0
204 -1110 0
204 -163 0
-205 167 176 0
205 -167 0
205 -176 0
-206 -1110 167 0
-206 -1056 166 0
-206 -1056 -1110 0
-206 167 166 0
206 1110 -166 0
206 1056 -167 0
-207 -1110 184 0
-207 -1056 208 0
-207 -1056 -1110 0
-207 184 208 0
207 1110 -208 0
207 1056 -184 0
208 184 -186 0
-208 -184 0
-208 186 0
209 -210 -219 -227 0
-209 210 0
-209 219 0
-209 227 0
210 1004 -211 0
-210 -1004 0
-210 211 0
211 71 -212 0
211 -71 218 0
-211 -71 -218 0
-211 71 212 0
212 63 -213 0
212 -63 -205 217 0
-212 -63 205 0
-212 63 213 0
-212 -63 -217 0
213 -55 59 0
213 59 -214 0
-213 -59 0
-213 55 214 0
214 -1057 -58 0
214 58 -215 0
214 -58 185 0
-214 58 215 0
-214 1057 -58 -185 0
215 47 -216 0
215 -1057 -47 -168 0
-215 1057 -47 0
-215 47 216 0
-215 -47 168 0
-216 1111 163 0
216 -1111 0
216 -163 0
-217 -1111 167 0
-217 -1057 166 0
-217 -1057 -1111 0
-217 167 166 0
217 1111 -166 0
217 1057 -167 0
-218 -1111 184 0
-218 -1057 208 0
-218 -1057 -1111 0
-218 184 208 0
218 1111 -208 0
218 1057 -184 0
219 71 -220 0
219 -71 226 0
-219 -71 -226 0
-219 71 220 0
220 63 -221 0
220 -63 225 0
220 -59 63 0
-220 -63 -225 0
-220 59 63 221 0
-221 55 222 0
221 -55 0
221 -222 0
222 -1059 -58 0
222 58 -223 0
222 -58 185 0
-222 58 223 0
-222 1059 -58 -185 0
223 47 -224 0
223 -47 168 0
223 -1059 -47 0
-223 47 224 0
-223 1059 -47 -168 0
-224 1113 163 0
224 -1113 0
224 -163 0
-225 -1113 167 0
-225 -1059 166 0
-225 -1059 -1113 0
-225 167 166 0
225 1113 -166 0
225 1059 -167 0
-226 -1113 184 0
-226 -1059 208 0
-226 -1059 -1113 0
-226 184 208 0
226 1113 -208 0
226 1059 -184 0
227 1004 -228 0
-227 -1004 0
-227 228 0
228 -71 235 0
228 71 -229 233 0
-228 71 229 0
-228 -71 -235 0
-228 71 -233 0
-229 -59 63 0
-229 55 63 230 0
229 -63 0
229 -55 59 0
229 59 -230 0
230 -1058 -58 0
230 58 -231 0
230 -58 185 0
-230 58 231 0
-230 1058 -58 -185 0
231 47 -232 0
231 -1058 -47 -168 0
-231 1058 -47 0
-231 47 232 0
-231 -47 168 0
-232 1112 163 0
232 -1112 0
232 -163 0
233 -63 234 0
233 1058 -63 -167 0
-233 63 0
-233 -1058 -234 0
-233 167 -234 0
234 -1112 -205 0
234 166 -205 0
-234 205 0
-234 1112 -166 0
-235 -1112 184 0
-235 -1058 208 0
-235 -1058 -1112 0
-235 184 208 0
235 1112 -208 0
235 1058 -184 0
236 -1012 -1013 -1033 -1160 0
-236 1160 0
-236 1012 0
-236 1033 0
-236 1013 0
237 -1161 -239 0
237 -992 -1161 -238 0
-237 1161 0
-237 992 239 0
-237 238 239 0
238 -993 -994 0
-238 993 0
-238 994 0
-239 1006 240 243 0
-239 240 242 243 0
239 -243 0
239 -240 0
239 -1006 -242 0
240 -995 -241 0
-240 995 0
-240 241 0
241 -996 -997 0
-241 996 0
-241 997 0
-242 1007 1008 0
242 -1007 0
242 -1008 0
-243 1009 244 0
-243 1010 1011 244 0
243 -244 0
243 -1009 -1011 0
243 -1009 -1010 0
-244 1015 245 0
-244 1014 245 0
-244 1016 245 0
244 -245 0
244 -1014 -1015 -1016 0
-245 1017 246 0
-245 1018 1019 246 0
245 -246 0
245 -1017 -1019 0
245 -1017 -1018 0
-246 1022 247 0
-246 1023 1024 247 0
246 -247 0
246 -1022 -1024 0
246 -1022 -1023 0
-247 1066 248 250 0
-247 248 249 250 0
247 -250 0
247 -248 0
247 -1066 -249 0
248 -1025 -1026 0
248 -1025 -1027 0
-248 1025 0
-248 1026 1027 0
249 -1067 -1068 0
-249 1067 0
-249 1068 0
-250 1086 251 253 0
-250 251 252 253 0
250 -253 0
250 -251 0
250 -1086 -252 0
251 -1083 -1084 0
-251 1083 0
-251 1084 0
252 -1087 -1088 0
-252 1087 0
-252 1088 0
-253 1094 254 255 0
-253 1093 254 255 0
253 -255 0
253 -254 0
253 -1093 -1094 0
254 -1090 -1091 0
-254 1090 0
-254 1091 0
-255 1097 256 257 0
-255 1096 256 257 0
255 -257 0
255 -256 0
255 -1096 -1097 0
256 -1099 -1100 -1101 0
-256 1099 0
-256 1100 0
-256 1101 0
-257 1106 258 259 0
-257 1105 258 259 0
257 -259 0
257 -258 0
257 -1105 -1106 0
258 -1102 -1103 0
-258 1102 0
-258 1103 0
-259 1146 260 261 0
-259 1145 260 261 0
259 -261 0
259 -260 0
259 -1145 -1146 0
260 -1141 -1142 0
-260 1141 0
-260 1142 0
-261 1148 262 263 0
-261 1147 262 263 0
261 -263 0
261 -262 0
261 -1147 -1148 0
262 -973 -974 0
-262 973 0
-262 974 0
-263 1151 264 0
-263 1150 264 0
263 -264 0
263 -1150 -1151 0
-264 1154 1156 0
-264 1153 1157 0
-264 1154 1157 0
-264 1153 1156 0
264 -1153 -1154 0
264 -1156 -1157 0
265 -1161 266 268 -270 0
-265 270 0
-265 -268 0
-265 1161 0
-265 -266 0
266 -1029 -37 0
266 995 -1029 267 0
-266 1029 0
-266 -995 37 0
-266 37 -267 0
-267 996 997 0
267 -996 0
267 -997 0
268 995 -1029 37 -269 0
-268 1029 0
-268 -37 0
-268 -995 0
-268 269 0
269 996 -997 0
-269 -996 0
-269 997 0
270 271 277 -299 0
270 271 277 -290 0
-270 -271 0
-270 -277 0
-270 290 299 0
271 -1029 -272 -273 0
271 -1029 -272 -275 0
-271 1029 0
-271 272 0
-271 273 275 0
-272 995 997 0
-272 995 996 0
-272 -995 -996 -997 0
272 -995 996 0
272 995 -996 -997 0
272 -995 997 0
273 1066 1067 -1068 274 0
-273 -1066 0
-273 -274 0
-273 1068 0
-273 -1067 0
274 -1069 1070 -1071 0
274 -1069 -1070 1071 0
-274 1069 0
-274 -1070 -1071 0
-274 1070 1071 0
275 1066 -1067 276 0
275 -1066 1068 276 0
275 1067 -1068 276 0
-275 -276 0
-275 1066 1067 1068 0
-275 -1066 -1067 -1068 0
-276 1069 1070 1071 0
276 -1069 0
276 -1071 0
276 -1070 0
277 -1029 -278 0
277 -1029 -287 0
277 -1029 -282 0
-277 1029 0
-277 278 282 287 0
278 27 -279 280 0
-278 -280 0
-278 279 0
-278 -27 0
279 995 -241 0
-279 -995 0
-279 241 0
-280 1066 281 0
280 -1066 0
280 -281 0
-281 1067 1068 0
281 -1067 0
281 -1068 0
282 -272 -284 0
282 -283 -272 -286 0
-282 272 0
-282 284 286 0
-282 283 284 0
283 1069 1070 -1071 0
-283 1071 0
-283 -1070 0
-283 -1069 0
284 1066 -1067 1068 -285 0
-284 1067 0
-284 285 0
-284 -1066 0
-284 -1068 0
-285 -1069 1070 -1071 0
-285 -1069 -1070 1071 0
-285 1069 1070 1071 0
285 1069 -1070 0
285 -1070 -1071 0
285 1069 -1071 0
285 -1069 1070 1071 0
-286 1066 1067 0
-286 -1066 -1067 -1068 0
286 1066 -1067 0
286 -1066 1067 0
286 -1067 1068 0
-287 279 0
-287 285 288 0
-287 286 288 0
287 -279 -288 0
287 -279 -285 -286 0
288 -1069 -289 0
-288 1069 0
-288 289 0
289 -1070 1071 0
-289 1070 0
-289 -1071 0
290 -291 292 0
290 -291 -298 0
290 -291 -293 0
-290 291 0
-290 -292 293 298 0
291 -995 -1029 0
-291 995 0
-291 1029 0
-292 27 267 280 0
292 -280 0
292 -267 0
292 -27 0
293 241 -295 0
293 -294 241 -297 0
-293 -241 0
-293 295 297 0
-293 294 295 0
294 1069 -289 0
-294 -1069 0
-294 289 0
295 1066 -249 -296 0
-295 -1066 0
-295 249 0
-295 296 0
-296 1070 -1071 0
-296 1069 1070 0
-296 -1069 -1070 1071 0
296 1069 -1070 0
296 -1070 -1071 0
296 -1069 1070 1071 0
-297 1066 1068 0
-297 1066 1067 0
-297 -1066 -1067 -1068 0
297 -1066 1067 0
297 1066 -1067 -1068 0
297 -1066 1068 0
-298 -267 0
-298 288 297 0
-298 288 296 0
298 267 -288 0
298 267 -296 -297 0
-299 992 300 309 0
299 -992 0
299 -309 0
299 -300 0
300 -291 -301 0
300 -291 -307 0
300 -291 -302 0
-300 291 0
-300 301 302 307 0
301 27 -269 280 0
-301 -280 0
-301 269 0
-301 -27 0
302 -996 997 -1066 -303 0
302 996 -997 -1066 -303 0
-302 303 0
-302 996 997 0
-302 1066 0
-302 -996 -997 0
-303 -1067 -1068 0
-303 -1067 304 0
-303 -1068 304 0
-303 304 305 0
303 1068 -304 0
303 1067 -304 0
303 1067 1068 -305 0
304 1069 -1070 -1071 0
-304 1071 0
-304 1070 0
-304 -1069 0
-305 1070 306 0
-305 1071 306 0
305 -306 0
305 -1070 -1071 0
306 -1069 1070 1071 0
-306 1069 0
-306 -1071 0
-306 -1070 0
-307 269 0
-307 288 308 0
-307 288 305 0
307 -269 -288 0
307 -269 -305 -308 0
308 -1066 249 0
-308 1066 0
-308 -249 0
309 -1029 -310 311 0
-309 1029 0
-309 310 0
-309 -311 0
310 -995 -996 997 0
-310 995 0
-310 996 0
-310 -997 0
311 1069 -280 0
311 -27 312 0
311 1069 -27 0
311 -280 312 0
-311 -1069 -312 0
-311 27 280 0
-312 289 314 0
-312 289 -313 0
-312 1066 289 0
312 -289 0
312 -1066 313 -314 0
313 1070 -1071 0
-313 -1070 0
-313 1071 0
314 1067 -1068 0
314 -1067 1068 0
-314 -1067 -1068 0
-314 1067 1068 0
315 -1161 -266 0
315 -1161 316 0
315 -1161 -268 0
-315 1161 0
-315 266 268 -316 0
-316 271 277 317 0
-316 271 277 -290 0
316 -271 0
316 -277 0
316 290 -317 0
317 -993 300 0
317 300 -309 0
-317 -300 0
-317 993 309 0
318 -1161 -266 0
318 -1161 268 319 0
-318 1161 0
-318 266 -319 0
-318 266 -268 0
319 271 -277 0
319 271 290 -320 0
-319 -271 0
-319 277 320 0
-319 277 -290 0
-320 300 -309 0
-320 994 300 0
320 -300 0
320 -994 309 0
321 -1161 26 36 -322 0
-321 322 0
-321 -36 0
-321 1161 0
-321 -26 0
322 -995 35 0
322 -14 35 0
322 -24 35 0
-322 -35 0
-322 995 14 24 0
323 -1161 -26 0
323 -1161 324 0
323 -1161 -36 0
-323 1161 0
-323 26 36 -324 0
-324 -14 35 0
-324 -24 35 0
-324 996 35 0
324 -35 0
324 -996 14 24 0
325 -1161 -36 0
325 -1161 26 326 0
-325 1161 0
-325 -26 36 0
-325 36 -326 0
-326 -24 35 0
-326 997 14 35 0
326 -35 0
326 -14 24 0
326 -997 24 0
327 -998 -999 -1161 0
327 -998 1028 -1161 0
-327 1161 0
-327 998 0
-327 999 -1028 0
328 -1161 -329 0
328 -1161 -332 0
-328 1161 0
-328 329 332 0
329 998 999 -1028 -330 0
-329 -998 0
-329 330 0
-329 1028 0
-329 -999 0
330 1132 -1133 -1134 0
330 1132 -1133 -331 0
-330 -1132 0
-330 1133 0
-330 1134 331 0
331 -1135 -1136 0
331 -1135 -1137 0
-331 1135 0
-331 1136 1137 0
332 -998 999 -1028 0
332 998 -999 333 0
332 -999 1028 333 0
-332 999 1028 0
-332 -998 -999 -1028 0
-332 998 999 0
-332 -999 -333 0
333 998 -999 -1028 334 0
-333 -998 0
-333 -334 0
-333 1028 0
-333 999 0
334 1132 -1133 -1134 0
334 1132 -1133 -1135 0
-334 -1132 0
-334 1133 0
-334 1134 1135 0
335 -1161 336 0
-335 1161 0
-335 -336 0
336 -1001 1028 0
336 1001 -1028 -343 0
336 -1001 337 0
-336 1001 343 0
-336 -1001 -1028 -337 0
-336 1001 1028 0
337 -1061 -338 0
337 -338 -339 0
337 -1062 -338 0
-337 338 0
-337 1061 1062 339 0
338 -1004 -1005 0
-338 1004 0
-338 1005 0
339 1037 1132 -340 0
339 1132 -1133 -340 0
339 1037 1132 -1133 0
-339 -1037 1133 0
-339 -1037 340 0
-339 -1132 0
-339 1133 340 0
-340 -1038 341 0
-340 -1038 1134 0
-340 1134 341 0
340 -1134 -341 0
340 1038 -341 0
340 1038 -1134 0
-341 -1039 342 0
-341 -1039 1135 0
-341 1135 342 0
341 -1135 -342 0
341 1039 -342 0
341 1039 -1135 0
-342 -1040 -1041 0
-342 -1041 1136 0
-342 -1040 1136 0
-342 1136 1137 0
-342 -1040 1137 0
342 1040 -1136 0
342 1041 -1136 -1137 0
342 1040 1041 -1137 0
343 1001 1062 344 -345 0
-343 345 0
-343 -344 0
-343 -1001 0
-343 -1062 0
344 -1060 -339 0
-344 1060 0
-344 339 0
345 1061 -338 0
-345 -1061 0
-345 338 0
346 -1161 347 0
-346 1161 0
-346 -347 0
-347 1002 -348 0
-347 -1002 -1028 -79 0
-347 1002 1028 0
347 -1002 79 0
347 -1002 1028 0
347 1002 -1028 348 0
-348 80 141 0
-348 80 -349 0
-348 80 -142 0
348 -80 0
348 -141 142 349 0
-349 145 147 350 0
349 -350 0
349 -147 0
349 -145 0
-350 150 153 0
-350 150 152 0
350 -150 0
350 -152 -153 0
351 -1161 352 0
-351 1161 0
-351 -352 0
352 -1003 1028 0
352 1003 -1028 21 0
352 -1003 -21 0
352 -1028 1064 0
-352 1003 1028 0
-352 1003 -1064 -21 0
-352 -1003 -1028 -1064 21 0
353 -1161 354 -361 0
353 -1161 354 362 0
-353 1161 0
-353 -354 0
-353 361 -362 0
354 355 357 358 -359 0
-354 359 0
-354 -358 0
-354 -355 0
-354 -357 0
355 -50 -356 0
-355 50 0
-355 356 0
-356 -1086 -252 0
-356 1086 252 0
356 1086 -252 0
356 -1086 252 0
357 1086 1087 -50 0
-357 50 0
-357 -1087 0
-357 -1086 0
358 -45 -356 0
-358 45 0
-358 356 0
359 -1082 360 0
-359 1082 0
-359 -360 0
360 1086 1087 -45 0
-360 45 0
-360 -1087 0
-360 -1086 0
361 -1082 -360 0
-361 1082 0
-361 360 0
362 -1004 363 0
362 363 -364 0
-362 -363 0
-362 1004 364 0
363 -1082 -357 0
-363 1082 0
-363 357 0
364 -1082 -46 -356 0
-364 1082 0
-364 46 0
-364 356 0
365 -1161 354 -361 0
365 -1161 354 366 0
-365 1161 0
-365 -354 0
-365 361 -366 0
-366 363 -364 0
-366 1005 363 0
366 -363 0
366 -1005 364 0
367 368 369 -374 0
367 368 369 -372 0
-367 -368 0
-367 -369 0
-367 372 374 0
368 -1082 45 -355 0
-368 1082 0
-368 -45 0
-368 355 0
369 -364 -370 0
-369 364 0
-369 370 0
370 -45 -371 0
-370 45 0
-370 371 0
371 1086 -1087 -1088 0
-371 1088 0
-371 1087 0
-371 -1086 0
372 371 -364 -373 0
-372 373 0
-372 364 0
-372 -371 0
373 -1086 -1087 1088 -45 0
-373 45 0
-373 1086 0
-373 1087 0
-373 -1088 0
374 -1006 375 377 0
-374 1006 0
-374 -377 0
-374 -375 0
375 -364 -376 0
-375 364 0
-375 376 0
376 -1086 1087 1088 -45 0
-376 45 0
-376 -1088 0
-376 1086 0
-376 -1087 0
377 -364 -378 0
-377 364 0
-377 378 0
378 -1086 1087 -1088 -45 0
-378 45 0
-378 1086 0
-378 1088 0
-378 -1087 0
379 368 369 372 -380 0
-379 380 0
-379 -372 0
-379 -368 0
-379 -369 0
-380 1007 375 377 0
380 -1007 0
380 -377 0
380 -375 0
381 368 -369 0
381 368 372 -382 0
-381 -368 0
-381 369 382 0
-381 369 -372 0
382 -1008 375 0
382 375 -377 0
-382 -375 0
-382 1008 377 0
383 364 384 -386 0
383 384 385 -386 0
-383 386 0
-383 -384 0
-383 -364 -385 0
384 -1082 50 -358 0
-384 1082 0
-384 -50 0
-384 358 0
385 -50 -371 0
-385 50 0
-385 371 0
-386 387 -391 0
-386 387 -389 0
-386 1009 387 0
386 -387 0
386 -1009 389 391 0
387 371 -364 -388 0
-387 388 0
-387 364 0
-387 -371 0
388 -1086 -1087 1088 -50 0
-388 50 0
-388 1086 0
-388 1087 0
-388 -1088 0
389 -364 -390 0
-389 364 0
-389 390 0
390 -1086 1087 1088 -50 0
-390 50 0
-390 -1088 0
-390 1086 0
-390 -1087 0
391 -364 -392 0
-391 364 0
-391 392 0
392 -1086 1087 -1088 -50 0
-392 50 0
-392 1086 0
-392 1088 0
-392 -1087 0
393 364 384 -394 0
393 384 385 -394 0
-393 394 0
-393 -384 0
-393 -364 -385 0
394 387 -391 0
394 -1010 387 0
394 387 -389 0
-394 -387 0
-394 1010 389 391 0
395 384 -396 0
395 384 -397 0
-395 -384 0
-395 396 397 0
396 -364 -385 0
-396 364 0
-396 385 0
397 387 389 -391 0
397 -1011 387 389 0
-397 -389 0
-397 -387 0
-397 1011 391 0
398 -1161 -399 0
398 -1161 -438 0
-398 1161 0
-398 399 438 0
399 1012 -1031 -59 0
399 1012 -1031 -400 0
-399 -1012 0
-399 1031 0
-399 59 400 0
-400 1054 -401 0
-400 401 405 0
-400 -401 -404 0
400 401 -405 0
400 -1054 -401 404 0
401 1006 1007 -402 403 0
-401 -1006 0
-401 -403 0
-401 402 0
-401 -1007 0
402 -1004 1005 0
-402 1004 0
-402 -1005 0
-403 1009 1010 0
403 -1009 0
403 -1010 0
404 -1055 -1056 0
-404 1055 0
-404 1056 0
-405 1054 -427 0
-405 406 -429 0
-405 406 -427 0
-405 1054 406 0
-405 -427 -429 0
-405 1054 -429 0
405 -1054 -406 429 0
405 -1054 427 429 0
405 -1054 -406 427 0
405 -406 427 429 0
-406 407 425 0
406 -407 0
406 -425 0
-407 408 423 0
407 -408 0
407 -423 0
-408 409 421 0
408 -409 0
408 -421 0
409 -410 -419 0
-409 410 0
-409 419 0
410 411 -412 0
-410 -411 0
-410 412 0
-411 1005 -242 0
-411 1005 -1006 0
-411 1004 1005 0
411 -1005 0
411 -1004 1006 242 0
412 413 -416 0
412 413 -415 0
412 413 -414 0
-412 -413 0
-412 414 415 416 0
413 1006 -1007 -1008 -402 0
-413 -1006 0
-413 402 0
-413 1008 0
-413 1007 0
414 1006 -1007 1008 -402 0
-414 1007 0
-414 -1008 0
-414 -1006 0
-414 402 0
415 -1006 1007 1008 -402 0
-415 402 0
-415 -1008 0
-415 1006 0
-415 -1007 0
416 -228 417 0
416 -72 417 0
-416 -417 0
-416 72 228 0
417 -402 -418 0
-417 402 0
-417 418 0
418 1006 1007 -1008 0
-418 1008 0
-418 -1007 0
-418 -1006 0
419 413 414 -420 0
419 413 414 -415 0
-419 -413 0
-419 -414 0
-419 415 420 0
420 -219 417 0
420 -72 417 0
-420 -417 0
-420 72 219 0
421 411 -413 0
421 411 -422 0
421 411 -414 0
-421 -411 0
-421 413 414 422 0
422 -72 415 417 0
422 -211 415 417 0
-422 -417 0
-422 -415 0
-422 72 211 0
423 411 -413 0
423 411 414 -424 0
-423 -411 0
-423 413 424 0
-423 413 -414 0
-424 415 -417 0
-424 72 199 415 0
424 -415 0
424 -199 417 0
424 -72 417 0
425 411 413 -414 0
425 411 413 -426 0
-425 -411 0
-425 -413 0
-425 414 426 0
-426 415 -417 0
-426 72 190 415 0
426 -415 0
426 -190 417 0
426 -72 417 0
-427 411 413 414 428 0
427 -428 0
427 -414 0
427 -411 0
427 -413 0
-428 415 -417 0
-428 72 159 415 0
428 -415 0
428 -159 417 0
428 -72 417 0
429 -1055 -431 0
429 -1055 -430 0
429 -430 -431 0
-429 430 431 0
-429 1055 431 0
-429 1055 430 0
-430 -407 -425 0
-430 407 425 0
430 407 -425 0
430 -407 425 0
431 -1056 -433 0
431 -1056 -432 0
431 -432 -433 0
-431 432 433 0
-431 1056 433 0
-431 1056 432 0
-432 -408 -423 0
-432 408 423 0
432 408 -423 0
432 -408 423 0
433 -1057 -435 0
433 -1057 -434 0
433 -434 -435 0
-433 434 435 0
-433 1057 435 0
-433 1057 434 0
-434 -409 -421 0
-434 409 421 0
434 409 -421 0
434 -409 421 0
435 -1058 -1059 0
435 -1058 437 0
435 -1059 437 0
435 -1058 -436 0
435 -436 437 0
-435 1058 -437 0
-435 1059 436 -437 0
-435 1058 1059 436 0
436 411 -419 0
-436 -411 0
-436 419 0
437 412 -436 0
437 411 -412 436 0
-437 -411 -412 0
-437 412 436 0
-437 -412 -436 0
438 -1012 1031 0
438 -1012 439 451 0
-438 1012 0
-438 -1031 -439 0
-438 -1031 -451 0
439 -401 440 441 -443 0
-439 443 0
-439 -441 0
-439 401 0
-439 -440 0
440 -1054 1056 0
440 -1054 1055 0
-440 1054 0
-440 -1055 -1056 0
441 1054 -442 0
441 1054 -1056 0
441 1054 -1055 0
-441 -1054 0
-441 1055 1056 442 0
442 -1057 -1058 0
442 -1057 -1059 0
-442 1057 0
-442 1058 1059 0
-443 65 444 0
443 -65 0
443 -444 0
444 -1102 -445 0
444 -445 -450 0
444 -1102 -450 0
-444 1102 450 0
-444 445 450 0
-444 1102 445 0
445 -1103 448 0
445 -1104 -446 448 0
445 -1103 -1104 -446 0
-445 1103 -448 0
-445 446 -448 0
-445 1103 446 0
-445 1104 -448 0
-445 1103 1104 0
446 -72 447 0
-446 72 0
-446 -447 0
447 -1006 1007 1008 -402 0
447 1006 -1007 -1008 -402 0
-447 -1007 1008 0
-447 -1006 -1008 0
-447 402 0
-447 1006 1007 0
448 -72 -449 0
-448 72 0
-448 449 0
449 -1006 1007 1008 -402 0
449 1006 -1007 1008 -402 0
-449 402 0
-449 1006 1007 0
-449 -1008 0
-449 -1006 -1007 0
450 -72 417 0
-450 72 0
-450 -417 0
-451 -452 0
-451 -401 0
-451 65 444 0
451 -65 401 452 0
451 401 -444 452 0
452 453 -454 0
-452 -453 0
-452 454 0
453 1054 -427 0
-453 -1054 0
-453 427 0
-454 1054 427 456 0
-454 -1054 -427 -455 0
-454 1054 427 -455 0
-454 -1054 -427 456 0
454 -1054 427 0
454 1054 -427 0
454 455 -456 0
455 -1055 425 0
-455 1055 0
-455 -425 0
-456 -1056 423 457 0
-456 -1056 457 458 0
-456 423 457 458 0
456 1056 -458 0
456 -423 -458 0
456 -457 0
456 1056 -423 0
457 1055 -425 0
-457 -1055 0
-457 425 0
458 1057 -421 0
458 -421 -459 0
458 1057 -459 0
-458 421 459 0
-458 -1057 421 0
-458 -1057 459 0
459 1058 -410 0
459 1059 -410 -436 0
459 1058 1059 -436 0
-459 -1058 -1059 0
-459 -1059 410 0
-459 -1058 410 0
-459 410 436 0
-459 -1058 436 0
460 -1161 -461 0
-460 1161 0
-460 461 0
-461 1013 462 0
-461 -1013 -1032 -501 0
-461 1013 1032 0
461 -1013 1032 0
461 1013 -1032 -462 0
461 -1013 501 0
-462 55 -401 499 0
-462 55 401 463 0
462 -55 0
462 -401 -499 0
462 401 -463 0
-463 -1054 488 0
-463 464 490 0
-463 464 488 0
-463 -1054 464 0
-463 488 490 0
-463 -1054 490 0
463 -464 -488 -490 0
463 1054 -488 -490 0
463 1054 -464 -490 0
463 1054 -464 -488 0
-464 465 485 0
464 -465 0
464 -485 0
-465 466 482 0
465 -466 0
465 -482 0
-466 467 480 0
466 -467 0
466 -480 0
467 -468 -475 0
-467 468 0
-467 475 0
-468 469 470 472 0
-468 469 470 -471 0
468 -469 0
468 -470 0
468 471 -472 0
469 1009 -1010 -1011 -402 0
-469 -1009 0
-469 402 0
-469 1011 0
-469 1010 0
470 1009 -1010 1011 -402 0
-470 1010 0
-470 -1011 0
-470 -1009 0
-470 402 0
471 -1009 1010 1011 -402 0
-471 402 0
-471 -1011 0
-471 1009 0
-471 -1010 0
-472 -219 473 0
-472 64 473 0
472 -473 0
472 -64 219 0
473 -402 -474 0
-473 402 0
-473 474 0
474 1009 1010 -1011 0
-474 1011 0
-474 -1010 0
-474 -1009 0
475 -476 -478 0
-475 476 0
-475 478 0
476 1004 -1005 0
476 -1004 1005 -1009 0
476 -1004 1005 -477 0
-476 -1004 -1005 0
-476 1004 1005 0
-476 1005 1009 477 0
-477 1010 1011 0
477 -1010 0
477 -1011 0
-478 469 -470 0
-478 469 471 479 0
478 -469 0
478 470 -479 0
478 470 -471 0
-479 -228 473 0
-479 64 473 0
479 -473 0
479 -64 228 0
480 469 -470 -476 0
480 469 -476 -481 0
-480 -469 0
-480 476 0
-480 470 481 0
481 471 -473 0
481 -64 211 471 0
-481 -471 0
-481 -211 473 0
-481 64 473 0
482 -469 -476 0
482 -476 -483 0
-482 476 0
-482 469 483 0
483 470 -484 0
483 470 -473 0
483 470 -471 0
-483 -470 0
-483 471 473 484 0
484 -64 199 0
-484 64 0
-484 -199 0
485 -476 -486 0
-485 476 0
-485 486 0
486 469 -470 0
486 469 -487 0
486 469 -471 0
-486 -469 0
-486 470 471 487 0
-487 -190 473 0
-487 64 473 0
487 -473 0
487 -64 190 0
488 469 470 -476 489 0
-488 -469 0
-488 -489 0
-488 476 0
-488 -470 0
-489 64 471 473 0
-489 -159 471 473 0
489 -473 0
489 -471 0
489 -64 159 0
-490 1055 -491 0
-490 -491 492 0
-490 1055 492 0
490 491 -492 0
490 -1055 491 0
490 -1055 -492 0
491 465 -485 0
491 -465 485 0
-491 -465 -485 0
-491 465 485 0
-492 1056 -493 0
-492 -493 494 0
-492 1056 494 0
492 493 -494 0
492 -1056 493 0
492 -1056 -494 0
493 466 -482 0
493 -466 482 0
-493 -466 -482 0
-493 466 482 0
-494 1057 -495 0
-494 -495 496 0
-494 1057 496 0
494 495 -496 0
494 -1057 495 0
494 -1057 -496 0
495 467 -480 0
495 -467 480 0
-495 -467 -480 0
-495 467 480 0
-496 1058 498 0
-496 -497 498 0
-496 1058 -497 0
-496 1059 498 0
-496 1058 1059 0
496 -1058 -498 0
496 -1058 -1059 497 0
496 -1059 497 -498 0
497 -468 -476 0
-497 468 0
-497 476 0
-498 476 0
-498 468 478 0
-498 -468 -478 0
498 -468 -476 478 0
498 468 -476 -478 0
499 1054 -1055 0
499 1054 -500 0
-499 -1054 0
-499 1055 500 0
500 -1056 -1057 0
500 -1056 -1059 0
500 -1056 -1058 0
-500 1056 0
-500 1057 1058 1059 0
-501 502 512 521 0
-501 401 512 521 0
501 -521 0
501 -512 0
501 -401 -502 0
502 -1054 1055 -504 0
502 -1054 503 -504 0
-502 1054 0
-502 504 0
-502 -1055 -503 0
503 -1056 -1057 0
503 -1056 -1058 -1059 0
-503 1056 0
-503 1057 1059 0
-503 1057 1058 0
-504 -1012 -443 0
-504 65 505 0
-504 -1012 505 0
504 1012 -65 0
504 443 -505 0
504 1012 -505 0
505 -1105 -506 0
505 -506 511 0
505 -1105 511 0
-505 1105 -511 0
-505 506 -511 0
-505 1105 506 0
506 -1106 509 0
506 -1107 507 509 0
506 -1106 -1107 507 0
-506 1106 -509 0
-506 -507 -509 0
-506 1106 -507 0
-506 1107 -509 0
-506 1106 1107 0
-507 64 508 0
507 -64 0
507 -508 0
508 -1009 1010 1011 -402 0
508 1009 -1010 -1011 -402 0
-508 -1010 1011 0
-508 -1009 -1011 0
-508 402 0
-508 1009 1010 0
509 64 -510 0
-509 -64 0
-509 510 0
510 -1009 1010 1011 -402 0
510 1009 -1010 1011 -402 0
-510 402 0
-510 1009 1010 0
-510 -1011 0
-510 -1009 -1010 0
-511 64 473 0
511 -64 0
511 -473 0
512 1012 401 -505 513 0
-512 -1012 0
-512 -513 0
-512 505 0
-512 -401 0
513 514 -515 0
-513 -514 0
-513 515 0
514 -1054 488 0
-514 1054 0
-514 -488 0
-515 -1054 -488 517 0
-515 1054 488 516 0
-515 1054 488 517 0
-515 -1054 -488 516 0
515 1054 -488 0
515 -1054 488 0
515 -516 -517 0
-516 1055 485 0
516 -1055 0
516 -485 0
-517 1056 518 519 0
-517 482 518 519 0
-517 1056 482 518 0
517 -1056 -482 0
517 -482 -519 0
517 -518 0
517 -1056 -519 0
518 -1055 -485 0
-518 1055 0
-518 485 0
519 -1057 -480 0
519 -480 -520 0
519 -1057 -520 0
-519 1057 520 0
-519 480 520 0
-519 1057 480 0
520 -1058 -475 0
520 -1058 -1059 -497 0
520 -1059 -475 -497 0
-520 475 497 0
-520 1058 1059 0
-520 1058 475 0
-520 1059 475 0
-520 1058 497 0
-521 505 522 0
-521 -513 522 0
-521 -401 522 0
521 -522 0
521 401 -505 513 0
-522 505 0
-522 -513 0
-522 523 -524 0
522 -505 513 524 0
522 -523 -505 513 0
523 -65 401 0
-523 65 0
-523 -401 0
-524 65 401 444 0
524 -65 0
524 -444 0
524 -401 0
525 -1161 526 532 0
-525 1161 0
-525 -532 0
-525 -526 0
526 527 -528 0
-526 -527 0
-526 528 0
527 -1089 -68 0
527 46 -68 0
-527 68 0
-527 1089 -46 0
528 529 -530 0
-528 -529 0
-528 530 0
529 1083 1084 -68 0
-529 68 0
-529 -1084 0
-529 -1083 0
530 -1033 -338 531 0
-530 1033 0
-530 338 0
-530 -531 0
531 1090 1091 -46 0
-531 46 0
-531 -1091 0
-531 -1090 0
532 533 -534 0
532 1012 1013 -533 0
-532 533 534 0
-532 -1012 -533 0
-532 -1013 -533 0
533 -1033 338 0
-533 1033 0
-533 -338 0
534 535 -537 0
534 -1014 535 538 0
-534 -535 0
-534 537 -538 0
-534 1014 537 0
535 -1033 -338 -531 -536 0
-535 531 0
-535 536 0
-535 1033 0
-535 338 0
-536 -1014 -1015 0
-536 1015 1016 0
-536 -1015 -1016 0
536 1015 -1016 0
536 1014 -1015 1016 0
537 -529 -530 -536 0
-537 529 0
-537 530 0
-537 536 0
538 -527 -528 -536 0
-538 527 0
-538 528 0
-538 536 0
539 -1161 540 543 -544 0
-539 544 0
-539 1161 0
-539 -543 0
-539 -540 0
-540 1094 542 0
-540 541 542 0
-540 -1013 542 0
540 -542 0
540 1013 -1094 -541 0
541 -1033 1092 44 49 0
-541 -49 0
-541 -44 0
-541 1033 0
-541 -1092 0
-542 541 0
-542 1094 0
-542 1004 -1012 0
542 -1004 -1094 -541 0
542 1012 -1094 -541 0
-543 1033 0
-543 44 49 0
543 -1033 -44 0
543 -1033 -49 0
544 545 550 -553 0
544 -1017 545 550 0
-544 -550 0
-544 -545 0
-544 1017 553 0
-545 1094 547 0
-545 546 547 0
-545 -1013 547 0
545 -547 0
545 1013 -1094 -546 0
546 -1033 1092 49 -64 0
-546 64 0
-546 -49 0
-546 1033 0
-546 -1092 0
-547 1094 548 0
-547 546 548 0
-547 -1012 548 0
547 -548 0
547 1012 -1094 -546 0
-548 549 0
-548 1094 0
-548 -1012 -1013 0
548 1012 -1094 -549 0
548 1013 -1094 -549 0
549 -1033 1092 44 72 0
-549 -72 0
-549 -44 0
-549 1033 0
-549 -1092 0
-550 -1012 0
-550 -1013 0
-550 551 552 0
550 1012 1013 -552 0
550 1012 1013 -551 0
551 -1033 44 72 0
-551 1033 0
-551 -44 0
-551 -72 0
552 -1033 49 -64 0
-552 1033 0
-552 -49 0
-552 64 0
-553 1092 0
-553 1033 0
-553 1004 1012 0
553 -1004 -1033 -1092 0
553 -1012 -1033 -1092 0
554 -1161 540 555 0
554 -1161 540 -543 0
-554 1161 0
-554 -540 0
-554 543 -555 0
555 545 -550 0
555 -1018 545 553 0
-555 -545 0
-555 550 -553 0
-555 1018 550 0
556 -1161 540 543 557 0
-556 -543 0
-556 -557 0
-556 1161 0
-556 -540 0
557 -1019 545 550 553 0
-557 -553 0
-557 1019 0
-557 -550 0
-557 -545 0
558 -1034 -1161 0
-558 1034 0
-558 1161 0
559 -1033 -1161 0
-559 1033 0
-559 1161 0
560 -1161 -363 0
560 -1161 -561 0
560 -1161 -364 0
-560 1161 0
-560 363 364 561 0
-561 354 361 0
561 -354 0
561 -361 0
562 -1031 -1161 0
-562 1031 0
-562 1161 0
563 -1032 -1161 0
-563 1032 0
-563 1161 0
564 -1028 -1161 0
-564 1028 0
-564 1161 0
565 -1029 -1161 0
-565 1029 0
-565 1161 0
566 -1035 -1161 0
-566 1035 0
-566 1161 0
567 1035 -1086 0
567 987 -1035 -568 0
-567 -987 -1035 0
-567 1035 1086 0
-567 -1035 568 0
-568 988 989 0
568 -988 0
568 -989 0
569 1035 -1087 0
569 -1035 570 0
-569 -1035 -570 0
-569 1035 1087 0
-570 -987 -1158 0
-570 987 -988 -989 0
-570 987 988 989 0
570 -987 1158 0
570 987 -988 989 0
570 987 988 -989 0
571 1035 -1088 0
571 -1035 572 0
-571 -1035 -572 0
-571 1035 1088 0
-572 987 989 0
-572 -987 1158 -1159 0
572 987 -989 0
572 -987 1159 0
572 -987 -1158 0
573 -1161 -583 0
573 -934 1161 -574 0
-573 1161 574 0
-573 -1161 583 0
-573 934 1161 0
574 -931 -932 -933 -575 0
-574 575 0
-574 931 0
-574 933 0
-574 932 0
575 918 929 930 -576 0
-575 576 0
-575 -930 0
-575 -918 0
-575 -929 0
576 907 908 917 -577 0
-576 577 0
-576 -917 0
-576 -907 0
-576 -908 0
577 850 851 852 -578 0
577 -850 851 852 578 0
-577 -851 0
-577 850 578 0
-577 -852 0
-577 -850 -578 0
-578 886 579 0
-578 886 -953 0
-578 885 886 0
578 -886 0
578 -885 953 -579 0
-579 -862 580 0
-579 -862 954 0
-579 954 580 0
579 -954 -580 0
579 862 -580 0
579 862 -954 0
-580 -863 581 0
-580 -863 955 0
-580 955 581 0
580 -955 -581 0
580 863 -581 0
580 863 -955 0
-581 -864 582 0
-581 -864 956 0
-581 956 582 0
581 -956 -582 0
581 864 -582 0
581 864 -956 0
-582 -865 -866 0
-582 -866 957 0
-582 -865 957 0
-582 957 958 0
-582 -865 958 0
582 865 -957 0
582 866 -957 -958 0
582 865 866 -958 0
583 -850 -1160 -584 -847 0
583 850 -1160 -584 847 0
-583 1160 0
-583 850 -847 0
-583 584 0
-583 -850 847 0
584 1158 -585 610 623 0
584 -1158 585 610 623 0
-584 -623 0
-584 1158 585 0
-584 -610 0
-584 -1158 -585 0
585 -4 -586 609 0
585 -4 586 589 0
-585 4 0
-585 -586 -609 0
-585 586 -589 0
586 -1000 1002 587 0
-586 1000 0
-586 -587 0
-586 -1002 0
587 -1001 -360 588 0
587 -1001 -1054 -360 0
-587 1001 0
-587 360 0
-587 1054 -588 0
588 -1055 -500 0
-588 1055 0
-588 500 0
589 590 -593 0
589 909 -590 0
589 -1139 -590 0
-589 590 593 0
-589 -909 1139 -590 0
590 1000 -1002 591 0
-590 -1000 0
-590 1002 0
-590 -591 0
591 -1003 1054 -357 0
591 -1003 -357 -592 0
-591 1003 0
-591 357 0
-591 -1054 592 0
-592 1055 1056 0
592 -1055 0
592 -1056 0
593 -1140 -594 0
593 594 -597 0
-593 1140 -594 0
-593 594 597 0
594 595 -596 0
-594 -595 0
-594 596 0
595 -1002 -591 0
-595 1002 0
-595 591 0
596 -1000 -1002 587 0
-596 1000 0
-596 1002 0
-596 -587 0
597 598 -599 0
597 -909 -598 0
597 -1141 -598 0
-597 598 599 0
-597 909 1141 -598 0
598 -1000 1002 -587 0
-598 1000 0
-598 -1002 0
-598 587 0
-599 600 0
599 -600 0
600 601 -602 0
600 909 -601 0
600 -1145 -601 0
-600 601 602 0
-600 -909 1145 -601 0
601 1000 -1002 -591 0
-601 591 0
-601 1002 0
-601 -1000 0
-602 603 0
602 -603 0
603 604 -605 0
603 -604 -608 0
-603 -604 608 0
-603 604 605 0
604 -595 -596 0
-604 595 0
-604 596 0
605 -606 -607 0
605 -1156 606 0
-605 -606 607 0
-605 1156 606 0
606 -1000 -1002 595 -587 0
-606 587 0
-606 1000 0
-606 1002 0
-606 -595 0
607 909 -1153 0
607 -909 -1155 0
-607 -909 1155 0
-607 909 1153 0
608 -909 -1150 0
608 909 -1152 0
-608 909 1152 0
-608 -909 1150 0
-609 909 1138 0
609 -909 0
609 -1138 0
-610 -1159 -611 0
-610 1159 611 0
610 1159 -611 0
610 -1159 611 0
611 -4 -612 0
-611 4 0
-611 612 0
612 586 -613 0
612 909 1138 -586 0
-612 586 613 0
-612 -909 -586 0
-612 -1138 -586 0
613 590 -614 0
613 -909 1139 -590 0
-613 590 614 0
-613 909 -590 0
-613 -1139 -590 0
614 1140 -594 0
614 594 -615 0
-614 -1140 -594 0
-614 594 615 0
615 598 -616 0
615 909 -1142 -598 0
-615 598 616 0
-615 -909 -598 0
-615 1142 -598 0
-616 617 0
616 -617 0
617 601 -618 0
617 -909 -1146 -601 0
-617 601 618 0
-617 1146 -601 0
-617 909 -601 0
-618 619 0
618 -619 0
619 604 -620 0
619 -604 622 0
-619 -604 -622 0
-619 604 620 0
620 -606 -621 0
620 -1157 606 0
-620 -606 621 0
-620 1157 606 0
621 909 -1154 0
621 -909 1155 0
-621 -909 -1155 0
-621 909 1154 0
-622 -909 -1151 0
-622 909 1152 0
622 -909 1151 0
622 909 -1152 0
-623 853 624 625 627 0
-623 -853 -624 625 627 0
623 -627 0
623 -853 624 0
623 -625 0
623 853 -624 0
624 -861 -1004 0
624 861 -1020 0
-624 861 1020 0
-624 -861 1004 0
-625 -854 -626 0
-625 854 626 0
625 854 -626 0
625 -854 626 0
626 -861 -1005 0
626 861 -1021 0
-626 861 1021 0
-626 -861 1005 0
-627 855 628 629 631 0
-627 -855 -628 629 631 0
627 -631 0
627 -855 628 0
627 -629 0
627 855 -628 0
628 -861 -1006 0
628 861 -1022 0
-628 861 1022 0
-628 -861 1006 0
-629 -856 -630 0
-629 856 630 0
629 856 -630 0
629 -856 630 0
630 -861 -1007 0
630 861 -1023 0
-630 861 1023 0
-630 -861 1007 0
-631 857 632 633 635 0
-631 -857 -632 633 635 0
631 -635 0
631 -857 632 0
631 -633 0
631 857 -632 0
632 -861 -1008 0
632 861 -1024 0
-632 861 1024 0
-632 -861 1008 0
-633 -858 -634 0
-633 858 634 0
633 858 -634 0
633 -858 634 0
634 -861 -1009 0
634 861 -1025 0
-634 861 1025 0
-634 -861 1009 0
-635 859 636 637 639 0
-635 -859 -636 637 639 0
635 -639 0
635 -859 636 0
635 -637 0
635 859 -636 0
636 -861 -1010 0
636 861 -1026 0
-636 861 1026 0
-636 -861 1010 0
-637 -860 -638 0
-637 860 638 0
637 860 -638 0
637 -860 638 0
638 -861 -1011 0
638 861 -1027 0
-638 861 1027 0
-638 -861 1011 0
-639 897 640 641 643 0
-639 -897 -640 641 643 0
639 -643 0
639 -897 640 0
639 -641 0
639 897 -640 0
640 -861 -1064 0
640 861 -1072 0
-640 861 1072 0
-640 -861 1064 0
-641 -898 -642 0
-641 898 642 0
641 898 -642 0
641 -898 642 0
642 -861 -1072 0
642 861 -1073 0
-642 861 1073 0
-642 -861 1072 0
-643 899 644 645 647 0
-643 -899 -644 645 647 0
643 -647 0
643 -899 644 0
643 -645 0
643 899 -644 0
644 -861 -1073 0
644 861 -1074 0
-644 861 1074 0
-644 -861 1073 0
-645 -900 -646 0
-645 900 646 0
645 900 -646 0
645 -900 646 0
646 -861 -1074 0
646 861 -1075 0
-646 861 1075 0
-646 -861 1074 0
-647 901 648 649 651 0
-647 -901 -648 649 651 0
647 -651 0
647 -901 648 0
647 -649 0
647 901 -648 0
648 -861 -1075 0
648 861 -1076 0
-648 861 1076 0
-648 -861 1075 0
-649 -902 -650 0
-649 902 650 0
649 902 -650 0
649 -902 650 0
650 -861 -1076 0
650 861 -1077 0
-650 861 1077 0
-650 -861 1076 0
-651 903 652 653 655 0
-651 -903 -652 653 655 0
651 -655 0
651 -903 652 0
651 -653 0
651 903 -652 0
652 -861 -1077 0
652 861 -1078 0
-652 861 1078 0
-652 -861 1077 0
-653 -904 -654 0
-653 904 654 0
653 904 -654 0
653 -904 654 0
654 -861 -1078 0
654 861 -1079 0
-654 861 1079 0
-654 -861 1078 0
-655 905 656 657 659 0
-655 -905 -656 657 659 0
655 -659 0
655 -905 656 0
655 -657 0
655 905 -656 0
656 -861 -1079 0
656 861 -1080 0
-656 861 1080 0
-656 -861 1079 0
-657 -906 -658 0
-657 906 658 0
657 906 -658 0
657 -906 658 0
658 -861 -1080 0
658 861 -1081 0
-658 861 1081 0
-658 -861 1080 0
-659 917 660 662 663 0
-659 -917 660 -662 663 0
659 -663 0
659 -917 662 0
659 -660 0
659 917 -662 0
-660 -916 -661 0
-660 916 661 0
660 916 -661 0
660 -916 661 0
661 -861 -1089 0
661 861 -1095 0
-661 861 1095 0
-661 -861 1089 0
662 -861 -1083 0
662 861 -1096 0
-662 861 1096 0
-662 -861 1083 0
-663 918 664 665 667 0
-663 -918 -664 665 667 0
663 -667 0
663 -918 664 0
663 -665 0
663 918 -664 0
664 -861 -1084 0
664 861 -1097 0
-664 861 1097 0
-664 -861 1084 0
-665 -919 -666 0
-665 919 666 0
665 919 -666 0
665 -919 666 0
666 -861 -1085 0
666 861 -1098 0
-666 861 1098 0
-666 -861 1085 0
-667 920 668 669 671 0
-667 -920 -668 669 671 0
667 -671 0
667 -920 668 0
667 -669 0
667 920 -668 0
668 -861 -1086 0
668 861 -1099 0
-668 861 1099 0
-668 -861 1086 0
-669 -921 -670 0
-669 921 670 0
669 921 -670 0
669 -921 670 0
670 -861 -1087 0
670 861 -1100 0
-670 861 1100 0
-670 -861 1087 0
-671 922 672 673 675 0
-671 -922 -672 673 675 0
671 -675 0
671 -922 672 0
671 -673 0
671 922 -672 0
672 -861 -1088 0
672 861 -1101 0
-672 861 1101 0
-672 -861 1088 0
-673 -913 -674 0
-673 913 674 0
673 913 -674 0
673 -913 674 0
674 1035 -1092 0
674 909 -1035 -1085 0
674 -909 -1035 1085 0
-674 1035 1092 0
-674 909 -1035 1085 0
-674 -909 -1035 -1085 0
-675 923 676 677 679 0
-675 -923 -676 677 679 0
675 -679 0
675 -923 676 0
675 -677 0
675 923 -676 0
676 861 -1102 0
676 -861 450 0
-676 -861 -450 0
-676 861 1102 0
-677 -924 -678 0
-677 924 678 0
677 924 -678 0
677 -924 678 0
678 861 -1103 0
678 -861 -448 0
-678 -861 448 0
-678 861 1103 0
-679 925 680 681 683 0
-679 -925 -680 681 683 0
679 -683 0
679 -925 680 0
679 -681 0
679 925 -680 0
680 861 -1104 0
680 -861 446 0
-680 -861 -446 0
-680 861 1104 0
-681 -926 -682 0
-681 926 682 0
681 926 -682 0
681 -926 682 0
682 861 -1105 0
682 -861 -511 0
-682 -861 511 0
-682 861 1105 0
-683 927 684 685 687 0
-683 -927 -684 685 687 0
683 -687 0
683 -927 684 0
683 -685 0
683 927 -684 0
684 861 -1106 0
684 -861 -509 0
-684 -861 509 0
-684 861 1106 0
-685 -928 -686 0
-685 928 686 0
685 928 -686 0
685 -928 686 0
686 861 -1107 0
686 -861 -507 0
-686 -861 507 0
-686 861 1107 0
-687 929 688 689 691 0
-687 -929 -688 689 691 0
687 -691 0
687 -929 688 0
687 -689 0
687 929 -688 0
688 861 -1108 0
688 -861 -158 0
-688 -861 158 0
-688 861 1108 0
-689 -930 -690 0
-689 930 690 0
689 930 -690 0
689 -930 690 0
690 861 -1109 0
690 -861 -189 0
-690 -861 189 0
-690 861 1109 0
-691 931 692 693 695 0
-691 -931 -692 693 695 0
691 -695 0
691 -931 692 0
691 -693 0
691 931 -692 0
692 861 -1110 0
692 -861 -198 0
-692 -861 198 0
-692 861 1110 0
-693 -932 -694 0
-693 932 694 0
693 932 -694 0
693 -932 694 0
694 861 -1111 0
694 -861 -210 0
-694 -861 210 0
-694 861 1111 0
-695 933 696 697 699 0
-695 -933 -696 697 699 0
695 -699 0
695 -933 696 0
695 -697 0
695 933 -696 0
696 861 -1112 0
696 -861 -227 0
-696 -861 227 0
-696 861 1112 0
-697 -934 -698 0
-697 934 698 0
697 934 -698 0
697 -934 698 0
698 861 -1113 0
698 -861 1004 -219 0
-698 -861 -1004 0
-698 861 1113 0
-698 -861 219 0
-699 935 700 701 703 0
-699 -935 -700 701 703 0
699 -703 0
699 -935 700 0
699 -701 0
699 935 -700 0
700 861 -1114 0
700 -861 -110 0
-700 -861 110 0
-700 861 1114 0
-701 -936 -702 0
-701 936 702 0
701 936 -702 0
701 -936 702 0
702 861 -1115 0
702 -861 -115 0
-702 -861 115 0
-702 861 1115 0
-703 937 704 705 707 0
-703 -937 -704 705 707 0
703 -707 0
703 -937 704 0
703 -705 0
703 937 -704 0
704 861 -1116 0
704 -861 -120 0
-704 -861 120 0
-704 861 1116 0
-705 -938 -706 0
-705 938 706 0
705 938 -706 0
705 -938 706 0
706 861 -1117 0
706 -861 -125 0
-706 -861 125 0
-706 861 1117 0
-707 939 708 709 711 0
-707 -939 -708 709 711 0
707 -711 0
707 -939 708 0
707 -709 0
707 939 -708 0
708 861 -1118 0
708 -861 -131 0
-708 -861 131 0
-708 861 1118 0
-709 -940 -710 0
-709 940 710 0
709 940 -710 0
709 -940 710 0
710 861 -1119 0
710 -861 -137 0
-710 -861 137 0
-710 861 1119 0
-711 941 712 713 715 0
-711 -941 -712 713 715 0
711 -715 0
711 -941 712 0
711 -713 0
711 941 -712 0
712 -861 -1054 0
712 861 -1120 0
-712 861 1120 0
-712 -861 1054 0
-713 -942 -714 0
-713 942 714 0
713 942 -714 0
713 -942 714 0
714 -861 -1055 0
714 861 -1121 0
-714 861 1121 0
-714 -861 1055 0
-715 943 716 717 719 0
-715 -943 -716 717 719 0
715 -719 0
715 -943 716 0
715 -717 0
715 943 -716 0
716 -861 -1056 0
716 861 -1122 0
-716 861 1122 0
-716 -861 1056 0
-717 -944 -718 0
-717 944 718 0
717 944 -718 0
717 -944 718 0
718 -861 -1057 0
718 861 -1123 0
-718 861 1123 0
-718 -861 1057 0
-719 945 720 721 723 0
-719 -945 -720 721 723 0
719 -723 0
719 -945 720 0
719 -721 0
719 945 -720 0
720 -861 -1058 0
720 861 -1124 0
-720 861 1124 0
-720 -861 1058 0
-721 -946 -722 0
-721 946 722 0
721 946 -722 0
721 -946 722 0
722 -861 -1059 0
722 861 -1125 0
-722 861 1125 0
-722 -861 1059 0
-723 947 724 725 727 0
-723 -947 -724 725 727 0
723 -727 0
723 -947 724 0
723 -725 0
723 947 -724 0
724 861 -1126 0
724 -861 -1132 0
-724 -861 1132 0
-724 861 1126 0
-725 -948 -726 0
-725 948 726 0
725 948 -726 0
725 -948 726 0
726 861 -1127 0
726 -861 -1133 0
-726 -861 1133 0
-726 861 1127 0
-727 949 728 729 731 0
-727 -949 -728 729 731 0
727 -731 0
727 -949 728 0
727 -729 0
727 949 -728 0
728 861 -1128 0
728 -861 -1134 0
-728 -861 1134 0
-728 861 1128 0
-729 -950 -730 0
-729 950 730 0
729 950 -730 0
729 -950 730 0
730 861 -1129 0
730 -861 -1135 0
-730 -861 1135 0
-730 861 1129 0
-731 951 732 733 735 0
-731 -951 -732 733 735 0
731 -735 0
731 -951 732 0
731 -733 0
731 951 -732 0
732 861 -1130 0
732 -861 -1136 0
-732 -861 1136 0
-732 861 1130 0
-733 -952 -734 0
-733 952 734 0
733 952 -734 0
733 -952 734 0
734 861 -1131 0
734 -861 -1137 0
-734 -861 1137 0
-734 861 1131 0
-735 736 739 0
-735 -958 -1137 739 0
-735 958 1137 739 0
735 -739 0
735 958 -1137 -736 0
735 -958 1137 -736 0
-736 1031 1032 1033 737 0
736 -737 0
736 -1033 0
736 -1031 0
736 -1032 0
-737 1029 1034 1035 738 0
737 -738 0
737 -1035 0
737 -1029 0
737 -1034 0
-738 1028 1082 0
738 -1028 0
738 -1082 0
-739 736 740 0
-739 -957 -1136 740 0
-739 957 1136 740 0
739 -740 0
739 957 -1136 -736 0
739 -957 1136 -736 0
-740 736 741 0
-740 -956 -1135 741 0
-740 956 1135 741 0
740 -741 0
740 956 -1135 -736 0
740 -956 1135 -736 0
-741 736 742 0
-741 -955 -1134 742 0
-741 955 1134 742 0
741 -742 0
741 955 -1134 -736 0
741 -955 1134 -736 0
-742 736 743 0
-742 -954 -1133 743 0
-742 954 1133 743 0
742 -743 0
742 954 -1133 -736 0
742 -954 1133 -736 0
-743 736 744 0
-743 -953 -1132 744 0
-743 953 1132 744 0
743 -744 0
743 953 -1132 -736 0
743 -953 1132 -736 0
-744 736 745 0
-744 -862 -1037 745 0
-744 862 1037 745 0
744 -745 0
744 862 -1037 -736 0
744 -862 1037 -736 0
-745 736 746 0
-745 -863 -1038 746 0
-745 863 1038 746 0
745 -746 0
745 863 -1038 -736 0
745 -863 1038 -736 0
-746 736 747 0
-746 -864 -1039 747 0
-746 864 1039 747 0
746 -747 0
746 864 -1039 -736 0
746 -864 1039 -736 0
-747 736 748 0
-747 -865 -1040 748 0
-747 865 1040 748 0
747 -748 0
747 865 -1040 -736 0
747 -865 1040 -736 0
-748 736 749 0
-748 -866 -1041 749 0
-748 866 1041 749 0
748 -749 0
748 866 -1041 -736 0
748 -866 1041 -736 0
-749 736 750 0
-749 -867 -1042 750 0
-749 867 1042 750 0
749 -750 0
749 867 -1042 -736 0
749 -867 1042 -736 0
-750 736 751 0
-750 -868 -1043 751 0
-750 868 1043 751 0
750 -751 0
750 868 -1043 -736 0
750 -868 1043 -736 0
-751 736 752 0
-751 -869 -1044 752 0
-751 869 1044 752 0
751 -752 0
751 869 -1044 -736 0
751 -869 1044 -736 0
-752 736 753 0
-752 -870 -1045 753 0
-752 870 1045 753 0
752 -753 0
752 870 -1045 -736 0
752 -870 1045 -736 0
-753 736 754 0
-753 -871 -1046 754 0
-753 871 1046 754 0
753 -754 0
753 871 -1046 -736 0
753 -871 1046 -736 0
-754 736 755 0
-754 -872 -1047 755 0
-754 872 1047 755 0
754 -755 0
754 872 -1047 -736 0
754 -872 1047 -736 0
-755 736 756 0
-755 -873 -1048 756 0
-755 873 1048 756 0
755 -756 0
755 873 -1048 -736 0
755 -873 1048 -736 0
-756 736 757 0
-756 -874 -1049 757 0
-756 874 1049 757 0
756 -757 0
756 874 -1049 -736 0
756 -874 1049 -736 0
-757 736 758 0
-757 -875 -1050 758 0
-757 875 1050 758 0
757 -758 0
757 875 -1050 -736 0
757 -875 1050 -736 0
-758 736 759 0
-758 -876 -1051 759 0
-758 876 1051 759 0
758 -759 0
758 876 -1051 -736 0
758 -876 1051 -736 0
-759 736 760 0
-759 -877 -1052 760 0
-759 877 1052 760 0
759 -760 0
759 877 -1052 -736 0
759 -877 1052 -736 0
-760 736 761 0
-760 -878 -1053 761 0
-760 878 1053 761 0
760 -761 0
760 878 -1053 -736 0
760 -878 1053 -736 0
-761 736 762 0
-761 -879 -1054 762 0
-761 879 1054 762 0
761 -762 0
761 879 -1054 -736 0
761 -879 1054 -736 0
-762 736 763 0
-762 -880 -1055 763 0
-762 880 1055 763 0
762 -763 0
762 880 -1055 -736 0
762 -880 1055 -736 0
-763 736 764 0
-763 -881 -1056 764 0
-763 881 1056 764 0
763 -764 0
763 881 -1056 -736 0
763 -881 1056 -736 0
-764 736 765 0
-764 -882 -1057 765 0
-764 882 1057 765 0
764 -765 0
764 882 -1057 -736 0
764 -882 1057 -736 0
-765 736 766 0
-765 -883 -1058 766 0
-765 883 1058 766 0
765 -766 0
765 883 -1058 -736 0
765 -883 1058 -736 0
-766 736 767 0
-766 -884 -1059 767 0
-766 884 1059 767 0
766 -767 0
766 884 -1059 -736 0
766 -884 1059 -736 0
-767 736 768 0
-767 885 886 768 0
767 -768 0
767 -886 -736 0
767 -885 -736 0
-768 887 769 770 0
-768 736 769 770 0
768 -770 0
768 -769 0
768 -887 -736 0
769 888 -1063 -736 0
769 -888 1063 -736 0
-769 736 0
-769 888 1063 0
-769 -888 -1063 0
-770 736 771 0
-770 -889 -1064 771 0
-770 889 1064 771 0
770 -771 0
770 889 -1064 -736 0
770 -889 1064 -736 0
-771 890 772 789 0
-771 736 772 789 0
771 -789 0
771 -772 0
771 -890 -736 0
772 -774 783 0
772 891 -773 783 0
772 -891 773 783 0
-772 -783 0
-772 891 773 774 0
-772 -891 -773 774 0
773 -1066 -736 0
-773 1066 0
-773 736 0
774 777 -779 0
774 -775 781 0
-774 775 779 0
-774 -777 -781 0
-774 775 -777 0
-774 779 -781 0
-775 -893 -776 0
-775 893 776 0
775 893 -776 0
775 -893 776 0
776 -1068 -736 0
-776 1068 0
-776 736 0
777 892 -778 0
777 -892 778 0
-777 -892 -778 0
-777 892 778 0
778 1067 -736 0
-778 -1067 0
-778 736 0
-779 -892 -780 0
-779 892 780 0
779 892 -780 0
779 -892 780 0
780 -1067 -736 0
-780 1067 0
-780 736 0
781 893 -782 0
781 -893 782 0
-781 -893 -782 0
-781 893 782 0
782 1068 -736 0
-782 -1068 0
-782 736 0
-783 -775 787 0
-783 784 787 788 0
783 -787 0
783 775 -788 0
783 775 -784 0
784 779 -785 0
-784 -779 0
-784 785 0
785 891 -786 0
785 -891 786 0
-785 -891 -786 0
-785 891 786 0
786 1066 -736 0
-786 -1066 0
-786 736 0
787 779 -781 -785 0
-787 -779 0
-787 781 0
-787 785 0
788 -777 -785 0
-788 777 0
-788 785 0
-789 801 809 0
-789 -790 -792 809 0
789 -809 0
789 792 -801 0
789 790 -801 0
790 894 -791 0
790 -894 791 0
-790 -894 -791 0
-790 894 791 0
791 1069 -736 0
-791 -1069 0
-791 736 0
-792 -795 797 0
-792 793 -799 0
-792 793 797 0
792 -793 795 0
792 -797 799 0
792 -793 -797 0
793 895 -794 0
793 -895 794 0
-793 -895 -794 0
-793 895 794 0
794 1070 -736 0
-794 -1070 0
-794 736 0
-795 -896 -796 0
-795 896 796 0
795 896 -796 0
795 -896 796 0
796 -1071 -736 0
-796 1071 0
-796 736 0
797 896 -798 0
797 -896 798 0
-797 -896 -798 0
-797 896 798 0
798 1071 -736 0
-798 -1071 0
-798 736 0
-799 -895 -800 0
-799 895 800 0
799 895 -800 0
799 -895 800 0
800 -1070 -736 0
-800 1070 0
-800 736 0
801 -802 805 806 0
801 -799 805 806 0
-801 -806 0
-801 -805 0
-801 799 802 0
-802 795 803 0
802 -795 0
802 -803 0
-803 -894 -804 0
-803 894 804 0
803 894 -804 0
803 -894 804 0
804 -1069 -736 0
-804 1069 0
-804 736 0
805 -797 799 803 0
-805 797 0
-805 -799 0
-805 -803 0
-806 793 807 808 0
-806 -802 807 808 0
806 -808 0
806 -807 0
806 -793 802 0
807 -793 -797 803 0
-807 793 0
-807 797 0
-807 -803 0
808 -790 795 799 0
-808 790 0
-808 -795 0
-808 -799 0
-809 812 817 0
-809 810 815 817 0
809 -817 0
809 -812 -815 0
809 -810 -812 0
-810 -908 -811 0
-810 908 811 0
810 908 -811 0
810 -908 811 0
811 1035 -1084 0
-811 -1035 0
-811 1084 0
-812 -1035 813 0
-812 908 1084 813 0
-812 -908 -1084 813 0
812 -813 0
812 908 1035 -1084 0
812 -908 1035 1084 0
-813 -907 -814 0
-813 907 814 0
813 907 -814 0
813 -907 814 0
814 1035 -1083 0
-814 -1035 0
-814 1083 0
-815 907 816 0
-815 -907 -816 0
815 -907 816 0
815 907 -816 0
-816 1035 1083 0
816 -1035 0
816 -1083 0
-817 -1035 818 0
-817 909 1085 818 0
-817 -909 -1085 818 0
817 -818 0
817 909 1035 -1085 0
817 -909 1035 1085 0
-818 819 826 833 834 0
818 -834 0
818 -833 0
818 -819 0
818 -826 0
819 -820 -823 0
819 911 -822 -823 0
819 -911 822 -823 0
-819 823 0
-819 911 820 822 0
-819 -911 820 -822 0
-820 -912 -821 0
-820 912 821 0
820 912 -821 0
820 -912 821 0
821 1035 -1091 0
-821 -1035 0
-821 1091 0
-822 1035 1090 0
822 -1035 0
822 -1090 0
823 -824 0
823 912 1035 -1091 0
823 -912 1035 1091 0
-823 -1035 824 0
-823 912 1091 824 0
-823 -912 -1091 824 0
-824 -911 -825 0
-824 911 825 0
824 911 -825 0
824 -911 825 0
825 1035 -1090 0
-825 -1035 0
-825 1090 0
826 -827 -829 0
826 -915 -829 832 0
826 915 -829 -832 0
-826 829 0
-826 915 827 832 0
-826 -915 827 -832 0
-827 -914 -828 0
-827 914 828 0
827 914 -828 0
827 -914 828 0
828 1035 -1093 0
-828 -1035 0
-828 1093 0
-829 -1035 830 0
-829 914 1093 830 0
-829 -914 -1093 830 0
829 -830 0
829 914 1035 -1093 0
829 -914 1035 1093 0
-830 -915 -831 0
-830 915 831 0
830 915 -831 0
830 -915 831 0
831 1035 -1094 0
-831 -1035 0
-831 1094 0
-832 1035 1094 0
832 -1035 0
832 -1094 0
833 -910 1035 1089 0
833 910 1035 -1089 0
-833 -1035 0
-833 -910 -1089 0
-833 910 1089 0
-834 736 844 0
-834 861 835 0
-834 736 835 0
-834 861 844 0
834 -835 -844 0
834 -861 -736 0
-835 -851 852 836 -841 0
-835 -851 -852 -836 -841 0
-835 851 852 836 841 0
-835 851 -852 -836 841 0
835 851 -841 0
835 -851 841 0
835 -852 836 0
835 852 -836 0
836 526 -837 0
836 526 -839 0
-836 -526 0
-836 837 839 0
837 -1012 -838 0
-837 1012 0
-837 838 0
838 -1013 -533 0
-838 1013 0
-838 533 0
-839 533 840 0
-839 1012 -1013 -533 0
839 533 -840 0
839 -1012 -533 0
839 1013 -533 0
840 535 537 -538 0
840 -1016 535 537 0
-840 -537 0
-840 -535 0
-840 1016 538 0
841 526 837 -842 0
-841 842 0
-841 -837 0
-841 -526 0
842 533 -843 0
842 1012 -1013 -533 0
-842 533 843 0
-842 -1012 -533 0
-842 1013 -533 0
843 535 -538 0
843 -1015 535 0
843 535 -537 0
-843 -535 0
-843 1015 537 538 0
-844 -851 852 845 -846 0
-844 -851 -852 -845 -846 0
-844 851 852 845 846 0
-844 851 -852 -845 846 0
844 851 -846 0
844 -851 846 0
844 -852 845 0
844 852 -845 0
845 526 837 -839 0
-845 -526 0
-845 839 0
-845 -837 0
846 526 -837 0
846 526 -842 0
-846 -526 0
-846 837 842 0
847 -1000 1028 0
847 1000 -1028 -849 0
847 -1000 848 0
-847 1000 849 0
-847 -1000 -1028 -848 0
-847 1000 1028 0
848 -1061 -338 0
848 -338 -344 0
-848 338 0
-848 1061 344 0
849 1000 1061 -338 344 0
-849 -1000 0
-849 -344 0
-849 338 0
-849 -1061 0
-1162 0
2 0
39 0
78 0
154 0
156 0
236 0
237 0
265 0
-315 0
-318 0
321 0
-323 0
-325 0
327 0
328 0
850 0
-335 0
-346 0
-351 0
-353 0
-365 0
367 0
379 0
381 0
383 0
393 0
395 0
398 0
460 0
-525 0
851 0
852 0
539 0
-554 0
-556 0
853 0
854 0
855 0
856 0
857 0
858 0
859 0
860 0
861 0
558 0
559 0
560 0
562 0
563 0
564 0
565 0
559 0
862 0
863 0
864 0
865 0
866 0
867 0
868 0
869 0
870 0
871 0
872 0
873 0
874 0
875 0
876 0
877 0
878 0
879 0
880 0
881 0
882 0
883 0
884 0
885 0
886 0
887 0
888 0
889 0
890 0
891 0
892 0
893 0
894 0
895 0
896 0
897 0
898 0
899 0
900 0
901 0
902 0
903 0
904 0
905 0
906 0
566 0
907 0
908 0
909 0
567 0
569 0
571 0
910 0
911 0
912 0
913 0
914 0
915 0
916 0
917 0
918 0
919 0
920 0
921 0
922 0
923 0
924 0
925 0
926 0
927 0
928 0
929 0
930 0
931 0
932 0
933 0
934 0
935 0
936 0
937 0
938 0
939 0
940 0
941 0
942 0
943 0
944 0
945 0
946 0
947 0
948 0
949 0
950 0
951 0
952 0
953 0
954 0
955 0
956 0
957 0
958 0
959 0
960 0
963 0
964 0
965 0
966 0
967 0
970 0
971 0
976 0
977 0
978 0
979 0
980 0
981 0
982 0
983 0
984 0
985 0
986 0
990 0
991 0
573 0
-1162 0

