c Result of efficient AIG-to-CNF conversion using package CNF
p cnf 2160 7568
2 -2158 -30 0
2 -2158 -3 -24 0
-2 2158 0
-2 3 30 0
-2 24 30 0
3 -1850 -1892 -4 -5 0
-3 5 0
-3 1850 0
-3 1892 0
-3 4 0
-4 1858 1860 0
4 -1858 0
4 -1860 0
5 1852 -12 0
5 1852 1959 -6 0
-5 -1852 0
-5 -1959 12 0
-5 6 12 0
6 1851 -7 0
-6 -1851 0
-6 7 0
7 1910 -1911 0
7 1910 -1912 -8 0
-7 -1910 0
-7 1911 8 0
-7 1911 1912 0
-8 1913 1914 0
-8 1913 1915 9 0
8 -1913 0
8 -1914 -1915 0
8 -1914 -9 0
-9 1916 1917 0
-9 1916 1918 10 0
9 -1916 0
9 -1917 -1918 0
9 -1917 -10 0
-10 1919 1920 1921 11 0
10 -11 0
10 -1921 0
10 -1919 0
10 -1920 0
-11 1922 1923 0
11 -1922 0
11 -1923 0
-12 1851 18 0
-12 1910 -13 18 0
12 -18 0
12 -1851 13 0
12 -1851 -1910 0
13 -1911 -1912 0
13 -1911 -14 0
13 -1911 -1913 0
-13 1911 0
-13 1912 1913 14 0
14 -1914 -1915 -15 0
14 -1914 -1915 -1916 0
-14 1914 0
-14 1915 0
-14 1916 15 0
-15 1917 1918 1919 16 0
15 -16 0
15 -1919 0
15 -1917 0
15 -1918 0
16 -1920 -1921 0
16 -1920 -17 0
-16 1920 0
-16 1921 17 0
17 -1922 -1923 -1925 0
17 -1922 -1923 -1924 0
-17 1922 0
-17 1923 0
-17 1924 1925 0
18 1851 -1959 -7 -19 0
-18 -1851 0
-18 19 0
-18 7 0
-18 1959 0
19 1926 -1927 0
19 1926 -20 0
19 1926 -1928 0
-19 -1926 0
-19 1927 1928 20 0
-20 1929 1930 0
-20 1929 1931 21 0
20 -1929 0
20 -1930 -1931 0
20 -1930 -21 0
-21 1932 1933 1934 22 0
21 -22 0
21 -1934 0
21 -1932 0
21 -1933 0
22 -1935 -1936 -23 0
22 -1935 -1936 -1937 0
-22 1935 0
-22 1936 0
-22 1937 23 0
-23 1938 1940 0
-23 1938 1939 0
-23 1938 1941 0
23 -1938 0
23 -1939 -1940 -1941 0
24 -1892 1958 -4 -25 0
-24 25 0
-24 4 0
-24 1892 0
-24 -1958 0
25 -1850 1851 -1852 -26 0
-25 26 0
-25 1850 0
-25 1852 0
-25 -1851 0
26 1910 -1911 -1912 0
26 1910 -1911 -27 0
-26 -1910 0
-26 1911 0
-26 1912 27 0
27 -1913 -1914 0
27 -1913 -28 0
27 -1913 -1915 0
-27 1913 0
-27 1914 1915 28 0
-28 1916 1917 1918 29 0
28 -29 0
28 -1918 0
28 -1916 0
28 -1917 0
-29 1919 1920 11 0
-29 1919 1920 1921 0
29 -1919 0
29 -1920 0
29 -1921 -11 0
-30 31 50 0
-30 24 49 50 0
30 -50 0
30 -31 -49 0
30 -24 -31 0
31 -1852 -1892 -4 -32 0
-31 1892 0
-31 32 0
-31 1852 0
-31 4 0
-32 -1959 39 44 0
-32 1959 33 39 0
32 -39 0
32 1959 -33 0
32 -1959 -44 0
33 1910 -1911 -38 0
33 1910 -34 -38 0
-33 -1910 0
-33 38 0
-33 1911 34 0
-34 1912 1913 35 0
-34 1912 1913 1914 0
34 -1912 0
34 -1913 0
34 -1914 -35 0
-35 1915 1916 36 0
-35 1915 1916 1917 0
35 -1915 0
35 -1916 0
35 -1917 -36 0
36 -1918 -1919 -1920 -37 0
-36 37 0
-36 1918 0
-36 1920 0
-36 1919 0
37 -1921 -1922 0
37 -1921 -1923 -1924 0
-37 1921 0
-37 1922 1924 0
-37 1922 1923 0
38 1850 -1851 0
-38 -1850 0
-38 1851 0
39 -1850 1851 -1910 0
39 -1850 1851 40 0
-39 1850 0
-39 -1851 0
-39 1910 -40 0
-40 1911 1912 0
-40 1911 1913 41 0
40 -1911 0
40 -1912 -1913 0
40 -1912 -41 0
-41 1914 1915 0
-41 1914 1916 42 0
41 -1914 0
41 -1915 -1916 0
41 -1915 -42 0
42 -1917 -1918 0
42 -1917 -43 0
42 -1917 -1919 0
-42 1917 0
-42 1918 1919 43 0
-43 1920 17 0
-43 1920 1921 0
43 -1920 0
43 -1921 -17 0
44 1926 -1927 -38 0
44 1926 -38 -45 0
-44 -1926 0
-44 38 0
-44 1927 45 0
-45 1928 1929 46 0
-45 1928 1929 1930 0
45 -1928 0
45 -1929 0
45 -1930 -46 0
-46 1931 1932 47 0
-46 1931 1932 1933 0
46 -1931 0
46 -1932 0
46 -1933 -47 0
47 -1934 -1935 -1936 -48 0
-47 48 0
-47 1934 0
-47 1936 0
-47 1935 0
48 -1937 -1938 0
48 -1937 -1939 -1940 0
-48 1937 0
-48 1938 1940 0
-48 1938 1939 0
49 1958 -3 0
-49 -1958 0
-49 3 0
-50 51 60 0
-50 24 49 60 0
50 -60 0
50 -49 -51 0
50 -24 -51 0
51 -1892 -4 52 0
-51 1892 0
-51 -52 0
-51 4 0
52 -53 59 0
52 -1959 54 0
52 -1959 -53 0
-52 53 -54 0
-52 1959 -59 0
-52 1959 53 0
-53 1850 1852 0
-53 1850 1851 0
53 -1850 0
53 -1851 -1852 0
54 1926 -1927 0
54 1926 -55 0
54 1926 -1928 0
-54 -1926 0
-54 1927 1928 55 0
-55 1929 1930 1931 56 0
55 -56 0
55 -1931 0
55 -1929 0
55 -1930 0
56 -1932 -1933 0
56 -1932 -57 0
56 -1932 -1934 0
-56 1932 0
-56 1933 1934 57 0
57 -1935 -1936 0
57 -1935 -1937 -58 0
-57 1935 0
-57 1936 58 0
-57 1936 1937 0
58 -1938 -1939 0
58 -1938 -1941 0
58 -1938 -1940 0
-58 1938 0
-58 1939 1940 1941 0
59 -1850 1851 1852 19 0
-59 -19 0
-59 -1852 0
-59 1850 0
-59 -1851 0
-60 61 62 0
-60 51 62 0
60 -62 0
60 -51 -61 0
61 1958 -31 0
-61 -1958 0
-61 31 0
-62 63 75 0
-62 24 49 75 0
62 -75 0
62 -49 -63 0
62 -24 -63 0
63 -1892 66 0
63 -1892 64 -65 0
-63 1892 0
-63 -64 -66 0
-63 65 -66 0
64 -1964 1965 -1966 0
-64 1964 0
-64 -1965 0
-64 1966 0
65 -1958 -1960 0
-65 1958 0
-65 1960 0
66 -1958 0
66 1959 -67 0
66 -67 74 0
-66 1958 67 0
-66 1958 -1959 -74 0
67 -4 68 0
67 1959 -4 0
67 -1850 -4 0
-67 4 0
-67 1850 -1959 -68 0
68 -1851 -1852 69 0
68 -1851 -1852 -1926 0
-68 1851 0
-68 1852 0
-68 1926 -69 0
-69 1927 1928 1929 70 0
69 -70 0
69 -1929 0
69 -1927 0
69 -1928 0
-70 1930 1931 1932 71 0
70 -71 0
70 -1932 0
70 -1930 0
70 -1931 0
71 -1933 -1934 -72 0
71 -1933 -1934 -1935 0
-71 1933 0
-71 1934 0
-71 1935 72 0
-72 1936 1937 0
-72 1936 1938 73 0
72 -1936 0
72 -1937 -1938 0
72 -1937 -73 0
-73 1939 1940 1941 0
73 -1939 0
73 -1941 0
73 -1940 0
74 -4 53 54 0
-74 4 0
-74 -53 0
-74 -54 0
-75 63 77 0
-75 61 76 77 0
75 -77 0
75 -63 -76 0
75 -61 -63 0
76 1958 -51 0
-76 -1958 0
-76 51 0
77 -24 -78 0
77 -78 -80 0
77 -49 -78 0
-77 78 0
-77 24 49 80 0
78 -1892 -1958 -79 0
78 -1892 -1958 1960 0
-78 1892 0
-78 1958 0
-78 -1960 79 0
79 -1964 1965 -1966 0
-79 1964 0
-79 -1965 0
-79 1966 0
-80 61 63 76 0
80 -61 0
80 -76 0
80 -63 0
81 -1889 -2158 -104 0
81 -1889 -2158 -82 0
-81 1889 0
-81 2158 0
-81 82 104 0
82 -83 -96 0
-82 83 0
-82 96 0
83 -84 89 0
-83 84 0
-83 -89 0
-84 -86 87 0
-84 85 -88 0
-84 -86 -88 0
-84 85 87 0
84 -85 86 0
84 -87 88 0
85 -1991 1992 1993 0
-85 1991 0
-85 -1993 0
-85 -1992 0
-86 1994 1995 1996 0
86 -1994 0
86 -1996 0
86 -1995 0
87 -2010 2011 2012 0
-87 2010 0
-87 -2012 0
-87 -2011 0
-88 2013 2014 2015 0
88 -2013 0
88 -2015 0
88 -2014 0
-89 -92 93 0
-89 90 -95 0
-89 -92 -95 0
-89 90 93 0
89 -90 92 0
89 -93 95 0
90 1980 -91 0
-90 -1980 0
-90 91 0
91 -1978 1979 0
-91 1978 0
-91 -1979 0
-92 1981 1982 1983 0
92 -1981 0
92 -1983 0
92 -1982 0
93 1999 -94 0
-93 -1999 0
-93 94 0
94 -1997 1998 0
-94 1997 0
-94 -1998 0
-95 2000 2001 2002 0
95 -2000 0
95 -2002 0
95 -2001 0
96 1862 -97 0
-96 -1862 0
-96 97 0
97 -98 101 0
-97 98 0
-97 -101 0
-98 99 100 0
-98 -88 100 0
-98 2012 100 0
98 -100 0
98 -2012 -99 88 0
99 -2010 2011 0
-99 2010 0
-99 -2011 0
100 -1991 1992 -1993 86 0
-100 -86 0
-100 1991 0
-100 1993 0
-100 -1992 0
-101 -95 102 0
-101 -92 103 0
-101 102 103 0
-101 -92 -95 0
101 92 -102 0
101 95 -103 0
102 -1980 -91 0
-102 1980 0
-102 91 0
103 -1999 -94 0
-103 1999 0
-103 94 0
-104 96 105 117 0
-104 105 111 117 0
104 -117 0
104 -105 0
104 -96 -111 0
105 -106 -110 0
-105 106 0
-105 110 0
106 1942 98 -101 0
106 98 -101 -107 0
-106 -98 0
-106 101 0
-106 -1942 107 0
-107 1943 108 0
-107 1943 1945 0
-107 1943 1944 0
107 -1943 0
107 -1944 -1945 -108 0
-108 1946 1947 1948 109 0
108 -109 0
108 -1948 0
108 -1946 0
108 -1947 0
109 -1949 -1950 -1951 -1952 0
-109 1952 0
-109 1949 0
-109 1951 0
-109 1950 0
110 1862 -83 0
-110 -1862 0
-110 83 0
111 -1942 84 -89 0
111 84 -89 112 0
-111 -84 0
-111 89 0
-111 1942 -112 0
112 -1943 -1944 0
112 -1943 -113 0
112 -1943 -1945 0
-112 1943 0
-112 1944 1945 113 0
113 -1946 -1947 -1948 -114 0
-113 1948 0
-113 114 0
-113 1946 0
-113 1947 0
-114 1949 115 0
114 -1949 0
114 -115 0
-115 1950 1951 116 0
115 -1950 0
115 -116 0
115 -1951 0
116 -1952 -1953 0
116 -1952 -1954 0
-116 1952 0
-116 1953 1954 0
-117 111 118 0
-117 106 118 0
117 -118 0
117 -106 -111 0
-118 119 128 0
-118 96 110 128 0
118 -128 0
118 -110 -119 0
118 -96 -119 0
119 106 -120 121 -122 0
-119 -106 0
-119 122 0
-119 -121 0
-119 120 0
120 1862 -1863 0
-120 -1862 0
-120 1863 0
-121 83 97 0
121 -83 0
121 -97 0
-122 120 123 0
-122 1878 -1879 123 0
122 -123 0
122 -1878 -120 0
122 1879 -120 0
-123 -125 126 0
-123 124 -127 0
-123 124 126 0
-123 -125 -127 0
123 -124 125 0
123 -126 127 0
124 1984 -91 0
-124 -1984 0
-124 91 0
125 1990 -1991 1992 1993 0
-125 1991 0
-125 -1993 0
-125 -1990 0
-125 -1992 0
126 2003 -94 0
-126 -2003 0
-126 94 0
127 2009 -2010 2011 2012 0
-127 2010 0
-127 -2012 0
-127 -2009 0
-127 -2011 0
-128 96 129 133 0
-128 129 130 133 0
128 -133 0
128 -129 0
128 -96 -130 0
129 -111 -119 0
-129 111 0
-129 119 0
130 111 121 131 -132 0
-130 -111 0
-130 132 0
-130 -131 0
-130 -121 0
-131 1862 1863 0
131 -1862 0
131 -1863 0
-132 123 -131 0
-132 1878 1879 123 0
132 -123 0
132 -1879 131 0
132 -1878 131 0
-133 130 134 0
-133 106 110 134 0
133 -134 0
133 -110 -130 0
133 -106 -130 0
-134 135 0
134 -135 0
135 -1862 -136 0
-135 1862 0
-135 136 0
-136 106 111 119 130 0
136 -130 0
136 -119 0
136 -106 0
136 -111 0
137 -1889 -2158 -120 -138 0
-137 120 0
-137 138 0
-137 1889 0
-137 2158 0
-138 139 -317 0
-138 139 -320 0
-138 139 318 0
138 -139 0
138 317 -318 320 0
139 -189 190 0
139 -140 -190 0
-139 189 190 0
-139 140 -190 0
140 -2080 -141 0
-140 2080 0
-140 141 0
-141 -1958 -2080 0
-141 1958 147 0
-141 1958 142 0
141 -1958 2080 0
141 1958 -142 -147 0
-142 1958 143 0
142 -1958 0
142 -143 0
-143 1974 1975 1976 144 0
143 -144 0
143 -1976 0
143 -1974 0
143 -1975 0
-144 1971 1972 1973 145 0
144 -145 0
144 -1973 0
144 -1971 0
144 -1972 0
-145 1968 1969 1970 146 0
145 -146 0
145 -1970 0
145 -1968 0
145 -1969 0
-146 1959 1967 0
146 -1959 0
146 -1967 0
-147 -2035 -148 0
-147 148 152 0
147 2035 -148 0
147 148 -152 0
148 1958 -143 149 0
148 1958 1976 -143 0
-148 -1958 0
-148 143 0
-148 -1976 -149 0
149 -1973 -1974 -1975 -150 0
-149 150 0
-149 1973 0
-149 1975 0
-149 1974 0
150 -1970 -1971 -1972 -151 0
-150 151 0
-150 1970 0
-150 1972 0
-150 1971 0
151 -1959 -1967 -1968 -1969 0
-151 1969 0
-151 1959 0
-151 1968 0
-151 1967 0
-152 -153 -167 0
-152 153 165 185 0
152 153 -165 0
152 -153 167 0
152 153 -185 0
153 -1959 -154 160 0
-153 1959 0
-153 154 0
-153 -160 0
154 1958 -155 0
-154 -1958 0
-154 155 0
155 -2035 2036 2037 156 0
-155 -156 0
-155 -2037 0
-155 2035 0
-155 -2036 0
-156 2038 2039 2040 157 0
156 -157 0
156 -2040 0
156 -2038 0
156 -2039 0
-157 2041 2042 2043 158 0
157 -158 0
157 -2043 0
157 -2041 0
157 -2042 0
-158 2044 2045 2046 159 0
158 -159 0
158 -2046 0
158 -2044 0
158 -2045 0
-159 2047 2048 2049 2050 0
159 -2050 0
159 -2049 0
159 -2047 0
159 -2048 0
160 1926 -1927 0
160 1926 -161 0
160 1926 -1928 0
-160 -1926 0
-160 1927 1928 161 0
-161 1929 1930 162 0
-161 1929 1930 1931 0
161 -1929 0
161 -1930 0
161 -1931 -162 0
162 -1932 -1933 0
162 -1932 -163 0
162 -1932 -1934 0
-162 1932 0
-162 1933 1934 163 0
163 -1935 -1936 -1937 -164 0
-163 1937 0
-163 164 0
-163 1935 0
-163 1936 0
-164 1938 1939 1940 0
164 -1938 0
164 -1940 0
164 -1939 0
165 2035 -166 0
-165 -2035 0
-165 166 0
166 -1959 -154 -160 0
-166 1959 0
-166 154 0
-166 160 0
167 168 -169 0
167 1926 -2080 169 0
-167 2080 169 0
-167 -168 -169 0
-167 -1926 169 0
-168 -1926 -2080 0
-168 1926 2080 0
168 1926 -2080 0
168 -1926 2080 0
-169 1926 -2080 0
-169 -2080 170 0
-169 1926 170 0
169 2080 -170 0
169 -1926 2080 0
169 -1926 -170 0
-170 1927 -2081 0
-170 -2081 171 0
-170 1927 171 0
170 2081 -171 0
170 -1927 2081 0
170 -1927 -171 0
-171 1928 -2082 0
-171 -2082 172 0
-171 1928 172 0
171 2082 -172 0
171 -1928 2082 0
171 -1928 -172 0
-172 1929 -2083 0
-172 -2083 173 0
-172 1929 173 0
172 2083 -173 0
172 -1929 2083 0
172 -1929 -173 0
-173 1930 -2084 0
-173 -2084 174 0
-173 1930 174 0
173 2084 -174 0
173 -1930 2084 0
173 -1930 -174 0
-174 1931 -2085 0
-174 -2085 175 0
-174 1931 175 0
174 2085 -175 0
174 -1931 2085 0
174 -1931 -175 0
-175 1932 -2086 0
-175 -2086 176 0
-175 1932 176 0
175 2086 -176 0
175 -1932 2086 0
175 -1932 -176 0
-176 1933 -2087 0
-176 -2087 177 0
-176 1933 177 0
176 2087 -177 0
176 -1933 2087 0
176 -1933 -177 0
-177 1934 -2088 0
-177 -2088 178 0
-177 1934 178 0
177 2088 -178 0
177 -1934 2088 0
177 -1934 -178 0
-178 1935 -2089 0
-178 -2089 179 0
-178 1935 179 0
178 2089 -179 0
178 -1935 2089 0
178 -1935 -179 0
-179 1936 -2090 0
-179 -2090 180 0
-179 1936 180 0
179 2090 -180 0
179 -1936 2090 0
179 -1936 -180 0
-180 1937 -2091 0
-180 -2091 181 0
-180 1937 181 0
180 2091 -181 0
180 -1937 2091 0
180 -1937 -181 0
-181 1938 -2092 0
-181 -2092 182 0
-181 1938 182 0
181 2092 -182 0
181 -1938 2092 0
181 -1938 -182 0
-182 1939 -2093 0
-182 -2093 183 0
-182 1939 183 0
182 2093 -183 0
182 -1939 2093 0
182 -1939 -183 0
-183 -2094 184 0
-183 1940 184 0
-183 1940 -2094 0
183 -1940 -184 0
183 -1940 2094 0
183 2094 -184 0
184 -1941 2095 0
-184 1941 0
-184 -2095 0
185 166 -186 0
185 166 -188 167 0
-185 -166 0
-185 186 -167 0
-185 186 188 0
186 -1959 -160 187 0
-186 1959 0
-186 160 0
-186 -187 0
-187 1958 155 0
187 -1958 0
187 -155 0
188 -1959 160 187 0
-188 1959 0
-188 -160 0
-188 -187 0
189 -2080 141 0
189 2080 -141 0
-189 2080 141 0
-189 -2080 -141 0
190 -191 192 0
-190 191 0
-190 -192 0
-191 2080 141 0
191 -2080 0
191 -141 0
192 193 -189 0
-192 -193 0
-192 189 0
193 -2080 199 0
193 -2080 -194 0
193 -194 199 0
-193 194 -199 0
-193 2080 -199 0
-193 2080 194 0
-194 -1958 -2080 0
-194 1958 195 0
-194 1958 142 0
194 -1958 2080 0
194 1958 -142 -195 0
-195 -2035 -148 0
-195 148 196 0
195 2035 -148 0
195 148 -196 0
-196 -153 -197 0
-196 153 165 198 0
196 153 -165 0
196 -153 197 0
196 153 -198 0
197 -170 168 0
197 170 -168 0
-197 170 168 0
-197 -170 -168 0
198 166 -186 0
198 166 -188 197 0
-198 -166 0
-198 186 -197 0
-198 186 188 0
-199 -2081 207 0
-199 -2081 200 0
-199 200 207 0
199 -200 -207 0
199 2081 -207 0
199 2081 -200 0
200 -1958 -2081 0
200 1958 -142 201 0
-200 -1958 2081 0
-200 1958 -201 0
-200 1958 142 0
-201 -2036 -148 0
-201 148 202 0
201 2036 -148 0
201 148 -202 0
-202 -153 -203 0
-202 153 205 0
202 153 -205 0
202 -153 203 0
203 -171 204 0
203 171 -204 0
-203 171 204 0
-203 -171 -204 0
-204 -1927 -2081 0
-204 1927 2081 0
204 1927 -2081 0
204 -1927 2081 0
-205 166 206 0
-205 -2036 -166 0
-205 166 -186 0
205 2036 -166 0
205 166 186 -206 0
206 -188 203 0
-206 188 0
-206 -203 0
-207 -2082 215 0
-207 -2082 208 0
-207 208 215 0
207 -208 -215 0
207 2082 -215 0
207 2082 -208 0
208 -1958 -2082 0
208 1958 -142 209 0
-208 -1958 2082 0
-208 1958 -209 0
-208 1958 142 0
-209 -2037 -148 0
-209 148 210 0
209 2037 -148 0
209 148 -210 0
-210 -153 -211 0
-210 153 213 0
210 153 -213 0
210 -153 211 0
211 -172 212 0
211 172 -212 0
-211 172 212 0
-211 -172 -212 0
-212 -1928 -2082 0
-212 1928 2082 0
212 1928 -2082 0
212 -1928 2082 0
-213 166 214 0
-213 -2037 -166 0
-213 166 -186 0
213 2037 -166 0
213 166 186 -214 0
214 -188 211 0
-214 188 0
-214 -211 0
-215 -2083 223 0
-215 -2083 216 0
-215 216 223 0
215 -216 -223 0
215 2083 -223 0
215 2083 -216 0
216 -1958 -2083 0
216 1958 -142 217 0
-216 -1958 2083 0
-216 1958 -217 0
-216 1958 142 0
-217 -2038 -148 0
-217 148 218 0
217 2038 -148 0
217 148 -218 0
-218 -153 -219 0
-218 153 221 0
218 153 -221 0
218 -153 219 0
219 -173 220 0
219 173 -220 0
-219 173 220 0
-219 -173 -220 0
-220 -1929 -2083 0
-220 1929 2083 0
220 1929 -2083 0
220 -1929 2083 0
-221 166 222 0
-221 -2038 -166 0
-221 166 -186 0
221 2038 -166 0
221 166 186 -222 0
222 -188 219 0
-222 188 0
-222 -219 0
-223 -2084 231 0
-223 -2084 224 0
-223 224 231 0
223 -224 -231 0
223 2084 -231 0
223 2084 -224 0
224 -1958 -2084 0
224 1958 -142 225 0
-224 -1958 2084 0
-224 1958 -225 0
-224 1958 142 0
-225 -2039 -148 0
-225 148 226 0
225 2039 -148 0
225 148 -226 0
-226 -153 -227 0
-226 153 229 0
226 153 -229 0
226 -153 227 0
227 -174 228 0
227 174 -228 0
-227 174 228 0
-227 -174 -228 0
-228 -1930 -2084 0
-228 1930 2084 0
228 1930 -2084 0
228 -1930 2084 0
-229 166 230 0
-229 -2039 -166 0
-229 166 -186 0
229 2039 -166 0
229 166 186 -230 0
230 -188 227 0
-230 188 0
-230 -227 0
-231 -2085 239 0
-231 -2085 232 0
-231 232 239 0
231 -232 -239 0
231 2085 -239 0
231 2085 -232 0
232 -1958 -2085 0
232 1958 -142 233 0
-232 -1958 2085 0
-232 1958 -233 0
-232 1958 142 0
-233 -2040 -148 0
-233 148 234 0
233 2040 -148 0
233 148 -234 0
-234 -153 -235 0
-234 153 237 0
234 153 -237 0
234 -153 235 0
235 -175 236 0
235 175 -236 0
-235 175 236 0
-235 -175 -236 0
-236 -1931 -2085 0
-236 1931 2085 0
236 1931 -2085 0
236 -1931 2085 0
-237 166 238 0
-237 -2040 -166 0
-237 166 -186 0
237 2040 -166 0
237 166 186 -238 0
238 -188 235 0
-238 188 0
-238 -235 0
-239 -2086 247 0
-239 -2086 240 0
-239 240 247 0
239 -240 -247 0
239 2086 -247 0
239 2086 -240 0
240 -1958 -2086 0
240 1958 -142 241 0
-240 -1958 2086 0
-240 1958 -241 0
-240 1958 142 0
-241 -2041 -148 0
-241 148 242 0
241 2041 -148 0
241 148 -242 0
-242 -153 -243 0
-242 153 245 0
242 153 -245 0
242 -153 243 0
243 -176 244 0
243 176 -244 0
-243 176 244 0
-243 -176 -244 0
-244 -1932 -2086 0
-244 1932 2086 0
244 1932 -2086 0
244 -1932 2086 0
-245 166 246 0
-245 -2041 -166 0
-245 166 -186 0
245 2041 -166 0
245 166 186 -246 0
246 -188 243 0
-246 188 0
-246 -243 0
-247 -2087 255 0
-247 -2087 248 0
-247 248 255 0
247 -248 -255 0
247 2087 -255 0
247 2087 -248 0
248 -1958 -2087 0
248 1958 -142 249 0
-248 -1958 2087 0
-248 1958 -249 0
-248 1958 142 0
-249 -2042 -148 0
-249 148 250 0
249 2042 -148 0
249 148 -250 0
-250 -153 -251 0
-250 153 253 0
250 153 -253 0
250 -153 251 0
251 -177 252 0
251 177 -252 0
-251 177 252 0
-251 -177 -252 0
-252 -1933 -2087 0
-252 1933 2087 0
252 1933 -2087 0
252 -1933 2087 0
-253 166 254 0
-253 -2042 -166 0
-253 166 -186 0
253 2042 -166 0
253 166 186 -254 0
254 -188 251 0
-254 188 0
-254 -251 0
-255 -2088 263 0
-255 -2088 256 0
-255 256 263 0
255 -256 -263 0
255 2088 -263 0
255 2088 -256 0
256 -1958 -2088 0
256 1958 -142 257 0
-256 -1958 2088 0
-256 1958 -257 0
-256 1958 142 0
-257 -2043 -148 0
-257 148 258 0
257 2043 -148 0
257 148 -258 0
-258 -153 -259 0
-258 153 261 0
258 153 -261 0
258 -153 259 0
259 -178 260 0
259 178 -260 0
-259 178 260 0
-259 -178 -260 0
-260 -1934 -2088 0
-260 1934 2088 0
260 1934 -2088 0
260 -1934 2088 0
-261 166 262 0
-261 -2043 -166 0
-261 166 -186 0
261 2043 -166 0
261 166 186 -262 0
262 -188 259 0
-262 188 0
-262 -259 0
-263 -2089 271 0
-263 -2089 264 0
-263 264 271 0
263 -264 -271 0
263 2089 -271 0
263 2089 -264 0
264 -1958 -2089 0
264 1958 -142 265 0
-264 -1958 2089 0
-264 1958 -265 0
-264 1958 142 0
-265 -2044 -148 0
-265 148 266 0
265 2044 -148 0
265 148 -266 0
-266 -153 -267 0
-266 153 269 0
266 153 -269 0
266 -153 267 0
267 -179 268 0
267 179 -268 0
-267 179 268 0
-267 -179 -268 0
-268 -1935 -2089 0
-268 1935 2089 0
268 1935 -2089 0
268 -1935 2089 0
-269 166 270 0
-269 -2044 -166 0
-269 166 -186 0
269 2044 -166 0
269 166 186 -270 0
270 -188 267 0
-270 188 0
-270 -267 0
-271 -2090 279 0
-271 -2090 272 0
-271 272 279 0
271 -272 -279 0
271 2090 -279 0
271 2090 -272 0
272 -1958 -2090 0
272 1958 -142 273 0
-272 -1958 2090 0
-272 1958 -273 0
-272 1958 142 0
-273 -2045 -148 0
-273 148 274 0
273 2045 -148 0
273 148 -274 0
-274 -153 -275 0
-274 153 277 0
274 153 -277 0
274 -153 275 0
275 -180 276 0
275 180 -276 0
-275 180 276 0
-275 -180 -276 0
-276 -1936 -2090 0
-276 1936 2090 0
276 1936 -2090 0
276 -1936 2090 0
-277 166 278 0
-277 -2045 -166 0
-277 166 -186 0
277 2045 -166 0
277 166 186 -278 0
278 -188 275 0
-278 188 0
-278 -275 0
-279 -2091 287 0
-279 -2091 280 0
-279 280 287 0
279 -280 -287 0
279 2091 -287 0
279 2091 -280 0
280 -1958 -2091 0
280 1958 -142 281 0
-280 -1958 2091 0
-280 1958 -281 0
-280 1958 142 0
-281 -2046 -148 0
-281 148 282 0
281 2046 -148 0
281 148 -282 0
-282 -153 -283 0
-282 153 285 0
282 153 -285 0
282 -153 283 0
283 -181 284 0
283 181 -284 0
-283 181 284 0
-283 -181 -284 0
-284 -1937 -2091 0
-284 1937 2091 0
284 1937 -2091 0
284 -1937 2091 0
-285 166 286 0
-285 -2046 -166 0
-285 166 -186 0
285 2046 -166 0
285 166 186 -286 0
286 -188 283 0
-286 188 0
-286 -283 0
-287 -2092 295 0
-287 -2092 288 0
-287 288 295 0
287 -288 -295 0
287 2092 -295 0
287 2092 -288 0
288 -1958 -2092 0
288 1958 -142 289 0
-288 -1958 2092 0
-288 1958 -289 0
-288 1958 142 0
-289 -2047 -148 0
-289 148 290 0
289 2047 -148 0
289 148 -290 0
-290 -153 -291 0
-290 153 293 0
290 153 -293 0
290 -153 291 0
291 -182 292 0
291 182 -292 0
-291 182 292 0
-291 -182 -292 0
-292 -1938 -2092 0
-292 1938 2092 0
292 1938 -2092 0
292 -1938 2092 0
-293 166 294 0
-293 -2047 -166 0
-293 166 -186 0
293 2047 -166 0
293 166 186 -294 0
294 -188 291 0
-294 188 0
-294 -291 0
-295 -2093 303 0
-295 -2093 296 0
-295 296 303 0
295 -296 -303 0
295 2093 -303 0
295 2093 -296 0
296 -1958 -2093 0
296 1958 -142 297 0
-296 -1958 2093 0
-296 1958 -297 0
-296 1958 142 0
-297 -2048 -148 0
-297 148 298 0
297 2048 -148 0
297 148 -298 0
-298 -153 -299 0
-298 153 301 0
298 153 -301 0
298 -153 299 0
299 -183 300 0
299 183 -300 0
-299 183 300 0
-299 -183 -300 0
-300 -1939 -2093 0
-300 1939 2093 0
300 1939 -2093 0
300 -1939 2093 0
-301 166 302 0
-301 -2048 -166 0
-301 166 -186 0
301 2048 -166 0
301 166 186 -302 0
302 -188 299 0
-302 188 0
-302 -299 0
-303 304 311 0
-303 -2094 304 0
-303 -2094 311 0
303 2094 -304 0
303 -304 -311 0
303 2094 -311 0
304 -1958 -2094 0
304 1958 -142 305 0
-304 -1958 2094 0
-304 1958 -305 0
-304 1958 142 0
-305 -2049 -148 0
-305 148 306 0
305 2049 -148 0
305 148 -306 0
-306 -153 -307 0
-306 153 309 0
306 153 -309 0
306 -153 307 0
307 -184 308 0
307 184 -308 0
-307 184 308 0
-307 -184 -308 0
-308 -1940 -2094 0
-308 1940 2094 0
308 1940 -2094 0
308 -1940 2094 0
-309 166 310 0
-309 -2049 -166 0
-309 166 -186 0
309 2049 -166 0
309 166 186 -310 0
310 -188 307 0
-310 188 0
-310 -307 0
311 2095 -312 0
-311 -2095 0
-311 312 0
312 -1958 -2095 0
312 1958 -142 313 0
-312 -1958 2095 0
-312 1958 -313 0
-312 1958 142 0
-313 -2050 -148 0
-313 148 314 0
313 2050 -148 0
313 148 -314 0
-314 153 315 0
-314 1941 -2095 -153 0
-314 -1941 2095 -153 0
314 153 -315 0
314 -1941 -2095 -153 0
314 1941 2095 -153 0
-315 166 316 0
-315 -2050 -166 0
-315 166 -186 0
315 2050 -166 0
315 166 186 -316 0
316 -1941 -2095 -188 0
316 1941 2095 -188 0
-316 188 0
-316 -1941 2095 0
-316 1941 -2095 0
317 193 -189 0
317 -193 189 0
-317 -193 -189 0
-317 193 189 0
-318 -199 -319 0
-318 199 319 0
318 199 -319 0
318 -199 319 0
319 -2080 194 0
319 2080 -194 0
-319 2080 194 0
-319 -2080 -194 0
-320 321 323 325 327 0
320 -327 0
320 -325 0
320 -321 0
320 -323 0
321 -207 322 0
321 207 -322 0
-321 207 322 0
-321 -207 -322 0
-322 -2081 -200 0
-322 2081 200 0
322 2081 -200 0
322 -2081 200 0
323 -215 324 0
323 215 -324 0
-323 215 324 0
-323 -215 -324 0
-324 -2082 -208 0
-324 2082 208 0
324 2082 -208 0
324 -2082 208 0
325 -223 326 0
325 223 -326 0
-325 223 326 0
-325 -223 -326 0
-326 -2083 -216 0
-326 2083 216 0
326 2083 -216 0
326 -2083 216 0
-327 328 330 334 0
-327 328 330 332 0
327 -328 0
327 -330 0
327 -332 -334 0
328 -231 329 0
328 231 -329 0
-328 231 329 0
-328 -231 -329 0
-329 -2084 -224 0
-329 2084 224 0
329 2084 -224 0
329 -2084 224 0
330 -239 331 0
330 239 -331 0
-330 239 331 0
-330 -239 -331 0
-331 -2085 -232 0
-331 2085 232 0
331 2085 -232 0
331 -2085 232 0
332 -247 333 0
332 247 -333 0
-332 247 333 0
-332 -247 -333 0
-333 -2086 -240 0
-333 2086 240 0
333 2086 -240 0
333 -2086 240 0
334 -335 -337 -339 -341 0
-334 341 0
-334 335 0
-334 339 0
-334 337 0
335 -255 336 0
335 255 -336 0
-335 255 336 0
-335 -255 -336 0
-336 -2087 -248 0
-336 2087 248 0
336 2087 -248 0
336 -2087 248 0
337 -263 338 0
337 263 -338 0
-337 263 338 0
-337 -263 -338 0
-338 -2088 -256 0
-338 2088 256 0
338 2088 -256 0
338 -2088 256 0
339 -271 340 0
339 271 -340 0
-339 271 340 0
-339 -271 -340 0
-340 -2089 -264 0
-340 2089 264 0
340 2089 -264 0
340 -2089 264 0
341 -342 -344 0
341 -342 -346 0
-341 342 0
-341 344 346 0
342 -279 343 0
342 279 -343 0
-342 279 343 0
-342 -279 -343 0
-343 -2090 -272 0
-343 2090 272 0
343 2090 -272 0
343 -2090 272 0
344 -287 345 0
344 287 -345 0
-344 287 345 0
-344 -287 -345 0
-345 -2091 -280 0
-345 2091 280 0
345 2091 -280 0
345 -2091 280 0
346 -295 347 0
346 295 -347 0
-346 295 347 0
-346 -295 -347 0
-347 -2092 -288 0
-347 2092 288 0
347 2092 -288 0
347 -2092 288 0
348 -1889 -2158 349 -354 0
-348 354 0
-348 1889 0
-348 2158 0
-348 -349 0
349 1926 -1927 0
349 1926 -350 0
349 1926 -1928 0
-349 -1926 0
-349 1927 1928 350 0
-350 1929 1930 351 0
-350 1929 1930 1931 0
350 -1929 0
350 -1930 0
350 -1931 -351 0
-351 1932 352 0
-351 1932 1934 0
-351 1932 1933 0
351 -1932 0
351 -1933 -1934 -352 0
-352 1935 1936 0
-352 1935 1937 353 0
352 -1935 0
352 -1936 -1937 0
352 -1936 -353 0
353 -1938 -1939 0
353 -1938 -1940 -1941 0
-353 1938 0
-353 1939 1941 0
-353 1939 1940 0
354 -1959 -101 0
-354 1959 0
-354 101 0
355 -1889 -2158 131 356 0
-355 -131 0
-355 -356 0
-355 1889 0
-355 2158 0
356 357 -412 0
356 357 -421 -431 0
-356 -357 0
-356 412 431 0
-356 412 421 0
357 1862 -358 0
-357 -1862 0
-357 358 0
358 130 -359 0
358 -130 -399 410 0
-358 -130 399 0
-358 130 359 0
-358 -130 -410 0
359 -119 364 0
359 111 119 -360 0
-359 -111 119 0
-359 -119 -364 0
-359 119 360 0
-360 106 -110 0
-360 96 106 361 0
360 -106 0
360 -96 110 0
360 110 -361 0
-361 2022 362 0
361 -2022 0
361 -362 0
-362 96 106 110 363 0
362 -363 0
362 -110 0
362 -96 0
362 -106 0
-363 1862 111 119 130 0
363 -130 0
363 -119 0
363 -1862 0
363 -111 0
364 2022 -365 0
-364 -2022 0
-364 365 0
365 366 -385 0
-365 -366 0
-365 385 0
366 -367 370 0
-366 367 0
-366 -370 0
367 -1942 1943 0
367 -1942 1944 368 0
-367 1942 0
-367 -1943 -1944 0
-367 -1943 -368 0
368 -1945 -1946 0
368 -1945 -369 0
368 -1945 -1947 0
-368 1945 0
-368 1946 1947 369 0
-369 1948 1949 0
-369 1948 115 0
369 -1948 0
369 -1949 -115 0
370 1942 -2022 0
370 1942 371 -372 0
370 -2022 371 -372 0
-370 2022 372 0
-370 -1942 -371 0
-370 -1942 2022 0
-370 -1942 372 0
-370 2022 -371 0
371 1943 -2023 0
-371 -1943 0
-371 2023 0
-372 1944 -2024 373 0
-372 1944 373 374 0
-372 -2024 373 374 0
372 2024 -374 0
372 -1944 2024 0
372 -373 0
372 -1944 -374 0
373 -1943 2023 0
-373 1943 0
-373 -2023 0
374 -1945 2025 0
374 -1945 375 -376 0
374 2025 375 -376 0
-374 1945 376 0
-374 -2025 376 0
-374 1945 -2025 0
-374 -2025 -375 0
-374 1945 -375 0
375 1946 -2026 0
-375 -1946 0
-375 2026 0
-376 1947 -2027 377 0
-376 1947 377 378 0
-376 -2027 377 378 0
376 2027 -378 0
376 -1947 2027 0
376 -377 0
376 -1947 -378 0
377 -1946 2026 0
-377 1946 0
-377 -2026 0
378 -1948 2028 0
378 -1948 379 -380 0
378 2028 379 -380 0
-378 1948 380 0
-378 -2028 380 0
-378 1948 -2028 0
-378 -2028 -379 0
-378 1948 -379 0
379 1949 -2029 0
-379 -1949 0
-379 2029 0
-380 1950 -2030 381 0
-380 1950 381 382 0
-380 -2030 381 382 0
380 2030 -382 0
380 -1950 2030 0
380 -381 0
380 -1950 -382 0
381 -1949 2029 0
-381 1949 0
-381 -2029 0
382 -1951 -383 0
382 -1951 2031 0
382 2031 -383 0
-382 -2031 383 0
-382 1951 383 0
-382 1951 -2031 0
383 -1952 -384 0
383 -1952 2032 0
383 2032 -384 0
-383 -2032 384 0
-383 1952 384 0
-383 1952 -2032 0
384 -1953 2033 0
384 -1953 -1954 2034 0
384 -1954 2033 2034 0
-384 1953 -2034 0
-384 -2033 -2034 0
-384 1953 -2033 0
-384 1954 -2033 0
-384 1953 1954 0
385 386 -395 0
-385 -386 0
-385 395 0
386 -1942 2022 0
386 -1942 373 -387 0
386 2022 373 -387 0
-386 1942 387 0
-386 -2022 387 0
-386 1942 -2022 0
-386 -2022 -373 0
-386 1942 -373 0
-387 -1944 2024 371 0
-387 -1944 371 388 0
-387 2024 371 388 0
387 1944 -388 0
387 -2024 -388 0
387 -371 0
387 1944 -2024 0
388 1945 -2025 0
388 1945 377 -389 0
388 -2025 377 -389 0
-388 2025 389 0
-388 -1945 -377 0
-388 -1945 2025 0
-388 -1945 389 0
-388 2025 -377 0
-389 -1947 2027 375 0
-389 -1947 375 390 0
-389 2027 375 390 0
389 1947 -390 0
389 -2027 -390 0
389 -375 0
389 1947 -2027 0
390 1948 -2028 0
390 1948 381 -391 0
390 -2028 381 -391 0
-390 2028 391 0
-390 -1948 -381 0
-390 -1948 2028 0
-390 -1948 391 0
-390 2028 -381 0
-391 -1950 2030 379 0
-391 -1950 379 392 0
-391 2030 379 392 0
391 1950 -392 0
391 -2030 -392 0
391 -379 0
391 1950 -2030 0
392 1951 -2031 0
392 -2031 -393 0
392 1951 -393 0
-392 2031 393 0
-392 -1951 2031 0
-392 -1951 393 0
393 1952 -2032 0
393 -2032 -394 0
393 1952 -394 0
-393 2032 394 0
-393 -1952 2032 0
-393 -1952 394 0
394 1953 -2033 0
394 1954 -2033 -2034 0
394 1953 1954 -2034 0
-394 -1953 -1954 0
-394 -1954 2033 0
-394 -1953 2033 0
-394 2033 2034 0
-394 -1953 2034 0
395 -2022 2023 0
395 -2022 2024 396 0
-395 2022 0
-395 -2023 -2024 0
-395 -2023 -396 0
396 -2025 -2026 0
396 -2025 -397 0
396 -2025 -2027 0
-396 2025 0
-396 2026 2027 397 0
-397 2028 2029 0
-397 2028 2030 398 0
397 -2028 0
397 -2029 -2030 0
397 -2029 -398 0
-398 2031 2032 0
-398 2031 2033 2034 0
398 -2031 0
398 -2032 -2033 0
398 -2032 -2034 0
-399 400 405 0
399 -400 0
399 -405 0
400 386 -401 0
-400 -386 0
-400 401 0
401 1942 -1943 0
401 1942 -1944 -402 0
-401 -1942 0
-401 1943 402 0
-401 1943 1944 0
-402 1945 1947 0
-402 1945 1946 0
-402 1945 403 0
402 -1945 0
402 -1946 -1947 -403 0
403 -1948 -1949 0
403 -1948 -404 0
-403 1948 0
-403 1949 404 0
404 -1950 -1951 -1952 0
-404 1950 0
-404 1951 0
-404 1952 0
405 370 -406 0
-405 -370 0
-405 406 0
406 2022 -2023 0
406 2022 -2024 -407 0
-406 -2022 0
-406 2023 407 0
-406 2023 2024 0
-407 2025 2027 0
-407 2025 2026 0
-407 2025 408 0
407 -2025 0
407 -2026 -2027 -408 0
408 -2028 -2029 0
408 -2028 -2030 -409 0
-408 2028 0
-408 2029 409 0
-408 2029 2030 0
409 -2031 -2032 0
-409 2031 0
-409 2032 0
-410 -2022 400 0
-410 -1942 411 0
-410 -1942 -2022 0
-410 400 411 0
410 2022 -411 0
410 1942 -400 0
411 400 -405 0
-411 -400 0
-411 405 0
412 1862 -413 0
-412 -1862 0
-412 413 0
413 130 -414 0
413 -130 -399 420 0
-413 -130 399 0
-413 130 414 0
-413 -130 -420 0
414 -111 119 0
414 -119 419 0
414 119 -415 0
-414 -119 -419 0
-414 111 119 415 0
415 106 -110 -418 0
415 106 110 -416 0
-415 -106 0
-415 -110 418 0
-415 110 416 0
416 96 -417 0
416 1942 -96 0
416 -1943 -96 0
-416 96 417 0
-416 -1942 1943 -96 0
-417 2023 362 0
417 -2023 0
417 -362 0
418 1942 -1943 0
-418 -1942 0
-418 1943 0
-419 -2023 366 0
-419 -1943 365 0
-419 -1943 -2023 0
-419 366 365 0
419 2023 -365 0
419 1943 -366 0
-420 -2023 400 0
-420 -1943 411 0
-420 -1943 -2023 0
-420 400 411 0
420 2023 -411 0
420 1943 -400 0
421 1862 -422 0
-421 -1862 0
-421 422 0
422 130 -423 0
422 -130 430 0
-422 -130 -430 0
-422 130 423 0
423 119 -424 0
423 -119 -428 429 0
-423 -119 428 0
-423 119 424 0
-423 -119 -429 0
424 -106 111 0
424 111 -425 0
-424 -111 0
-424 106 425 0
425 -1944 -110 0
425 110 -426 0
425 -110 401 0
-425 110 426 0
-425 1944 -110 -401 0
426 96 -362 0
426 -96 -427 0
426 -2024 96 0
-426 -96 427 0
-426 2024 96 362 0
427 -1942 1943 -1944 0
-427 1942 0
-427 -1943 0
-427 1944 0
-428 366 385 0
428 -366 0
428 -385 0
-429 -2024 366 0
-429 -1944 365 0
-429 -1944 -2024 0
-429 366 365 0
429 2024 -365 0
429 1944 -366 0
-430 -2024 400 0
-430 -1944 411 0
-430 -1944 -2024 0
-430 400 411 0
430 2024 -411 0
430 1944 -400 0
-431 432 450 0
-431 432 441 0
-431 432 459 0
431 -432 0
431 -441 -450 -459 0
432 1862 -433 0
-432 -1862 0
-432 433 0
433 130 -434 0
433 -130 -399 440 0
-433 -130 399 0
-433 130 434 0
-433 -130 -440 0
434 -119 439 0
434 111 119 -435 0
-434 -111 119 0
-434 -119 -439 0
-434 119 435 0
-435 106 -110 438 0
-435 106 110 436 0
435 -106 0
435 -110 -438 0
435 110 -436 0
436 96 -437 0
436 -96 367 0
436 -1945 -96 0
-436 96 437 0
-436 1945 -96 -367 0
-437 2025 362 0
437 -2025 0
437 -362 0
438 -1945 -401 0
-438 1945 0
-438 401 0
-439 -2025 366 0
-439 -1945 365 0
-439 -1945 -2025 0
-439 366 365 0
439 2025 -365 0
439 1945 -366 0
-440 -2025 400 0
-440 -1945 411 0
-440 -1945 -2025 0
-440 400 411 0
440 2025 -411 0
440 1945 -400 0
441 1862 -442 0
-441 -1862 0
-441 442 0
442 130 -443 0
442 -130 449 0
-442 -130 -449 0
-442 130 443 0
443 119 -444 0
443 -119 -428 448 0
-443 -119 428 0
-443 119 444 0
-443 -119 -448 0
-444 111 445 0
-444 -106 111 0
444 -111 0
444 106 -445 0
445 -1946 -110 0
445 110 -446 0
445 -110 401 0
-445 110 446 0
-445 1946 -110 -401 0
446 96 -447 0
446 -1946 -96 -367 0
-446 1946 -96 0
-446 96 447 0
-446 -96 367 0
-447 2026 362 0
447 -2026 0
447 -362 0
-448 -2026 366 0
-448 -1946 365 0
-448 -1946 -2026 0
-448 366 365 0
448 2026 -365 0
448 1946 -366 0
-449 -2026 400 0
-449 -1946 411 0
-449 -1946 -2026 0
-449 400 411 0
449 2026 -411 0
449 1946 -400 0
450 1862 -451 0
-450 -1862 0
-450 451 0
451 130 -452 0
451 -130 458 0
-451 -130 -458 0
-451 130 452 0
452 119 -453 0
452 -119 -428 457 0
-452 -119 428 0
-452 119 453 0
-452 -119 -457 0
-453 111 454 0
-453 -106 111 0
453 -111 0
453 106 -454 0
454 -1947 -110 0
454 110 -455 0
454 -110 401 0
-454 110 455 0
-454 1947 -110 -401 0
455 96 -456 0
455 -1947 -96 -367 0
-455 1947 -96 0
-455 96 456 0
-455 -96 367 0
-456 2027 362 0
456 -2027 0
456 -362 0
-457 -2027 366 0
-457 -1947 365 0
-457 -1947 -2027 0
-457 366 365 0
457 2027 -365 0
457 1947 -366 0
-458 -2027 400 0
-458 -1947 411 0
-458 -1947 -2027 0
-458 400 411 0
458 2027 -411 0
458 1947 -400 0
459 -460 -469 0
459 -460 -478 -487 0
-459 460 0
-459 469 487 0
-459 469 478 0
460 1862 -461 0
-460 -1862 0
-460 461 0
461 130 -462 0
461 -130 468 0
-461 -130 -468 0
-461 130 462 0
462 119 -463 0
462 -119 -428 467 0
-462 -119 428 0
-462 119 463 0
-462 -119 -467 0
-463 111 464 0
-463 -106 111 0
463 -111 0
463 106 -464 0
464 -1948 -110 0
464 110 -465 0
464 -110 401 0
-464 110 465 0
-464 1948 -110 -401 0
465 96 -466 0
465 -1948 -96 -367 0
-465 1948 -96 0
-465 96 466 0
-465 -96 367 0
-466 2028 362 0
466 -2028 0
466 -362 0
-467 -2028 366 0
-467 -1948 365 0
-467 -1948 -2028 0
-467 366 365 0
467 2028 -365 0
467 1948 -366 0
-468 -2028 400 0
-468 -1948 411 0
-468 -1948 -2028 0
-468 400 411 0
468 2028 -411 0
468 1948 -400 0
469 1862 -470 0
-469 -1862 0
-469 470 0
470 130 -471 0
470 -130 -399 477 0
-470 -130 399 0
-470 130 471 0
-470 -130 -477 0
471 -119 476 0
471 111 119 -472 0
-471 -111 119 0
-471 -119 -476 0
-471 119 472 0
-472 106 -110 475 0
-472 106 110 473 0
472 -106 0
472 -110 -475 0
472 110 -473 0
473 96 -474 0
473 -96 367 0
473 -1949 -96 0
-473 96 474 0
-473 1949 -96 -367 0
-474 2029 362 0
474 -2029 0
474 -362 0
475 -1949 -401 0
-475 1949 0
-475 401 0
-476 -2029 366 0
-476 -1949 365 0
-476 -1949 -2029 0
-476 366 365 0
476 2029 -365 0
476 1949 -366 0
-477 -2029 400 0
-477 -1949 411 0
-477 -1949 -2029 0
-477 400 411 0
477 2029 -411 0
477 1949 -400 0
478 1862 -479 0
-478 -1862 0
-478 479 0
479 130 -480 0
479 -130 486 0
-479 -130 -486 0
-479 130 480 0
480 119 -481 0
480 -119 -428 485 0
-480 -119 428 0
-480 119 481 0
-480 -119 -485 0
481 -106 111 0
481 111 -482 0
-481 -111 0
-481 106 482 0
482 -1950 -110 0
482 110 -483 0
482 -110 401 0
-482 110 483 0
-482 1950 -110 -401 0
483 96 -484 0
483 -1950 -96 -367 0
-483 1950 -96 0
-483 96 484 0
-483 -96 367 0
-484 2030 362 0
484 -2030 0
484 -362 0
-485 -2030 366 0
-485 -1950 365 0
-485 -1950 -2030 0
-485 366 365 0
485 2030 -365 0
485 1950 -366 0
-486 -2030 400 0
-486 -1950 411 0
-486 -1950 -2030 0
-486 400 411 0
486 2030 -411 0
486 1950 -400 0
487 -488 -496 0
-487 488 0
-487 496 0
488 130 -489 0
488 -130 495 0
-488 -130 -495 0
-488 130 489 0
489 119 -490 0
489 -119 494 0
489 -111 119 0
-489 -119 -494 0
-489 111 119 490 0
-490 106 -110 -493 0
-490 106 110 491 0
490 -106 0
490 -110 493 0
490 110 -491 0
491 96 -492 0
491 -96 367 0
491 -1952 -96 0
-491 96 492 0
-491 1952 -96 -367 0
-492 2032 362 0
492 -2032 0
492 -362 0
493 1952 -401 0
-493 -1952 0
-493 401 0
-494 -2032 366 0
-494 -1952 365 0
-494 -1952 -2032 0
-494 366 365 0
494 2032 -365 0
494 1952 -366 0
-495 -2032 400 0
-495 -1952 411 0
-495 -1952 -2032 0
-495 400 411 0
495 2032 -411 0
495 1952 -400 0
496 1862 -497 0
-496 -1862 0
-496 497 0
497 130 -498 0
497 -130 504 0
-497 -130 -504 0
-497 130 498 0
498 119 -499 0
498 -119 -428 503 0
-498 -119 428 0
-498 119 499 0
-498 -119 -503 0
499 -106 111 0
499 111 -500 0
-499 -111 0
-499 106 500 0
500 -1951 -110 0
500 110 -501 0
500 -110 401 0
-500 110 501 0
-500 1951 -110 -401 0
501 96 -502 0
501 -1951 -96 -367 0
-501 1951 -96 0
-501 96 502 0
-501 -96 367 0
-502 2031 362 0
502 -2031 0
502 -362 0
-503 -2031 366 0
-503 -1951 365 0
-503 -1951 -2031 0
-503 366 365 0
503 2031 -365 0
503 1951 -366 0
-504 -2031 400 0
-504 -1951 411 0
-504 -1951 -2031 0
-504 400 411 0
504 2031 -411 0
504 1951 -400 0
505 -1870 -1871 -1891 -2158 0
-505 2158 0
-505 1870 0
-505 1891 0
-505 1871 0
506 -2159 -508 0
506 -1850 -2159 -507 0
-506 2159 0
-506 1850 508 0
-506 507 508 0
507 -1851 -1852 0
-507 1851 0
-507 1852 0
-508 1864 509 512 0
-508 509 511 512 0
508 -512 0
508 -509 0
508 -1864 -511 0
509 -1853 -510 0
-509 1853 0
-509 510 0
510 -1854 -1855 0
-510 1854 0
-510 1855 0
-511 1865 1866 0
511 -1865 0
511 -1866 0
-512 1867 513 0
-512 1868 1869 513 0
512 -513 0
512 -1867 -1869 0
512 -1867 -1868 0
-513 1873 514 0
-513 1872 514 0
-513 1874 514 0
513 -514 0
513 -1872 -1873 -1874 0
-514 1875 515 0
-514 1876 1877 515 0
514 -515 0
514 -1875 -1877 0
514 -1875 -1876 0
-515 1880 516 0
-515 1881 1882 516 0
515 -516 0
515 -1880 -1882 0
515 -1880 -1881 0
-516 1961 517 519 0
-516 517 518 519 0
516 -519 0
516 -517 0
516 -1961 -518 0
517 -1883 -1884 0
517 -1883 -1885 0
-517 1883 0
-517 1884 1885 0
518 -1962 -1963 0
-518 1962 0
-518 1963 0
-519 1981 520 522 0
-519 520 521 522 0
519 -522 0
519 -520 0
519 -1981 -521 0
520 -1978 -1979 0
-520 1978 0
-520 1979 0
521 -1982 -1983 0
-521 1982 0
-521 1983 0
-522 1989 523 524 0
-522 1988 523 524 0
522 -524 0
522 -523 0
522 -1988 -1989 0
523 -1985 -1986 0
-523 1985 0
-523 1986 0
-524 1992 525 526 0
-524 1991 525 526 0
524 -526 0
524 -525 0
524 -1991 -1992 0
525 -1994 -1995 -1996 0
-525 1994 0
-525 1995 0
-525 1996 0
-526 2000 527 529 0
-526 527 528 529 0
526 -529 0
526 -527 0
526 -2000 -528 0
527 -1997 -1998 0
-527 1997 0
-527 1998 0
528 -2001 -2002 0
-528 2001 0
-528 2002 0
-529 2008 530 531 0
-529 2007 530 531 0
529 -531 0
529 -530 0
529 -2007 -2008 0
530 -2004 -2005 0
-530 2004 0
-530 2005 0
-531 2011 532 533 0
-531 2010 532 533 0
531 -533 0
531 -532 0
531 -2010 -2011 0
532 -2013 -2014 -2015 0
-532 2013 0
-532 2014 0
-532 2015 0
-533 2020 534 535 0
-533 2019 534 535 0
533 -535 0
533 -534 0
533 -2019 -2020 0
534 -2016 -2017 0
-534 2016 0
-534 2017 0
-535 2104 536 537 0
-535 2103 536 537 0
535 -537 0
535 -536 0
535 -2103 -2104 0
536 -2099 -2100 0
-536 2099 0
-536 2100 0
-537 2106 538 539 0
-537 2105 538 539 0
537 -539 0
537 -538 0
537 -2105 -2106 0
538 -1794 -1795 0
-538 1794 0
-538 1795 0
-539 2112 540 541 0
-539 2111 540 541 0
539 -541 0
539 -540 0
539 -2111 -2112 0
540 -2108 -2109 0
-540 2108 0
-540 2109 0
-541 2122 542 543 0
-541 2121 542 543 0
541 -543 0
541 -542 0
541 -2121 -2122 0
542 -2114 -2115 0
-542 2114 0
-542 2115 0
-543 2131 544 545 0
-543 2130 544 545 0
543 -545 0
543 -544 0
543 -2130 -2131 0
544 -2127 -2128 0
-544 2127 0
-544 2128 0
-545 2137 546 547 0
-545 2136 546 547 0
545 -547 0
545 -546 0
545 -2136 -2137 0
546 -2133 -2134 0
-546 2133 0
-546 2134 0
-547 2140 2142 0
-547 2139 2143 0
-547 2140 2143 0
-547 2139 2142 0
547 -2139 -2140 0
547 -2142 -2143 0
548 -2159 549 551 -553 0
-548 553 0
-548 -551 0
-548 2159 0
-548 -549 0
549 -1887 -79 0
549 1853 -1887 550 0
-549 1887 0
-549 -1853 79 0
-549 79 -550 0
-550 1854 1855 0
550 -1854 0
550 -1855 0
551 1853 -1887 79 -552 0
-551 1887 0
-551 -79 0
-551 -1853 0
-551 552 0
552 1854 -1855 0
-552 -1854 0
-552 1855 0
553 554 560 -582 0
553 554 560 -573 0
-553 -554 0
-553 -560 0
-553 573 582 0
554 -1887 -555 -556 0
554 -1887 -555 -558 0
-554 1887 0
-554 555 0
-554 556 558 0
-555 1853 1855 0
-555 1853 1854 0
-555 -1853 -1854 -1855 0
555 -1853 1854 0
555 1853 -1854 -1855 0
555 -1853 1855 0
556 1961 1962 -1963 557 0
-556 -1961 0
-556 -557 0
-556 1963 0
-556 -1962 0
557 -1964 1965 -1966 0
557 -1964 -1965 1966 0
-557 1964 0
-557 -1965 -1966 0
-557 1965 1966 0
558 1961 -1962 559 0
558 -1961 1963 559 0
558 1962 -1963 559 0
-558 -559 0
-558 1961 1962 1963 0
-558 -1961 -1962 -1963 0
-559 1964 1965 1966 0
559 -1964 0
559 -1966 0
559 -1965 0
560 -1887 -561 0
560 -1887 -570 0
560 -1887 -565 0
-560 1887 0
-560 561 565 570 0
561 64 -562 563 0
-561 -563 0
-561 562 0
-561 -64 0
562 1853 -510 0
-562 -1853 0
-562 510 0
-563 1961 564 0
563 -1961 0
563 -564 0
-564 1962 1963 0
564 -1962 0
564 -1963 0
565 -555 -567 0
565 -566 -555 -569 0
-565 555 0
-565 567 569 0
-565 566 567 0
566 1964 1965 -1966 0
-566 1966 0
-566 -1965 0
-566 -1964 0
567 1961 -1962 1963 -568 0
-567 1962 0
-567 568 0
-567 -1961 0
-567 -1963 0
-568 -1964 1965 -1966 0
-568 -1964 -1965 1966 0
-568 1964 1965 1966 0
568 1964 -1965 0
568 -1965 -1966 0
568 1964 -1966 0
568 -1964 1965 1966 0
-569 1961 1962 0
-569 -1961 -1962 -1963 0
569 1961 -1962 0
569 -1961 1962 0
569 -1962 1963 0
-570 562 0
-570 568 571 0
-570 569 571 0
570 -562 -571 0
570 -562 -568 -569 0
571 -1964 -572 0
-571 1964 0
-571 572 0
572 -1965 1966 0
-572 1965 0
-572 -1966 0
573 -574 575 0
573 -574 -581 0
573 -574 -576 0
-573 574 0
-573 -575 576 581 0
574 -1853 -1887 0
-574 1853 0
-574 1887 0
-575 64 550 563 0
575 -563 0
575 -550 0
575 -64 0
576 510 -578 0
576 -577 510 -580 0
-576 -510 0
-576 578 580 0
-576 577 578 0
577 1964 -572 0
-577 -1964 0
-577 572 0
578 1961 -518 -579 0
-578 -1961 0
-578 518 0
-578 579 0
-579 1965 -1966 0
-579 1964 1965 0
-579 -1964 -1965 1966 0
579 1964 -1965 0
579 -1965 -1966 0
579 -1964 1965 1966 0
-580 1961 1963 0
-580 1961 1962 0
-580 -1961 -1962 -1963 0
580 -1961 1962 0
580 1961 -1962 -1963 0
580 -1961 1963 0
-581 -550 0
-581 571 580 0
-581 571 579 0
581 550 -571 0
581 550 -579 -580 0
-582 1850 583 592 0
582 -1850 0
582 -592 0
582 -583 0
583 -574 -584 0
583 -574 -590 0
583 -574 -585 0
-583 574 0
-583 584 585 590 0
584 64 -552 563 0
-584 -563 0
-584 552 0
-584 -64 0
585 -1854 1855 -1961 -586 0
585 1854 -1855 -1961 -586 0
-585 586 0
-585 1854 1855 0
-585 1961 0
-585 -1854 -1855 0
-586 -1962 -1963 0
-586 -1962 587 0
-586 -1963 587 0
-586 587 588 0
586 1963 -587 0
586 1962 -587 0
586 1962 1963 -588 0
587 1964 -1965 -1966 0
-587 1966 0
-587 1965 0
-587 -1964 0
-588 1965 589 0
-588 1966 589 0
588 -589 0
588 -1965 -1966 0
589 -1964 1965 1966 0
-589 1964 0
-589 -1966 0
-589 -1965 0
-590 552 0
-590 571 591 0
-590 571 588 0
590 -552 -571 0
590 -552 -588 -591 0
591 -1961 518 0
-591 1961 0
-591 -518 0
592 -1887 -593 594 0
-592 1887 0
-592 593 0
-592 -594 0
593 -1853 -1854 1855 0
-593 1853 0
-593 1854 0
-593 -1855 0
594 1964 -563 0
594 -64 595 0
594 1964 -64 0
594 -563 595 0
-594 -1964 -595 0
-594 64 563 0
-595 572 597 0
-595 572 -596 0
-595 1961 572 0
595 -572 0
595 -1961 596 -597 0
596 1965 -1966 0
-596 -1965 0
-596 1966 0
597 1962 -1963 0
597 -1962 1963 0
-597 -1962 -1963 0
-597 1962 1963 0
598 -2159 -549 0
598 -2159 599 0
598 -2159 -551 0
-598 2159 0
-598 549 551 -599 0
-599 554 560 600 0
-599 554 560 -573 0
599 -554 0
599 -560 0
599 573 -600 0
600 -1851 583 0
600 583 -592 0
-600 -583 0
-600 1851 592 0
601 -2159 -549 0
601 -2159 551 602 0
-601 2159 0
-601 549 -602 0
-601 549 -551 0
602 554 -560 0
602 554 573 -603 0
-602 -554 0
-602 560 603 0
-602 560 -573 0
-603 583 -592 0
-603 1852 583 0
603 -583 0
603 -1852 592 0
604 -2159 63 78 -605 0
-604 605 0
-604 -78 0
-604 2159 0
-604 -63 0
605 -61 76 0
605 76 -606 0
605 -49 76 0
-605 -76 0
-605 49 61 606 0
-606 1853 24 0
606 -1853 0
606 -24 0
607 -2159 -63 0
607 -2159 608 0
607 -2159 -78 0
-607 2159 0
-607 63 78 -608 0
-608 -61 76 0
-608 76 609 0
-608 -49 76 0
608 -76 0
608 49 61 -609 0
-609 1854 24 0
609 -1854 0
609 -24 0
610 -2159 -78 0
610 -2159 63 611 0
-610 2159 0
-610 -63 78 0
-610 78 -611 0
-611 -61 76 0
-611 49 76 612 0
611 -76 0
611 -49 61 0
611 61 -612 0
612 -1855 24 0
-612 1855 0
-612 -24 0
613 -2159 614 -620 0
613 -2159 614 -626 0
-613 2159 0
-613 -614 0
-613 620 626 0
614 1856 1857 -1886 -615 0
-614 -1856 0
-614 615 0
-614 1886 0
-614 -1857 0
615 2080 -2081 0
615 2080 -2082 -616 0
-615 -2080 0
-615 2081 616 0
-615 2081 2082 0
-616 2083 2084 0
-616 2083 2085 617 0
616 -2083 0
616 -2084 -2085 0
616 -2084 -617 0
-617 2086 2087 0
-617 2086 2088 618 0
617 -2086 0
617 -2087 -2088 0
617 -2087 -618 0
-618 2089 2090 619 0
618 -619 0
618 -2090 0
618 -2089 0
-619 2091 2092 2093 0
619 -2091 0
619 -2093 0
619 -2092 0
620 2080 -2081 -621 -622 0
-620 -2080 0
-620 622 0
-620 621 0
-620 2081 0
621 1856 -1857 -1886 0
-621 1886 0
-621 1857 0
-621 -1856 0
-622 2082 2083 0
-622 2082 2084 623 0
622 -2082 0
622 -2083 -2084 0
622 -2083 -623 0
-623 2085 2086 2087 624 0
623 -624 0
623 -2087 0
623 -2085 0
623 -2086 0
-624 2088 2089 2090 625 0
624 -625 0
624 -2090 0
624 -2088 0
624 -2089 0
625 -2091 -2092 0
625 -2091 -2093 0
-625 2091 0
-625 2092 2093 0
-626 627 632 -639 0
-626 1856 627 632 0
626 -632 0
626 -627 0
626 -1856 639 0
627 2080 -2081 -628 -629 0
-627 -2080 0
-627 629 0
-627 628 0
-627 2081 0
628 -1856 1857 -1886 0
-628 1856 0
-628 -1857 0
-628 1886 0
629 -2082 -2083 -630 0
629 -2082 -2083 -2084 0
-629 2082 0
-629 2083 0
-629 2084 630 0
630 -2085 -2086 -2087 -631 0
-630 2087 0
-630 631 0
-630 2085 0
-630 2086 0
-631 2088 2089 619 0
-631 2088 2089 2090 0
631 -2088 0
631 -2089 0
631 -2090 -619 0
632 -1856 -1857 -1886 633 0
-632 1886 0
-632 -633 0
-632 1856 0
-632 1857 0
633 2080 -2081 -2082 -634 0
-633 -2080 0
-633 634 0
-633 2082 0
-633 2081 0
634 -2083 -2084 0
634 -2083 -635 0
634 -2083 -2085 0
-634 2083 0
-634 2084 2085 635 0
635 -2086 -2087 -636 0
635 -2086 -2087 -2088 0
-635 2086 0
-635 2087 0
-635 2088 636 0
-636 2089 637 0
-636 2089 2090 0
636 -2089 0
636 -2090 -637 0
637 -2091 -638 0
-637 2091 0
-637 638 0
638 -2092 -2093 -2095 0
638 -2092 -2093 -2094 0
-638 2092 0
-638 2093 0
-638 2094 2095 0
639 -2080 -628 0
639 2081 -628 0
639 -628 640 0
-639 628 0
-639 2080 -2081 -640 0
-640 2082 2083 641 0
-640 2082 2083 2084 0
640 -2082 0
640 -2083 0
640 -2084 -641 0
641 -2085 -2086 0
641 -2085 -642 0
641 -2085 -2087 0
-641 2085 0
-641 2086 2087 642 0
-642 2088 2089 643 0
-642 2088 2089 2090 0
642 -2088 0
642 -2089 0
642 -2090 -643 0
-643 2091 638 0
643 -2091 0
643 -638 0
644 -2159 -614 0
644 -2159 620 -645 0
-644 2159 0
-644 614 645 0
-644 614 -620 0
-645 627 -632 0
-645 627 639 646 0
645 -627 0
645 632 -646 0
645 632 -639 0
646 -1857 647 0
-646 1857 0
-646 -647 0
647 -2080 -621 0
647 2081 -621 648 0
-647 621 0
-647 2080 -648 0
-647 2080 -2081 0
648 -2082 -2083 0
648 -2082 -649 0
648 -2082 -2084 0
-648 2082 0
-648 2083 2084 649 0
649 -2085 -2086 0
649 -2085 -2087 -650 0
-649 2085 0
-649 2086 650 0
-649 2086 2087 0
-650 2088 2089 2090 637 0
650 -637 0
650 -2090 0
650 -2088 0
650 -2089 0
651 -2159 652 0
-651 2159 0
-651 -652 0
652 -1859 1886 0
652 1859 -1886 -669 0
652 -1859 653 0
-652 1859 669 0
-652 -1859 -1886 -653 0
-652 1859 1886 0
653 -1956 -654 0
653 -654 -655 0
653 -1957 -654 0
-653 654 0
-653 1956 1957 655 0
654 -1862 -1863 0
-654 1862 0
-654 1863 0
655 1895 2080 -656 0
655 2080 -2081 -656 0
655 1895 2080 -2081 0
-655 -1895 2081 0
-655 -1895 656 0
-655 -2080 0
-655 2081 656 0
-656 -1896 657 0
-656 -1896 2082 0
-656 2082 657 0
656 -2082 -657 0
656 1896 -657 0
656 1896 -2082 0
-657 -1897 658 0
-657 -1897 2083 0
-657 2083 658 0
657 -2083 -658 0
657 1897 -658 0
657 1897 -2083 0
-658 -1898 659 0
-658 -1898 2084 0
-658 2084 659 0
658 -2084 -659 0
658 1898 -659 0
658 1898 -2084 0
-659 -1899 660 0
-659 -1899 2085 0
-659 2085 660 0
659 -2085 -660 0
659 1899 -660 0
659 1899 -2085 0
-660 -1900 661 0
-660 -1900 2086 0
-660 2086 661 0
660 -2086 -661 0
660 1900 -661 0
660 1900 -2086 0
-661 -1901 662 0
-661 -1901 2087 0
-661 2087 662 0
661 -2087 -662 0
661 1901 -662 0
661 1901 -2087 0
-662 -1902 663 0
-662 -1902 2088 0
-662 2088 663 0
662 -2088 -663 0
662 1902 -663 0
662 1902 -2088 0
-663 -1903 664 0
-663 -1903 2089 0
-663 2089 664 0
663 -2089 -664 0
663 1903 -664 0
663 1903 -2089 0
-664 -1904 665 0
-664 -1904 2090 0
-664 2090 665 0
664 -2090 -665 0
664 1904 -665 0
664 1904 -2090 0
-665 -1905 666 0
-665 -1905 2091 0
-665 2091 666 0
665 -2091 -666 0
665 1905 -666 0
665 1905 -2091 0
-666 -1906 667 0
-666 -1906 2092 0
-666 2092 667 0
666 -2092 -667 0
666 1906 -667 0
666 1906 -2092 0
-667 -1907 668 0
-667 -1907 2093 0
-667 2093 668 0
667 -2093 -668 0
667 1907 -668 0
667 1907 -2093 0
-668 -1908 -1909 0
-668 -1909 2094 0
-668 -1908 2094 0
-668 2094 2095 0
-668 -1908 2095 0
668 1908 -2094 0
668 1909 -2094 -2095 0
668 1908 1909 -2095 0
669 1956 1957 -654 670 0
-669 -1956 0
-669 -670 0
-669 654 0
-669 -1957 0
670 -1955 -655 0
-670 1955 0
-670 655 0
671 -2159 672 0
-671 2159 0
-671 -672 0
-672 1860 -673 0
-672 -1860 -1886 -138 0
-672 1860 1886 0
672 -1860 138 0
672 -1860 1886 0
672 1860 -1886 673 0
-673 139 -317 0
-673 139 -674 0
-673 139 318 0
673 -139 0
673 317 -318 674 0
-674 321 323 325 675 0
674 -675 0
674 -325 0
674 -321 0
674 -323 0
-675 328 330 0
-675 328 332 676 0
675 -328 0
675 -330 -332 0
675 -330 -676 0
-676 335 337 0
-676 335 339 677 0
676 -335 0
676 -337 -339 0
676 -337 -677 0
677 -342 -344 -678 0
-677 342 0
-677 344 0
-677 678 0
-678 -303 -679 346 680 0
-678 303 679 346 680 0
678 -346 0
678 -303 679 0
678 -680 0
678 303 -679 0
-679 -2093 -296 0
-679 2093 296 0
679 2093 -296 0
679 -2093 296 0
-680 -2095 -312 681 0
-680 2095 312 681 0
680 -681 0
680 -2095 312 0
680 2095 -312 0
-681 -2094 -304 0
-681 2094 304 0
681 2094 -304 0
681 -2094 304 0
682 -2159 683 0
-682 2159 0
-682 -683 0
683 -1861 1886 0
683 1861 -1886 349 0
683 -1861 -349 0
683 -1886 1959 0
-683 1861 1886 0
-683 1861 -1959 -349 0
-683 -1861 -1886 -1959 349 0
684 -2159 685 -697 0
684 -2159 685 698 0
-684 2159 0
-684 -685 0
-684 697 -698 0
685 686 689 692 -693 0
-685 693 0
-685 -686 0
-685 -692 0
-685 -689 0
-686 102 103 0
-686 687 688 0
-686 102 688 0
-686 103 687 0
686 -102 -687 0
686 -103 -688 0
-687 -1981 -521 0
-687 1981 521 0
687 1981 -521 0
687 -1981 521 0
-688 -2000 -528 0
-688 2000 528 0
688 2000 -528 0
688 -2000 528 0
-689 690 691 0
689 -690 0
689 -691 0
690 1981 1982 -102 0
-690 102 0
-690 -1982 0
-690 -1981 0
691 2000 2001 -103 0
-691 103 0
-691 -2001 0
-691 -2000 0
-692 90 93 0
-692 687 688 0
-692 90 688 0
-692 93 687 0
692 -90 -687 0
692 -93 -688 0
693 -1977 694 0
-693 1977 0
-693 -694 0
-694 695 696 0
694 -695 0
694 -696 0
695 1981 1982 -90 0
-695 90 0
-695 -1982 0
-695 -1981 0
696 2000 2001 -93 0
-696 93 0
-696 -2001 0
-696 -2000 0
697 -1977 -694 0
-697 1977 0
-697 694 0
698 -1862 699 0
698 699 -700 0
-698 -699 0
-698 1862 700 0
699 -1977 -689 0
-699 1977 0
-699 689 0
700 -1977 -692 0
700 -1977 -686 0
-700 1977 0
-700 686 692 0
701 -2159 685 -697 0
701 -2159 685 702 0
-701 2159 0
-701 -685 0
-701 697 -702 0
-702 699 -700 0
-702 1863 699 0
702 -699 0
702 -1863 700 0
703 704 705 -709 0
-703 -704 0
-703 709 0
-703 -705 0
704 -1977 -686 692 0
-704 1977 0
-704 686 0
-704 -692 0
705 -700 -706 0
-705 700 0
-705 706 0
-706 93 707 0
-706 90 708 0
-706 707 708 0
-706 90 93 0
706 -90 -707 0
706 -93 -708 0
707 1981 -1982 -1983 0
-707 1983 0
-707 1982 0
-707 -1981 0
708 2000 -2001 -2002 0
-708 2002 0
-708 2001 0
-708 -2000 0
-709 710 -719 0
-709 710 -714 0
-709 1864 710 0
709 -710 0
709 -1864 714 719 0
710 -700 706 -711 0
-710 700 0
-710 -706 0
-710 711 0
-711 93 712 0
-711 90 713 0
-711 712 713 0
-711 90 93 0
711 -90 -712 0
711 -93 -713 0
712 -1981 -1982 1983 0
-712 1981 0
-712 1982 0
-712 -1983 0
713 -2000 -2001 2002 0
-713 2000 0
-713 2001 0
-713 -2002 0
714 -700 -715 718 0
-714 700 0
-714 715 0
-714 -718 0
-715 93 716 0
-715 90 717 0
-715 716 717 0
-715 90 93 0
715 -90 -716 0
715 -93 -717 0
716 -1981 1982 1983 0
-716 1981 0
-716 -1983 0
-716 -1982 0
717 -2000 2001 2002 0
-717 2000 0
-717 -2002 0
-717 -2001 0
-718 706 711 0
718 -706 0
718 -711 0
719 -700 715 718 -720 0
-719 -718 0
-719 720 0
-719 700 0
-719 -715 0
-720 93 721 0
-720 90 722 0
-720 721 722 0
-720 90 93 0
720 -90 -721 0
720 -93 -722 0
721 -1981 1982 -1983 0
-721 1981 0
-721 -1982 0
-721 1983 0
722 -2000 2001 -2002 0
-722 2000 0
-722 -2001 0
-722 2002 0
723 704 705 710 -724 0
-723 724 0
-723 -710 0
-723 -704 0
-723 -705 0
-724 1865 714 719 0
724 -1865 0
724 -719 0
724 -714 0
725 704 -705 0
725 704 -726 0
-725 -704 0
-725 705 726 0
726 710 714 -719 0
726 -1866 710 714 0
-726 -714 0
-726 -710 0
-726 1866 719 0
727 728 729 -731 0
-727 -728 0
-727 731 0
-727 -729 0
728 -1977 686 -692 0
-728 1977 0
-728 -686 0
-728 692 0
729 -700 -730 0
-729 700 0
-729 730 0
-730 103 707 0
-730 102 708 0
-730 707 708 0
-730 102 103 0
730 -102 -707 0
730 -103 -708 0
-731 732 -737 0
-731 732 -734 0
-731 1867 732 0
731 -732 0
731 -1867 734 737 0
732 -700 730 -733 0
-732 700 0
-732 -730 0
-732 733 0
-733 103 712 0
-733 102 713 0
-733 712 713 0
-733 102 103 0
733 -102 -712 0
733 -103 -713 0
734 -700 -735 736 0
-734 700 0
-734 735 0
-734 -736 0
-735 103 716 0
-735 102 717 0
-735 716 717 0
-735 102 103 0
735 -102 -716 0
735 -103 -717 0
-736 730 733 0
736 -730 0
736 -733 0
737 -700 735 736 -738 0
-737 -736 0
-737 738 0
-737 700 0
-737 -735 0
-738 103 721 0
-738 102 722 0
-738 721 722 0
-738 102 103 0
738 -102 -721 0
738 -103 -722 0
739 728 729 -740 0
-739 740 0
-739 -729 0
-739 -728 0
740 732 -737 0
740 -1868 732 0
740 732 -734 0
-740 -732 0
-740 1868 734 737 0
741 728 -729 0
741 728 -742 0
-741 -728 0
-741 729 742 0
742 732 734 -737 0
742 -1869 732 734 0
-742 -734 0
-742 -732 0
-742 1869 737 0
743 -2159 -744 0
743 -2159 -837 0
-743 2159 0
-743 744 837 0
744 1870 -1889 -111 0
744 1870 -1889 -745 0
-744 -1870 0
-744 1889 0
-744 111 745 0
-745 -746 749 0
-745 746 752 792 0
745 -746 -749 0
745 746 -792 0
745 746 -752 0
746 1864 1865 -747 748 0
-746 -1864 0
-746 -748 0
-746 747 0
-746 -1865 0
747 -1862 1863 0
-747 1862 0
-747 -1863 0
-748 1867 1868 0
748 -1867 0
748 -1868 0
749 -1942 1944 0
749 -1942 1943 0
749 -1942 750 0
-749 1942 0
-749 -1943 -1944 -750 0
-750 1945 1946 751 0
-750 1945 1946 1947 0
750 -1945 0
750 -1946 0
750 -1947 -751 0
751 -1948 -1949 0
-751 1948 0
-751 1949 0
752 -1942 -753 0
-752 1942 0
-752 753 0
753 -754 790 0
-753 754 0
-753 -790 0
-754 755 788 0
754 -755 0
754 -788 0
-755 756 786 0
755 -756 0
755 -786 0
-756 757 784 0
756 -757 0
756 -784 0
757 -758 -766 0
-757 758 0
-757 766 0
758 759 760 761 -762 0
-758 762 0
-758 -761 0
-758 -759 0
-758 -760 0
-759 1863 -511 0
-759 1863 -1864 0
-759 1862 1863 0
759 -1863 0
759 -1862 1864 511 0
760 1864 -1865 -1866 -747 0
-760 -1864 0
-760 747 0
-760 1866 0
-760 1865 0
761 1864 -1865 1866 -747 0
-761 1865 0
-761 -1866 0
-761 -1864 0
-761 747 0
762 -131 763 764 0
762 -442 763 764 0
-762 -764 0
-762 -763 0
-762 131 442 0
763 -1864 1865 1866 -747 0
-763 747 0
-763 -1866 0
-763 1864 0
-763 -1865 0
764 -747 -765 0
-764 747 0
-764 765 0
765 1864 1865 -1866 0
-765 1866 0
-765 -1865 0
-765 -1864 0
-766 767 782 0
766 -767 0
766 -782 0
-767 768 780 0
767 -768 0
767 -780 0
768 -769 -771 0
-768 769 0
-768 771 0
769 759 -760 0
769 759 761 -770 0
-769 -759 0
-769 760 770 0
-769 760 -761 0
770 -131 763 764 0
770 -470 763 764 0
-770 -764 0
-770 -763 0
-770 131 470 0
-771 772 778 0
771 -772 0
771 -778 0
772 -773 -776 0
-772 773 0
-772 776 0
773 759 -774 0
-773 -759 0
-773 774 0
774 760 -775 0
774 760 -763 0
774 760 -761 0
-774 -760 0
-774 761 763 775 0
775 -497 764 0
775 -131 764 0
-775 -764 0
-775 131 497 0
776 760 761 -777 0
776 760 761 -763 0
-776 -760 0
-776 -761 0
-776 763 777 0
777 -488 764 0
777 -131 764 0
-777 -764 0
-777 131 488 0
778 759 -760 0
778 759 -779 0
778 759 -761 0
-778 -759 0
-778 760 761 779 0
779 -131 763 764 0
779 -479 763 764 0
-779 -764 0
-779 -763 0
-779 131 479 0
780 759 760 761 -781 0
-780 781 0
-780 -761 0
-780 -759 0
-780 -760 0
781 -131 763 764 0
781 -461 763 764 0
-781 -764 0
-781 -763 0
-781 131 461 0
782 759 760 761 -783 0
-782 783 0
-782 -761 0
-782 -759 0
-782 -760 0
783 -131 763 764 0
783 -451 763 764 0
-783 -764 0
-783 -763 0
-783 131 451 0
784 759 760 761 -785 0
-784 785 0
-784 -761 0
-784 -759 0
-784 -760 0
-785 763 -764 0
-785 131 433 763 0
785 -763 0
785 -433 764 0
785 -131 764 0
786 759 760 -761 0
786 759 760 -787 0
-786 -759 0
-786 -760 0
-786 761 787 0
-787 763 -764 0
-787 131 422 763 0
787 -763 0
787 -422 764 0
787 -131 764 0
788 759 -760 0
788 759 -789 0
788 759 -761 0
-788 -759 0
-788 760 761 789 0
-789 763 -764 0
-789 131 413 763 0
789 -763 0
789 -413 764 0
789 -131 764 0
-790 759 760 761 791 0
790 -791 0
790 -761 0
790 -759 0
790 -760 0
-791 763 -764 0
-791 131 358 763 0
791 -763 0
791 -358 764 0
791 -131 764 0
792 -1942 752 793 0
792 -753 752 793 0
-792 -793 0
-792 -752 0
-792 1942 753 0
793 -1942 -795 0
793 -1942 -794 0
793 -794 -795 0
-793 794 795 0
-793 1942 795 0
-793 1942 794 0
-794 754 790 0
-794 -754 -790 0
794 -754 790 0
794 754 -790 0
795 -1943 -797 0
795 -1943 -796 0
795 -796 -797 0
-795 796 797 0
-795 1943 797 0
-795 1943 796 0
-796 -755 -788 0
-796 755 788 0
796 755 -788 0
796 -755 788 0
797 -1944 -799 0
797 -1944 -798 0
797 -798 -799 0
-797 798 799 0
-797 1944 799 0
-797 1944 798 0
-798 -756 -786 0
-798 756 786 0
798 756 -786 0
798 -756 786 0
799 -1945 -801 0
799 -1945 -800 0
799 -800 -801 0
-799 800 801 0
-799 1945 801 0
-799 1945 800 0
-800 -757 -784 0
-800 757 784 0
800 757 -784 0
800 -757 784 0
801 -1946 -803 0
801 -1946 802 0
801 802 -803 0
-801 -802 803 0
-801 1946 803 0
-801 1946 -802 0
802 -758 766 0
802 758 -766 0
-802 758 766 0
-802 -758 -766 0
803 -1947 -805 0
803 -1947 -804 0
803 -804 -805 0
-803 804 805 0
-803 1947 805 0
-803 1947 804 0
-804 -767 -782 0
-804 767 782 0
804 767 -782 0
804 -767 782 0
805 -1948 -807 0
805 -1948 -806 0
805 -806 -807 0
-805 806 807 0
-805 1948 807 0
-805 1948 806 0
-806 -768 -780 0
-806 768 780 0
806 768 -780 0
806 -768 780 0
807 -1949 -809 0
807 -1949 808 0
807 808 -809 0
-807 -808 809 0
-807 1949 809 0
-807 1949 -808 0
808 -769 771 0
808 769 -771 0
-808 769 771 0
-808 -769 -771 0
809 -1950 -811 0
809 -1950 -810 0
809 -810 -811 0
-809 810 811 0
-809 1950 811 0
-809 1950 810 0
-810 -772 -778 0
-810 772 778 0
810 772 -778 0
810 -772 778 0
811 -1951 -814 0
811 -1951 812 0
811 812 -814 0
-811 -812 814 0
-811 1951 814 0
-811 1951 -812 0
812 774 -813 0
812 759 -774 813 0
-812 -759 -774 0
-812 774 813 0
-812 -774 -813 0
813 759 -776 0
-813 -759 0
-813 776 0
814 -1952 -813 0
814 -813 815 0
814 -1952 815 0
-814 1952 -815 0
-814 813 -815 0
-814 1952 813 0
-815 -1953 -1954 0
-815 -1954 816 0
-815 -1953 816 0
-815 816 826 0
-815 -1953 826 0
815 1953 -816 0
815 1954 -816 -826 0
815 1953 1954 -826 0
816 759 760 761 -817 0
-816 817 0
-816 -761 0
-816 -759 0
-816 -760 0
817 763 764 -818 0
817 -131 763 764 0
-817 -764 0
-817 -763 0
-817 131 818 0
818 130 -819 0
818 -130 -399 825 0
-818 -130 399 0
-818 130 819 0
-818 -130 -825 0
819 119 -820 0
819 -119 -428 824 0
-819 -119 428 0
-819 119 820 0
-819 -119 -824 0
820 106 111 -821 0
-820 821 0
-820 -111 0
-820 -106 0
821 110 -822 0
821 -1953 -110 -401 0
-821 110 822 0
-821 -110 401 0
-821 1953 -110 0
822 96 -823 0
822 -1953 -96 -367 0
-822 1953 -96 0
-822 96 823 0
-822 -96 367 0
-823 2033 362 0
823 -2033 0
823 -362 0
-824 -2033 366 0
-824 -1953 365 0
-824 -1953 -2033 0
-824 366 365 0
824 2033 -365 0
824 1953 -366 0
-825 -2033 400 0
-825 -1953 411 0
-825 -1953 -2033 0
-825 400 411 0
825 2033 -411 0
825 1953 -400 0
826 759 760 761 -827 0
-826 827 0
-826 -761 0
-826 -759 0
-826 -760 0
827 763 764 -828 0
827 -131 763 764 0
-827 -764 0
-827 -763 0
-827 131 828 0
828 -130 -835 0
828 130 -829 833 0
-828 130 829 0
-828 -130 835 0
-828 130 -833 0
-829 -111 119 0
-829 119 830 0
-829 -106 119 0
829 -119 0
829 106 111 -830 0
830 110 -831 0
830 -1954 -110 -401 0
-830 110 831 0
-830 -110 401 0
-830 1954 -110 0
831 96 -832 0
831 -1954 -96 -367 0
-831 1954 -96 0
-831 96 832 0
-831 -96 367 0
-832 2034 362 0
832 -2034 0
832 -362 0
833 -119 834 0
833 1954 -119 -366 0
-833 119 0
-833 -1954 -834 0
-833 366 -834 0
834 -2034 -428 0
834 365 -428 0
-834 428 0
-834 2034 -365 0
835 -1954 -399 836 0
835 400 -399 836 0
-835 -836 0
-835 399 0
-835 1954 -400 0
836 2034 -411 0
-836 -2034 0
-836 411 0
837 -1870 1889 0
837 -1870 838 851 0
-837 1870 0
-837 -1889 -838 0
-837 -1889 -851 0
838 -746 749 839 -843 0
-838 843 0
-838 -839 0
-838 746 0
-838 -749 0
839 1942 -1943 0
839 1942 -840 0
839 1942 -1944 0
-839 -1942 0
-839 1943 1944 840 0
-840 1945 1947 0
-840 1945 1946 0
-840 1945 841 0
840 -1945 0
840 -1946 -1947 -841 0
841 -1948 -1949 -1950 -842 0
-841 1950 0
-841 842 0
-841 1948 0
-841 1949 0
-842 1951 1952 0
842 -1951 0
842 -1952 0
-843 121 844 0
843 -121 0
843 -844 0
844 -2016 -845 0
844 -845 -850 0
844 -2016 -850 0
-844 2016 850 0
-844 845 850 0
-844 2016 845 0
845 -2017 848 0
845 -2018 -846 848 0
845 -2017 -2018 -846 0
-845 2017 -848 0
-845 846 -848 0
-845 2017 846 0
-845 2018 -848 0
-845 2017 2018 0
846 -131 847 0
-846 131 0
-846 -847 0
847 -1864 1865 1866 -747 0
847 1864 -1865 -1866 -747 0
-847 -1865 1866 0
-847 -1864 -1866 0
-847 747 0
-847 1864 1865 0
848 -131 -849 0
-848 131 0
-848 849 0
849 -1864 1865 1866 -747 0
849 1864 -1865 1866 -747 0
-849 747 0
-849 1864 1865 0
-849 -1866 0
-849 -1864 -1865 0
850 -131 764 0
-850 131 0
-850 -764 0
-851 -852 0
-851 -746 866 0
-851 844 866 0
851 852 -866 0
851 746 -844 852 0
852 -1942 -855 0
852 -1942 759 853 0
852 759 853 -855 0
-852 -759 855 0
-852 1942 -853 0
-852 -853 855 0
-852 1942 -759 0
-852 1942 855 0
-853 760 761 763 854 0
853 -854 0
853 -763 0
853 -760 0
853 -761 0
854 -358 764 0
854 -131 764 0
-854 -764 0
-854 131 358 0
855 1943 -788 0
855 -788 -856 0
855 1943 -856 0
-855 788 856 0
-855 -1943 788 0
-855 -1943 856 0
856 1944 -786 0
856 -786 -857 0
856 1944 -857 0
-856 786 857 0
-856 -1944 786 0
-856 -1944 857 0
857 1945 -784 0
857 -784 -858 0
857 1945 -858 0
-857 784 858 0
-857 -1945 784 0
-857 -1945 858 0
858 1946 -758 0
858 -758 -859 0
858 1946 -859 0
-858 758 859 0
-858 -1946 758 0
-858 -1946 859 0
859 1947 -782 0
859 -782 -860 0
859 1947 -860 0
-859 782 860 0
-859 -1947 782 0
-859 -1947 860 0
860 1948 -780 0
860 -780 -861 0
860 1948 -861 0
-860 780 861 0
-860 -1948 780 0
-860 -1948 861 0
861 1949 -769 0
861 -769 -862 0
861 1949 -862 0
-861 769 862 0
-861 -1949 769 0
-861 -1949 862 0
862 1950 -778 0
862 -778 -863 0
862 1950 -863 0
-862 778 863 0
-862 -1950 778 0
-862 -1950 863 0
863 1951 -773 0
863 -773 -864 0
863 1951 -864 0
-863 773 864 0
-863 -1951 773 0
-863 -1951 864 0
864 1952 -813 0
864 -813 -865 0
864 1952 -865 0
-864 813 865 0
-864 -1952 813 0
-864 -1952 865 0
865 1953 -816 0
865 1954 -816 -826 0
865 1953 1954 -826 0
-865 -1953 -1954 0
-865 -1954 816 0
-865 -1953 816 0
-865 816 826 0
-865 -1953 826 0
866 -121 746 0
-866 121 0
-866 -746 0
867 -2159 -868 0
-867 2159 0
-867 868 0
-868 1871 869 0
-868 -1871 -1890 -944 0
-868 1871 1890 0
868 -1871 1890 0
868 1871 -1890 -869 0
868 -1871 944 0
-869 106 -746 940 0
-869 106 746 870 0
869 -106 0
869 -746 -940 0
869 746 -870 0
-870 871 912 0
870 -871 0
870 -912 0
871 1942 -872 0
-871 -1942 0
-871 872 0
872 -873 -910 0
-872 873 0
-872 910 0
-873 874 908 0
873 -874 0
873 -908 0
-874 875 906 0
874 -875 0
874 -906 0
-875 876 904 0
875 -876 0
875 -904 0
876 -877 -902 0
-876 877 0
-876 902 0
-877 878 900 0
877 -878 0
877 -900 0
-878 879 898 0
878 -879 0
878 -898 0
879 -880 -896 0
-879 880 0
-879 896 0
-880 881 894 0
880 -881 0
880 -894 0
881 -882 -889 0
-881 882 0
-881 889 0
-882 883 884 886 0
-882 883 884 -885 0
882 -883 0
882 -884 0
882 885 -886 0
883 1867 -1868 -1869 -747 0
-883 -1867 0
-883 747 0
-883 1869 0
-883 1868 0
884 1867 -1868 1869 -747 0
-884 1868 0
-884 -1869 0
-884 -1867 0
-884 747 0
885 -1867 1868 1869 -747 0
-885 747 0
-885 -1869 0
-885 1867 0
-885 -1868 0
-886 -488 887 0
-886 120 887 0
886 -887 0
886 -120 488 0
887 -747 -888 0
-887 747 0
-887 888 0
888 1867 1868 -1869 0
-888 1869 0
-888 -1868 0
-888 -1867 0
889 -890 -892 0
-889 890 0
-889 892 0
890 1862 -1863 0
890 -1862 1863 -1867 0
890 -1862 1863 -891 0
-890 -1862 -1863 0
-890 1862 1863 0
-890 1863 1867 891 0
-891 1868 1869 0
891 -1868 0
891 -1869 0
-892 883 -884 0
-892 883 885 893 0
892 -883 0
892 884 -893 0
892 884 -885 0
-893 -497 887 0
-893 120 887 0
893 -887 0
893 -120 497 0
894 883 -884 -890 0
894 883 -890 -895 0
-894 -883 0
-894 890 0
-894 884 895 0
895 885 -887 0
895 -120 479 885 0
-895 -885 0
-895 -479 887 0
-895 120 887 0
896 -883 -890 0
896 884 -890 -897 0
-896 890 0
-896 883 -884 0
-896 883 897 0
897 885 -887 0
897 -120 470 885 0
-897 -885 0
-897 -470 887 0
-897 120 887 0
898 883 884 -890 -899 0
-898 -883 0
-898 899 0
-898 890 0
-898 -884 0
899 885 -887 0
899 -120 461 885 0
-899 -885 0
-899 -461 887 0
-899 120 887 0
900 883 884 -890 -901 0
-900 -883 0
-900 901 0
-900 890 0
-900 -884 0
901 885 -887 0
901 -120 451 885 0
-901 -885 0
-901 -451 887 0
-901 120 887 0
902 883 884 -890 -903 0
-902 -883 0
-902 903 0
-902 890 0
-902 -884 0
903 885 -887 0
903 -120 442 885 0
-903 -885 0
-903 -442 887 0
-903 120 887 0
904 883 884 -890 -905 0
-904 -883 0
-904 905 0
-904 890 0
-904 -884 0
-905 120 885 887 0
-905 -433 885 887 0
905 -887 0
905 -885 0
905 -120 433 0
906 883 -884 -890 0
906 883 -890 -907 0
-906 -883 0
-906 890 0
-906 884 907 0
-907 120 885 887 0
-907 -422 885 887 0
907 -887 0
907 -885 0
907 -120 422 0
908 -883 -890 0
908 -890 -909 0
908 -884 -890 0
-908 890 0
-908 883 884 909 0
-909 120 885 887 0
-909 -413 885 887 0
909 -887 0
909 -885 0
909 -120 413 0
910 883 884 -890 911 0
-910 -883 0
-910 -911 0
-910 890 0
-910 -884 0
-911 120 885 887 0
-911 -358 885 887 0
911 -887 0
911 -885 0
911 -120 358 0
912 913 -914 0
-912 -913 0
-912 914 0
913 -1942 872 0
-913 1942 0
-913 -872 0
914 -1942 873 0
914 -1942 -915 0
914 -1942 910 0
914 -873 910 -915 0
914 873 -910 -915 0
-914 1942 873 910 0
-914 -873 -910 915 0
-914 1942 915 0
-914 1942 -873 -910 0
-915 1943 -916 0
-915 -916 917 0
-915 1943 917 0
915 916 -917 0
915 -1943 916 0
915 -1943 -917 0
916 874 -908 0
916 -874 908 0
-916 -874 -908 0
-916 874 908 0
-917 1944 -918 0
-917 -918 919 0
-917 1944 919 0
917 918 -919 0
917 -1944 918 0
917 -1944 -919 0
918 875 -906 0
918 -875 906 0
-918 -875 -906 0
-918 875 906 0
-919 1945 -920 0
-919 -920 921 0
-919 1945 921 0
919 920 -921 0
919 -1945 920 0
919 -1945 -921 0
920 876 -904 0
920 -876 904 0
-920 -876 -904 0
-920 876 904 0
-921 1946 922 0
-921 922 923 0
-921 1946 923 0
921 -922 -923 0
921 -1946 -922 0
921 -1946 -923 0
-922 -877 -902 0
-922 877 902 0
922 877 -902 0
922 -877 902 0
-923 1947 -924 0
-923 -924 925 0
-923 1947 925 0
923 924 -925 0
923 -1947 924 0
923 -1947 -925 0
924 878 -900 0
924 -878 900 0
-924 -878 -900 0
-924 878 900 0
-925 1948 -926 0
-925 -926 927 0
-925 1948 927 0
925 926 -927 0
925 -1948 926 0
925 -1948 -927 0
926 879 -898 0
926 -879 898 0
-926 -879 -898 0
-926 879 898 0
-927 1949 928 0
-927 928 929 0
-927 1949 929 0
927 -928 -929 0
927 -1949 -928 0
927 -1949 -929 0
-928 -880 -896 0
-928 880 896 0
928 880 -896 0
928 -880 896 0
-929 1950 -930 0
-929 -930 931 0
-929 1950 931 0
929 930 -931 0
929 -1950 930 0
929 -1950 -931 0
930 881 -894 0
930 -881 894 0
-930 -881 -894 0
-930 881 894 0
-931 1951 932 0
-931 932 933 0
-931 1951 933 0
931 -932 -933 0
931 -1951 -932 0
931 -1951 -933 0
-932 890 0
-932 882 892 0
-932 -882 -892 0
932 -882 -890 892 0
932 882 -890 -892 0
-933 1952 -934 0
-933 -934 935 0
-933 1952 935 0
933 934 -935 0
933 -1952 934 0
933 -1952 -935 0
934 -882 -890 0
-934 882 0
-934 890 0
-935 936 938 0
-935 1953 1954 0
-935 1953 936 0
-935 1954 936 0
-935 1953 938 0
935 -1953 -936 0
935 -1953 -1954 -938 0
935 -1954 -936 -938 0
936 -883 -890 0
936 -890 -937 0
936 -884 -890 0
-936 890 0
-936 883 884 937 0
-937 120 885 887 0
-937 -818 885 887 0
937 -887 0
937 -885 0
937 -120 818 0
938 -883 -890 0
938 -890 -939 0
938 -884 -890 0
-938 890 0
-938 883 884 939 0
-939 120 885 887 0
-939 -828 885 887 0
939 -887 0
939 -885 0
939 -120 828 0
940 1942 -941 0
940 1942 -1944 0
940 1942 -1943 0
-940 -1942 0
-940 1943 1944 941 0
941 -1945 -1946 -942 0
941 -1945 -1946 -1947 0
-941 1945 0
-941 1946 0
-941 1947 942 0
-942 1948 1949 0
-942 1948 1950 943 0
942 -1948 0
942 -1949 -1950 0
942 -1949 -943 0
-943 1951 1952 1953 1954 0
943 -1954 0
943 -1953 0
943 -1951 0
943 -1952 0
-944 945 957 975 0
-944 746 957 975 0
944 -975 0
944 -957 0
944 -746 -945 0
945 -1942 1943 -949 0
945 -1942 946 -949 0
-945 1942 0
-945 949 0
-945 -1943 -946 0
946 -1944 -1945 -947 0
946 -1944 -1945 -1946 0
-946 1944 0
-946 1945 0
-946 1946 947 0
-947 1947 1948 1949 948 0
947 -948 0
947 -1949 0
947 -1947 0
947 -1948 0
-948 1950 1952 0
-948 1950 1951 0
948 -1950 0
948 -1951 -1952 0
-949 -1870 -843 0
-949 121 950 0
-949 -1870 950 0
949 1870 -121 0
949 843 -950 0
949 1870 -950 0
950 -2019 -951 0
950 -951 956 0
950 -2019 956 0
-950 2019 -956 0
-950 951 -956 0
-950 2019 951 0
951 -2020 954 0
951 -2021 952 954 0
951 -2020 -2021 952 0
-951 2020 -954 0
-951 -952 -954 0
-951 2020 -952 0
-951 2021 -954 0
-951 2020 2021 0
-952 120 953 0
952 -120 0
952 -953 0
953 -1867 1868 1869 -747 0
953 1867 -1868 -1869 -747 0
-953 -1868 1869 0
-953 -1867 -1869 0
-953 747 0
-953 1867 1868 0
954 120 -955 0
-954 -120 0
-954 955 0
955 -1867 1868 1869 -747 0
955 1867 -1868 1869 -747 0
-955 747 0
-955 1867 1868 0
-955 -1869 0
-955 -1867 -1868 0
-956 120 887 0
956 -120 0
956 -887 0
957 1870 746 -950 958 0
-957 -1870 0
-957 -958 0
-957 950 0
-957 -746 0
958 1942 -961 0
958 1942 -890 959 0
958 -890 959 -961 0
-958 890 961 0
-958 -1942 -959 0
-958 -1942 961 0
-958 -959 961 0
-958 -1942 890 0
-959 883 884 885 960 0
959 -960 0
959 -885 0
959 -883 0
959 -884 0
-960 -358 887 0
-960 120 887 0
960 -887 0
960 -120 358 0
961 -962 963 0
961 963 -964 0
-961 -963 0
-961 962 964 0
962 -1942 910 0
-962 1942 0
-962 -910 0
963 1942 -910 0
-963 -1942 0
-963 910 0
964 -1943 -908 0
964 -908 -965 0
964 -1943 -965 0
-964 1943 965 0
-964 908 965 0
-964 1943 908 0
965 -1944 -906 0
965 -906 -966 0
965 -1944 -966 0
-965 1944 966 0
-965 906 966 0
-965 1944 906 0
966 -1945 -904 0
966 -904 -967 0
966 -1945 -967 0
-966 1945 967 0
-966 904 967 0
-966 1945 904 0
967 -1946 -902 0
967 -902 -968 0
967 -1946 -968 0
-967 1946 968 0
-967 902 968 0
-967 1946 902 0
968 -1947 -900 0
968 -900 -969 0
968 -1947 -969 0
-968 1947 969 0
-968 900 969 0
-968 1947 900 0
969 -1948 -898 0
969 -898 -970 0
969 -1948 -970 0
-969 1948 970 0
-969 898 970 0
-969 1948 898 0
970 -1949 -896 0
970 -896 -971 0
970 -1949 -971 0
-970 1949 971 0
-970 896 971 0
-970 1949 896 0
971 -1950 -894 0
971 -894 -972 0
971 -1950 -972 0
-971 1950 972 0
-971 894 972 0
-971 1950 894 0
972 -1951 -889 0
972 -889 -973 0
972 -1951 -973 0
-972 1951 973 0
-972 889 973 0
-972 1951 889 0
973 -1952 -934 0
973 -934 -974 0
973 -1952 -974 0
-973 1952 974 0
-973 934 974 0
-973 1952 934 0
974 -1953 -936 0
974 -1953 -1954 -938 0
974 -1954 -936 -938 0
-974 936 938 0
-974 1953 1954 0
-974 1953 936 0
-974 1954 936 0
-974 1953 938 0
-975 950 976 0
-975 -958 976 0
-975 -746 976 0
975 -976 0
975 746 -950 958 0
-976 950 0
-976 -958 0
-976 866 -977 0
976 -950 958 977 0
976 -866 -950 958 0
-977 121 746 844 0
977 -121 0
977 -844 0
977 -746 0
978 -2159 979 987 0
-978 2159 0
-978 -987 0
-978 -979 0
979 980 -981 0
-979 -980 0
-979 981 0
980 124 126 -127 0
980 124 -125 126 0
-980 -124 0
-980 -126 0
-980 125 127 0
981 982 -984 0
-981 -982 0
-981 984 0
-982 127 983 0
-982 -1997 983 0
-982 -1998 983 0
982 -983 0
982 1997 1998 -127 0
983 1978 1979 -125 0
-983 125 0
-983 -1979 0
-983 -1978 0
984 -1891 -654 985 0
-984 1891 0
-984 654 0
-984 -985 0
-985 94 986 0
-985 -2004 986 0
-985 -2005 986 0
985 -986 0
985 2004 2005 -94 0
986 1985 1986 -91 0
-986 91 0
-986 -1986 0
-986 -1985 0
987 988 -989 0
987 1870 1871 -988 0
-987 988 989 0
-987 -1870 -988 0
-987 -1871 -988 0
988 -1891 654 0
-988 1891 0
-988 -654 0
989 990 -992 0
989 -1872 990 993 0
-989 -990 0
-989 992 -993 0
-989 1872 992 0
990 -1891 -654 -985 -991 0
-990 654 0
-990 991 0
-990 1891 0
-990 985 0
-991 -1872 -1873 0
-991 1873 1874 0
-991 -1873 -1874 0
991 1873 -1874 0
991 1872 -1873 1874 0
992 -982 -984 -991 0
-992 982 0
-992 984 0
-992 991 0
993 -980 -981 -991 0
-993 980 0
-993 981 0
-993 991 0
994 -2159 995 1003 -1004 0
-994 1004 0
-994 2159 0
-994 -1003 0
-994 -995 0
-995 996 0
-995 997 1001 1002 0
995 -996 -997 0
995 -996 -1002 0
995 -996 -1001 0
996 -1989 -2007 0
996 -1988 -2008 0
996 -1988 -2007 0
996 -1989 -2008 0
-996 2007 2008 0
-996 1988 1989 0
997 1871 998 -999 0
-997 999 0
-997 -998 0
-997 -1871 0
-998 -1989 2007 0
-998 1988 -2008 0
-998 1988 2007 0
-998 -1989 -2008 0
998 -1988 1989 0
998 -2007 2008 0
999 -1891 89 101 1000 0
-999 -1000 0
-999 1891 0
-999 -101 0
-999 -89 0
-1000 1987 2006 0
1000 -1987 0
1000 -2006 0
1001 -1862 998 -999 0
-1001 1862 0
-1001 -998 0
-1001 999 0
1002 1870 998 -999 0
-1002 999 0
-1002 -998 0
-1002 -1870 0
-1003 1891 0
-1003 89 101 0
1003 -1891 -101 0
1003 -1891 -89 0
1004 1005 1013 -1016 0
1004 -1875 1005 1013 0
-1004 -1013 0
-1004 -1005 0
-1004 1875 1016 0
-1005 996 1009 0
-1005 1006 1008 1009 0
1005 -1009 0
1005 -996 -1008 0
1005 -996 -1006 0
1006 1871 998 -1007 0
-1006 1007 0
-1006 -998 0
-1006 -1871 0
1007 -1891 101 -120 1000 0
-1007 -1000 0
-1007 1891 0
-1007 120 0
-1007 -101 0
1008 1870 998 -1007 0
-1008 1007 0
-1008 -998 0
-1008 -1870 0
-1009 996 0
-1009 -998 0
-1009 1010 1012 0
1009 -996 998 -1012 0
1009 -996 998 -1010 0
1010 1870 -1011 0
-1010 -1870 0
-1010 1011 0
1011 -1891 89 131 1000 0
-1011 -1000 0
-1011 1891 0
-1011 -131 0
-1011 -89 0
1012 1871 -1011 0
-1012 -1871 0
-1012 1011 0
-1013 -1870 0
-1013 -1871 0
-1013 1014 1015 0
1013 1870 1871 -1015 0
1013 1870 1871 -1014 0
1014 -1891 89 131 0
-1014 1891 0
-1014 -89 0
-1014 -131 0
1015 -1891 101 -120 0
-1015 1891 0
-1015 -101 0
-1015 120 0
-1016 1891 0
-1016 1000 0
-1016 1862 1870 0
1016 -1862 -1891 -1000 0
1016 -1870 -1891 -1000 0
1017 -2159 995 1018 0
1017 -2159 995 -1003 0
-1017 2159 0
-1017 -995 0
-1017 1003 -1018 0
1018 1005 -1013 0
1018 -1876 1005 1016 0
-1018 -1005 0
-1018 1013 -1016 0
-1018 1876 1013 0
1019 -2159 995 1003 1020 0
-1019 -1003 0
-1019 -1020 0
-1019 2159 0
-1019 -995 0
1020 -1877 1005 1013 1016 0
-1020 -1016 0
-1020 1877 0
-1020 -1013 0
-1020 -1005 0
1021 -1892 -2159 0
-1021 1892 0
-1021 2159 0
1022 -1891 -2159 0
-1022 1891 0
-1022 2159 0
1023 -2159 -699 0
1023 -2159 -1024 0
1023 -2159 -700 0
-1023 2159 0
-1023 699 700 1024 0
-1024 685 697 0
1024 -685 0
1024 -697 0
1025 -1889 -2159 0
-1025 1889 0
-1025 2159 0
1026 -1890 -2159 0
-1026 1890 0
-1026 2159 0
1027 -1886 -2159 0
-1027 1886 0
-1027 2159 0
1028 -1887 -2159 0
-1028 1887 0
-1028 2159 0
1029 -1893 -2159 0
-1029 1893 0
-1029 2159 0
1030 1893 -1981 0
1030 -1893 2144 -1031 0
-1030 -1893 -2144 0
-1030 1893 1981 0
-1030 -1893 1031 0
-1031 2145 2146 0
1031 -2145 0
1031 -2146 0
1032 1893 -1982 0
1032 -1893 1033 0
-1032 -1893 -1033 0
-1032 1893 1982 0
-1033 -2144 -2150 0
-1033 2144 -2145 -2146 0
-1033 2144 2145 2146 0
1033 -2144 2150 0
1033 2144 -2145 2146 0
1033 2144 2145 -2146 0
1034 1893 -1983 0
1034 -1893 1035 0
-1034 -1893 -1035 0
-1034 1893 1983 0
-1035 2144 2146 0
-1035 -2144 2150 -2151 0
1035 2144 -2146 0
1035 -2144 2151 0
1035 -2144 -2150 0
1036 2159 -1037 0
1036 -2158 -2159 -1060 0
-1036 2158 -2159 0
-1036 2159 1037 0
-1036 -2159 1060 0
1037 -1716 1717 1718 -1038 0
-1037 1038 0
-1037 -1718 0
-1037 1716 0
-1037 -1717 0
1038 1713 -1714 -1715 -1039 0
-1038 -1713 0
-1038 1039 0
-1038 1715 0
-1038 1714 0
1039 -1710 -1711 -1712 -1040 0
-1039 1040 0
-1039 1710 0
-1039 1712 0
-1039 1711 0
1040 1707 -1708 1709 -1041 0
-1040 1708 0
-1040 -1709 0
-1040 -1707 0
-1040 1041 0
1041 1694 1695 1706 -1042 0
-1041 1042 0
-1041 -1706 0
-1041 -1694 0
-1041 -1695 0
1042 1676 1681 1682 -1043 0
-1042 1043 0
-1042 -1682 0
-1042 -1676 0
-1042 -1681 0
1043 1665 1666 1675 -1044 0
-1043 1044 0
-1043 -1675 0
-1043 -1665 0
-1043 -1666 0
1044 1571 1572 1573 -1045 0
1044 -1571 1572 1573 1045 0
-1044 -1572 0
-1044 1571 1045 0
-1044 -1573 0
-1044 -1571 -1045 0
-1045 1644 1046 0
-1045 1644 -1764 0
-1045 1643 1644 0
1045 -1644 0
1045 -1643 1764 -1046 0
-1046 -1583 1047 0
-1046 -1583 1765 0
-1046 1765 1047 0
1046 -1765 -1047 0
1046 1583 -1047 0
1046 1583 -1765 0
-1047 -1584 1048 0
-1047 -1584 1766 0
-1047 1766 1048 0
1047 -1766 -1048 0
1047 1584 -1048 0
1047 1584 -1766 0
-1048 -1585 1049 0
-1048 -1585 1767 0
-1048 1767 1049 0
1048 -1767 -1049 0
1048 1585 -1049 0
1048 1585 -1767 0
-1049 -1586 1050 0
-1049 -1586 1768 0
-1049 1768 1050 0
1049 -1768 -1050 0
1049 1586 -1050 0
1049 1586 -1768 0
-1050 -1587 1051 0
-1050 -1587 1769 0
-1050 1769 1051 0
1050 -1769 -1051 0
1050 1587 -1051 0
1050 1587 -1769 0
-1051 -1588 1052 0
-1051 -1588 1770 0
-1051 1770 1052 0
1051 -1770 -1052 0
1051 1588 -1052 0
1051 1588 -1770 0
-1052 -1589 1053 0
-1052 -1589 1771 0
-1052 1771 1053 0
1052 -1771 -1053 0
1052 1589 -1053 0
1052 1589 -1771 0
-1053 -1590 1054 0
-1053 -1590 1772 0
-1053 1772 1054 0
1053 -1772 -1054 0
1053 1590 -1054 0
1053 1590 -1772 0
-1054 -1591 1055 0
-1054 -1591 1773 0
-1054 1773 1055 0
1054 -1773 -1055 0
1054 1591 -1055 0
1054 1591 -1773 0
-1055 -1592 1056 0
-1055 -1592 1774 0
-1055 1774 1056 0
1055 -1774 -1056 0
1055 1592 -1056 0
1055 1592 -1774 0
-1056 -1593 1057 0
-1056 -1593 1775 0
-1056 1775 1057 0
1056 -1775 -1057 0
1056 1593 -1057 0
1056 1593 -1775 0
-1057 -1594 1058 0
-1057 -1594 1776 0
-1057 1776 1058 0
1057 -1776 -1058 0
1057 1594 -1058 0
1057 1594 -1776 0
-1058 -1595 1059 0
-1058 -1595 1777 0
-1058 1777 1059 0
1058 -1777 -1059 0
1058 1595 -1059 0
1058 1595 -1777 0
-1059 -1596 -1597 0
-1059 -1597 1778 0
-1059 -1596 1778 0
-1059 1778 1779 0
-1059 -1596 1779 0
1059 1596 -1778 0
1059 1597 -1778 -1779 0
1059 1596 1597 -1779 0
1060 -1571 -1061 -1093 -1568 0
1060 1571 -1061 -1093 1568 0
-1060 1061 0
-1060 1571 -1568 0
-1060 1093 0
-1060 -1571 1568 0
1061 2150 -1062 0
1061 -2150 1062 0
-1061 -2150 -1062 0
-1061 2150 1062 0
1062 -4 -1063 1092 0
1062 -4 1063 1068 0
-1062 4 0
-1062 -1063 -1092 0
-1062 1063 -1068 0
1063 -1858 1860 1064 0
-1063 1858 0
-1063 -1064 0
-1063 -1860 0
1064 -1859 -695 1065 0
-1064 1859 0
-1064 695 0
-1064 -1065 0
1065 1942 -1943 -1944 0
1065 1942 -1943 -1066 0
-1065 -1942 0
-1065 1943 0
-1065 1944 1066 0
-1066 1945 1947 0
-1066 1945 1946 0
-1066 1945 1067 0
1066 -1945 0
1066 -1946 -1947 -1067 0
1067 -1948 -1949 0
1067 -1948 -842 0
1067 -1948 -1950 0
-1067 1948 0
-1067 1949 1950 842 0
1068 1069 -1075 0
1068 1667 -1069 0
1068 -2097 -1069 0
-1068 1069 1075 0
-1068 -1667 2097 -1069 0
1069 1858 -1860 1070 0
-1069 -1858 0
-1069 1860 0
-1069 -1070 0
1070 -1861 -690 1071 0
-1070 1861 0
-1070 690 0
-1070 -1071 0
1071 -1942 1943 1072 0
1071 -1942 1943 1944 0
-1071 1942 0
-1071 -1943 0
-1071 -1944 -1072 0
1072 -1945 -1946 0
1072 -1945 -1073 0
1072 -1945 -1947 0
-1072 1945 0
-1072 1946 1947 1073 0
-1073 1948 1950 0
-1073 1948 1949 0
-1073 1948 1074 0
1073 -1948 0
1073 -1949 -1950 -1074 0
1074 -1951 -1952 -1954 0
1074 -1951 -1952 -1953 0
-1074 1951 0
-1074 1952 0
-1074 1953 1954 0
1075 -2098 -1076 0
1075 1076 -1079 0
-1075 2098 -1076 0
-1075 1076 1079 0
1076 1077 -1078 0
-1076 -1077 0
-1076 1078 0
1077 -1860 -1070 0
-1077 1860 0
-1077 1070 0
1078 -1858 -1860 1064 0
-1078 1858 0
-1078 1860 0
-1078 -1064 0
1079 1080 -1081 0
1079 -1667 -1080 0
1079 -2099 -1080 0
-1079 1080 1081 0
-1079 1667 2099 -1080 0
1080 -1858 1860 -1064 0
-1080 1858 0
-1080 -1860 0
-1080 1064 0
-1081 1082 0
1081 -1082 0
1082 1083 -1084 0
1082 1667 -1083 0
1082 -2103 -1083 0
-1082 1083 1084 0
-1082 -1667 2103 -1083 0
1083 1858 -1860 -1070 0
-1083 1070 0
-1083 1860 0
-1083 -1858 0
-1084 1085 0
1084 -1085 0
1085 1086 -1087 0
1085 -1086 1090 -1091 0
-1085 -1086 -1090 0
-1085 1086 1087 0
-1085 -1086 1091 0
1086 -1077 -1078 0
-1086 1077 0
-1086 1078 0
1087 -1088 -1089 0
1087 -2114 1088 0
-1087 -1088 1089 0
-1087 2114 1088 0
1088 -1858 -1860 1077 -1064 0
-1088 1064 0
-1088 1858 0
-1088 1860 0
-1088 -1077 0
1089 1667 -2111 0
1089 -1667 -2113 0
-1089 -1667 2113 0
-1089 1667 2111 0
1090 -1667 2108 0
-1090 1667 0
-1090 -2108 0
-1091 1667 2110 0
1091 -1667 0
1091 -2110 0
-1092 1667 2096 0
1092 -1667 0
1092 -2096 0
1093 2152 1094 -1107 -1114 0
1093 -2152 1094 1107 -1114 0
-1093 1114 0
-1093 -2152 -1107 0
-1093 -1094 0
-1093 2152 1107 0
-1094 -2151 -1095 0
-1094 2151 1095 0
1094 2151 -1095 0
1094 -2151 1095 0
1095 -4 -1096 0
-1095 4 0
-1095 1096 0
1096 1063 -1097 0
1096 1667 2096 -1063 0
-1096 1063 1097 0
-1096 -1667 -1063 0
-1096 -2096 -1063 0
1097 1069 -1098 0
1097 -1667 2097 -1069 0
-1097 1069 1098 0
-1097 1667 -1069 0
-1097 -2097 -1069 0
1098 2098 -1076 0
1098 1076 -1099 0
-1098 -2098 -1076 0
-1098 1076 1099 0
1099 1080 -1100 0
1099 1667 -2100 -1080 0
-1099 1080 1100 0
-1099 -1667 -1080 0
-1099 2100 -1080 0
-1100 1101 0
1100 -1101 0
1101 1083 -1102 0
1101 -1667 -2104 -1083 0
-1101 1083 1102 0
-1101 2104 -1083 0
-1101 1667 -1083 0
-1102 1103 0
1102 -1103 0
1103 1086 -1104 0
1103 -1086 1106 0
-1103 -1086 -1106 0
-1103 1086 1104 0
1104 -1088 -1105 0
1104 -2115 1088 0
-1104 -1088 1105 0
-1104 2115 1088 0
1105 1667 -2112 0
1105 -1667 2113 0
-1105 -1667 -2113 0
-1105 1667 2112 0
-1106 -1667 -2109 0
-1106 1667 2110 0
1106 -1667 2109 0
1106 1667 -2110 0
1107 -1858 1108 -1110 1111 0
-1107 -1111 0
-1107 1858 0
-1107 1110 0
-1107 -1108 0
1108 -1665 1666 -1667 1109 0
-1108 -1109 0
-1108 1665 0
-1108 1667 0
-1108 -1666 0
-1109 1030 1032 0
1109 -1030 0
1109 -1032 0
1110 -1859 -696 1065 0
-1110 1859 0
-1110 696 0
-1110 -1065 0
-1111 1665 0
-1111 1112 0
-1111 -1666 0
1111 -1665 1666 -1112 0
-1112 -1030 -1113 0
-1112 1030 1113 0
1112 1030 -1113 0
1112 -1030 1113 0
1113 -1032 -1034 0
-1113 1032 0
-1113 1034 0
1114 2153 -1115 -1118 -1120 0
1114 -2153 1115 -1118 -1120 0
-1114 1120 0
-1114 2153 1115 0
-1114 1118 0
-1114 -2153 -1115 0
1115 -1860 1111 1116 -1117 0
-1115 1117 0
-1115 1860 0
-1115 -1111 0
-1115 -1116 0
1116 -1665 1666 1667 1109 0
-1116 -1109 0
-1116 -1667 0
-1116 1665 0
-1116 -1666 0
1117 -1861 -691 1071 0
-1117 1861 0
-1117 691 0
-1117 -1071 0
1118 2154 -1119 0
1118 -2154 1119 0
-1118 -2154 -1119 0
-1118 2154 1119 0
1119 -1860 1111 1116 0
-1119 1860 0
-1119 -1111 0
-1119 -1116 0
1120 2155 -1121 1122 1160 0
1120 -2155 1121 1122 1160 0
-1120 -1160 0
-1120 2155 1121 0
-1120 -1122 0
-1120 -2155 -1121 0
1121 -1858 1108 1111 0
-1121 1858 0
-1121 -1108 0
-1121 -1111 0
-1122 2156 1123 0
-1122 -2156 -1123 0
1122 -2156 1123 0
1122 2156 -1123 0
-1123 1124 -1125 1159 0
-1123 1124 1125 1126 0
1123 -1124 0
1123 -1125 -1159 0
1123 1125 -1126 0
1124 -2152 -2153 -2154 -2155 0
-1124 2155 0
-1124 2152 0
-1124 2154 0
-1124 2153 0
1125 -2152 -2153 -2154 2155 0
-1125 2154 0
-1125 -2155 0
-1125 2152 0
-1125 2153 0
1126 1127 -1128 0
1126 1683 -1127 0
1126 -2117 -1127 0
-1126 1127 1128 0
-1126 -1683 2117 -1127 0
1127 -2152 -2153 2154 -2155 0
-1127 2155 0
-1127 2152 0
-1127 2153 0
-1127 -2154 0
1128 1129 -1130 0
1128 -1683 -1129 0
1128 -2118 -1129 0
-1128 1129 1130 0
-1128 1683 2118 -1129 0
1129 2152 -2153 -2154 -2155 0
-1129 -2152 0
-1129 2155 0
-1129 2154 0
-1129 2153 0
1130 1131 -1132 0
1130 1683 -1131 0
1130 -2119 -1131 0
-1130 1131 1132 0
-1130 -1683 2119 -1131 0
1131 -2152 2153 -2154 -2155 0
-1131 2155 0
-1131 2152 0
-1131 2154 0
-1131 -2153 0
1132 -2120 -1133 0
1132 1133 -1134 0
-1132 2120 -1133 0
-1132 1133 1134 0
1133 -2152 -2153 2154 2155 0
-1133 2153 0
-1133 -2155 0
-1133 2152 0
-1133 -2154 0
1134 1135 -1136 0
1134 -1683 -1135 0
1134 -2121 -1135 0
-1134 1135 1136 0
-1134 1683 2121 -1135 0
1135 2152 -2153 -2154 2155 0
-1135 -2152 0
-1135 -2155 0
-1135 2154 0
-1135 2153 0
1136 1137 -1138 0
1136 -1137 1157 -1158 0
-1136 -1137 -1157 0
-1136 1137 1138 0
-1136 -1137 1158 0
1137 -2152 2153 -2154 2155 0
-1137 2154 0
-1137 -2155 0
-1137 2152 0
-1137 -2153 0
1138 1139 -1140 0
1138 -1139 -1156 0
-1138 -1139 1156 0
-1138 1139 1140 0
1139 2152 -2153 2154 -2155 0
-1139 2153 0
-1139 -2154 0
-1139 -2152 0
-1139 2155 0
1140 1141 -1142 0
1140 1683 -1141 0
1140 -2127 -1141 0
-1140 1141 1142 0
-1140 -1683 2127 -1141 0
1141 -2152 2153 2154 -2155 0
-1141 2155 0
-1141 -2154 0
-1141 2152 0
-1141 -2153 0
1142 -2129 -1143 0
1142 1143 -1144 0
-1142 2129 -1143 0
-1142 1143 1144 0
1143 2152 2153 -2154 -2155 0
-1143 -2152 0
-1143 2155 0
-1143 2154 0
-1143 -2153 0
1144 1145 -1146 0
1144 -1145 -1155 0
-1144 -1145 1155 0
-1144 1145 1146 0
1145 2152 2153 2154 -2155 0
-1145 2155 0
-1145 -2154 0
-1145 -2152 0
-1145 -2153 0
1146 1147 -1148 0
1146 -1147 -1154 0
-1146 -1147 1154 0
-1146 1147 1148 0
1147 2152 2153 -2154 2155 0
-1147 -2152 0
-1147 -2155 0
-1147 2154 0
-1147 -2153 0
1148 1149 -1150 0
1148 -1149 -1153 0
-1148 -1149 1153 0
-1148 1149 1150 0
1149 -2152 2153 2154 2155 0
-1149 -2155 0
-1149 -2154 0
-1149 2152 0
-1149 -2153 0
1150 -1151 -1152 0
1150 -2142 1151 0
-1150 -1151 1152 0
-1150 2142 1151 0
1151 2152 -2153 2154 2155 0
-1151 2153 0
-1151 -2155 0
-1151 -2152 0
-1151 -2154 0
1152 1683 -2139 0
1152 -1683 -2141 0
-1152 -1683 2141 0
-1152 1683 2139 0
1153 -1683 -2136 0
1153 1683 -2138 0
-1153 1683 2138 0
-1153 -1683 2136 0
1154 1683 -2133 0
1154 -1683 -2135 0
-1154 -1683 2135 0
-1154 1683 2133 0
1155 -1683 -2130 0
1155 1683 -2132 0
-1155 1683 2132 0
-1155 -1683 2130 0
1156 1683 -2125 0
1156 -1683 -2126 0
-1156 -1683 2126 0
-1156 1683 2125 0
1157 -1683 2123 0
-1157 1683 0
-1157 -2123 0
-1158 1683 2124 0
1158 -1683 0
1158 -2124 0
-1159 1683 2116 0
1159 -1683 0
1159 -2116 0
-1160 2157 1161 1176 1178 0
-1160 -2157 -1161 1176 1178 0
1160 -1178 0
1160 -2157 1161 0
1160 -1176 0
1160 2157 -1161 0
1161 1124 1125 -1162 0
1161 1124 -1125 1159 0
-1161 -1124 0
-1161 -1125 -1159 0
-1161 1125 1162 0
1162 -1127 -1163 0
1162 1127 1129 -1164 0
-1162 1127 -1129 0
-1162 -1127 1163 0
-1162 1127 1164 0
1163 -1683 2117 0
-1163 1683 0
-1163 -2117 0
1164 1131 1133 -1165 0
1164 2120 1131 -1133 0
-1164 -1131 0
-1164 1133 1165 0
-1164 -2120 -1133 0
1165 1135 -1166 0
1165 1683 -2122 -1135 0
-1165 1135 1166 0
-1165 -1683 -1135 0
-1165 2122 -1135 0
1166 1137 -1167 0
1166 1683 2124 -1137 0
-1166 1137 1167 0
-1166 -1683 -1137 0
-1166 -2124 -1137 0
1167 1139 -1168 0
1167 -1683 2126 -1139 0
-1167 1139 1168 0
-1167 1683 -1139 0
-1167 -2126 -1139 0
1168 1141 -1169 0
1168 -1683 -2128 -1141 0
-1168 1141 1169 0
-1168 2128 -1141 0
-1168 1683 -1141 0
1169 1143 -1170 0
-1169 -1143 0
-1169 1170 0
1170 1145 -1171 0
1170 -1683 -2131 -1145 0
-1170 1145 1171 0
-1170 2131 -1145 0
-1170 1683 -1145 0
1171 1147 -1172 0
1171 1683 -2134 -1147 0
-1171 1147 1172 0
-1171 -1683 -1147 0
-1171 2134 -1147 0
1172 1149 -1173 0
1172 -1149 1175 0
-1172 -1149 -1175 0
-1172 1149 1173 0
1173 -1151 -1174 0
1173 -2143 1151 0
-1173 -1151 1174 0
-1173 2143 1151 0
1174 1683 -2140 0
1174 -1683 2141 0
-1174 -1683 -2141 0
-1174 1683 2140 0
-1175 -1683 -2137 0
-1175 1683 2138 0
1175 -1683 2137 0
1175 1683 -2138 0
-1176 -1574 -1177 0
-1176 1574 1177 0
1176 1574 -1177 0
1176 -1574 1177 0
1177 -1582 -1862 0
1177 1582 -1878 0
-1177 1582 1878 0
-1177 -1582 1862 0
-1178 1575 1179 1180 1182 0
-1178 -1575 -1179 1180 1182 0
1178 -1182 0
1178 -1575 1179 0
1178 -1180 0
1178 1575 -1179 0
1179 -1582 -1863 0
1179 1582 -1879 0
-1179 1582 1879 0
-1179 -1582 1863 0
-1180 -1576 -1181 0
-1180 1576 1181 0
1180 1576 -1181 0
1180 -1576 1181 0
1181 -1582 -1864 0
1181 1582 -1880 0
-1181 1582 1880 0
-1181 -1582 1864 0
-1182 1577 1183 1184 1186 0
-1182 -1577 -1183 1184 1186 0
1182 -1186 0
1182 -1577 1183 0
1182 -1184 0
1182 1577 -1183 0
1183 -1582 -1865 0
1183 1582 -1881 0
-1183 1582 1881 0
-1183 -1582 1865 0
-1184 -1578 -1185 0
-1184 1578 1185 0
1184 1578 -1185 0
1184 -1578 1185 0
1185 -1582 -1866 0
1185 1582 -1882 0
-1185 1582 1882 0
-1185 -1582 1866 0
-1186 1579 1187 1188 1190 0
-1186 -1579 -1187 1188 1190 0
1186 -1190 0
1186 -1579 1187 0
1186 -1188 0
1186 1579 -1187 0
1187 -1582 -1867 0
1187 1582 -1883 0
-1187 1582 1883 0
-1187 -1582 1867 0
-1188 -1580 -1189 0
-1188 1580 1189 0
1188 1580 -1189 0
1188 -1580 1189 0
1189 -1582 -1868 0
1189 1582 -1884 0
-1189 1582 1884 0
-1189 -1582 1868 0
-1190 1581 1191 1192 1194 0
-1190 -1581 -1191 1192 1194 0
1190 -1194 0
1190 -1581 1191 0
1190 -1192 0
1190 1581 -1191 0
1191 -1582 -1869 0
1191 1582 -1885 0
-1191 1582 1885 0
-1191 -1582 1869 0
-1192 -1655 -1193 0
-1192 1655 1193 0
1192 1655 -1193 0
1192 -1655 1193 0
1193 -1582 -1959 0
1193 1582 -1967 0
-1193 1582 1967 0
-1193 -1582 1959 0
-1194 1656 1195 1196 1198 0
-1194 -1656 -1195 1196 1198 0
1194 -1198 0
1194 -1656 1195 0
1194 -1196 0
1194 1656 -1195 0
1195 -1582 -1967 0
1195 1582 -1968 0
-1195 1582 1968 0
-1195 -1582 1967 0
-1196 -1657 -1197 0
-1196 1657 1197 0
1196 1657 -1197 0
1196 -1657 1197 0
1197 -1582 -1968 0
1197 1582 -1969 0
-1197 1582 1969 0
-1197 -1582 1968 0
-1198 1658 1199 1200 1202 0
-1198 -1658 -1199 1200 1202 0
1198 -1202 0
1198 -1658 1199 0
1198 -1200 0
1198 1658 -1199 0
1199 -1582 -1969 0
1199 1582 -1970 0
-1199 1582 1970 0
-1199 -1582 1969 0
-1200 -1659 -1201 0
-1200 1659 1201 0
1200 1659 -1201 0
1200 -1659 1201 0
1201 -1582 -1970 0
1201 1582 -1971 0
-1201 1582 1971 0
-1201 -1582 1970 0
-1202 1660 1203 1204 1206 0
-1202 -1660 -1203 1204 1206 0
1202 -1206 0
1202 -1660 1203 0
1202 -1204 0
1202 1660 -1203 0
1203 -1582 -1971 0
1203 1582 -1972 0
-1203 1582 1972 0
-1203 -1582 1971 0
-1204 -1661 -1205 0
-1204 1661 1205 0
1204 1661 -1205 0
1204 -1661 1205 0
1205 -1582 -1972 0
1205 1582 -1973 0
-1205 1582 1973 0
-1205 -1582 1972 0
-1206 1662 1207 1208 1210 0
-1206 -1662 -1207 1208 1210 0
1206 -1210 0
1206 -1662 1207 0
1206 -1208 0
1206 1662 -1207 0
1207 -1582 -1973 0
1207 1582 -1974 0
-1207 1582 1974 0
-1207 -1582 1973 0
-1208 -1663 -1209 0
-1208 1663 1209 0
1208 1663 -1209 0
1208 -1663 1209 0
1209 -1582 -1974 0
1209 1582 -1975 0
-1209 1582 1975 0
-1209 -1582 1974 0
-1210 1664 1211 1212 1214 0
-1210 -1664 -1211 1212 1214 0
1210 -1214 0
1210 -1664 1211 0
1210 -1212 0
1210 1664 -1211 0
1211 -1582 -1975 0
1211 1582 -1976 0
-1211 1582 1976 0
-1211 -1582 1975 0
-1212 -1674 -1213 0
-1212 1674 1213 0
1212 1674 -1213 0
1212 -1674 1213 0
1213 -1582 -1984 0
1213 1582 -1990 0
-1213 1582 1990 0
-1213 -1582 1984 0
-1214 1675 1215 1216 1218 0
-1214 -1675 -1215 1216 1218 0
1214 -1218 0
1214 -1675 1215 0
1214 -1216 0
1214 1675 -1215 0
1215 -1582 -1978 0
1215 1582 -1991 0
-1215 1582 1991 0
-1215 -1582 1978 0
-1216 -1676 -1217 0
-1216 1676 1217 0
1216 1676 -1217 0
1216 -1676 1217 0
1217 -1582 -1979 0
1217 1582 -1992 0
-1217 1582 1992 0
-1217 -1582 1979 0
-1218 1677 1219 1220 1222 0
-1218 -1677 -1219 1220 1222 0
1218 -1222 0
1218 -1677 1219 0
1218 -1220 0
1218 1677 -1219 0
1219 -1582 -1980 0
1219 1582 -1993 0
-1219 1582 1993 0
-1219 -1582 1980 0
-1220 -1678 -1221 0
-1220 1678 1221 0
1220 1678 -1221 0
1220 -1678 1221 0
1221 -1582 -1981 0
1221 1582 -1994 0
-1221 1582 1994 0
-1221 -1582 1981 0
-1222 1679 1223 1224 1226 0
-1222 -1679 -1223 1224 1226 0
1222 -1226 0
1222 -1679 1223 0
1222 -1224 0
1222 1679 -1223 0
1223 -1582 -1982 0
1223 1582 -1995 0
-1223 1582 1995 0
-1223 -1582 1982 0
-1224 -1680 -1225 0
-1224 1680 1225 0
1224 1680 -1225 0
1224 -1680 1225 0
1225 -1582 -1983 0
1225 1582 -1996 0
-1225 1582 1996 0
-1225 -1582 1983 0
-1226 1671 1227 1228 1230 0
-1226 -1671 -1227 1228 1230 0
1226 -1230 0
1226 -1671 1227 0
1226 -1228 0
1226 1671 -1227 0
1227 1893 -1987 0
1227 1667 -1893 -1980 0
1227 -1667 -1893 1980 0
-1227 1893 1987 0
-1227 1667 -1893 1980 0
-1227 -1667 -1893 -1980 0
-1228 -1693 -1229 0
-1228 1693 1229 0
1228 1693 -1229 0
1228 -1693 1229 0
1229 -1582 -2003 0
1229 1582 -2009 0
-1229 1582 2009 0
-1229 -1582 2003 0
-1230 1694 1231 1232 1234 0
-1230 -1694 -1231 1232 1234 0
1230 -1234 0
1230 -1694 1231 0
1230 -1232 0
1230 1694 -1231 0
1231 -1582 -1997 0
1231 1582 -2010 0
-1231 1582 2010 0
-1231 -1582 1997 0
-1232 -1695 -1233 0
-1232 1695 1233 0
1232 1695 -1233 0
1232 -1695 1233 0
1233 -1582 -1998 0
1233 1582 -2011 0
-1233 1582 2011 0
-1233 -1582 1998 0
-1234 1696 1235 1236 1238 0
-1234 -1696 -1235 1236 1238 0
1234 -1238 0
1234 -1696 1235 0
1234 -1236 0
1234 1696 -1235 0
1235 -1582 -1999 0
1235 1582 -2012 0
-1235 1582 2012 0
-1235 -1582 1999 0
-1236 -1697 -1237 0
-1236 1697 1237 0
1236 1697 -1237 0
1236 -1697 1237 0
1237 -1582 -2000 0
1237 1582 -2013 0
-1237 1582 2013 0
-1237 -1582 2000 0
-1238 1698 1239 1240 1242 0
-1238 -1698 -1239 1240 1242 0
1238 -1242 0
1238 -1698 1239 0
1238 -1240 0
1238 1698 -1239 0
1239 -1582 -2001 0
1239 1582 -2014 0
-1239 1582 2014 0
-1239 -1582 2001 0
-1240 -1699 -1241 0
-1240 1699 1241 0
1240 1699 -1241 0
1240 -1699 1241 0
1241 -1582 -2002 0
1241 1582 -2015 0
-1241 1582 2015 0
-1241 -1582 2002 0
-1242 1684 1243 1246 1250 0
-1242 -1684 -1243 1246 1250 0
1242 -1250 0
1242 -1684 1243 0
1242 -1246 0
1242 1684 -1243 0
1243 1893 -2000 0
1243 -1893 1244 -1245 0
-1243 -1893 1245 0
-1243 1893 2000 0
-1243 -1893 -1244 0
-1244 1665 0
-1244 -1666 0
-1244 -1109 0
1244 -1665 1666 1109 0
1245 2147 -2148 0
1245 2147 -2149 0
-1245 -2147 0
-1245 2148 2149 0
-1246 -1685 -1247 0
-1246 1685 1247 0
1246 1685 -1247 0
1246 -1685 1247 0
1247 -2001 1248 0
1247 -1893 1248 0
-1247 -1248 0
-1247 1893 2001 0
-1248 1893 0
-1248 -2156 -1244 0
-1248 1244 1249 0
1248 -1893 1244 -1249 0
1248 -1893 2156 -1244 0
-1249 -2147 -2156 0
-1249 2147 -2148 -2149 0
-1249 2147 2148 2149 0
1249 -2147 2156 0
1249 2147 -2148 2149 0
1249 2147 2148 -2149 0
-1250 1690 1251 1252 1563 0
-1250 -1690 -1251 1252 1563 0
1250 -1563 0
1250 -1690 1251 0
1250 -1252 0
1250 1690 -1251 0
1251 1893 -2006 0
1251 1683 -1893 -1999 0
1251 -1683 -1893 1999 0
-1251 1893 2006 0
-1251 1683 -1893 1999 0
-1251 -1683 -1893 -1999 0
-1252 1700 1253 1254 1256 0
-1252 -1700 -1253 1254 1256 0
1252 -1256 0
1252 -1700 1253 0
1252 -1254 0
1252 1700 -1253 0
1253 1582 -2016 0
1253 -1582 850 0
-1253 -1582 -850 0
-1253 1582 2016 0
-1254 -1701 -1255 0
-1254 1701 1255 0
1254 1701 -1255 0
1254 -1701 1255 0
1255 1582 -2017 0
1255 -1582 -848 0
-1255 -1582 848 0
-1255 1582 2017 0
-1256 1702 1257 1258 1260 0
-1256 -1702 -1257 1258 1260 0
1256 -1260 0
1256 -1702 1257 0
1256 -1258 0
1256 1702 -1257 0
1257 1582 -2018 0
1257 -1582 846 0
-1257 -1582 -846 0
-1257 1582 2018 0
-1258 -1703 -1259 0
-1258 1703 1259 0
1258 1703 -1259 0
1258 -1703 1259 0
1259 1582 -2019 0
1259 -1582 -956 0
-1259 -1582 956 0
-1259 1582 2019 0
-1260 1704 1261 1262 1264 0
-1260 -1704 -1261 1262 1264 0
1260 -1264 0
1260 -1704 1261 0
1260 -1262 0
1260 1704 -1261 0
1261 1582 -2020 0
1261 -1582 -954 0
-1261 -1582 954 0
-1261 1582 2020 0
-1262 -1705 -1263 0
-1262 1705 1263 0
1262 1705 -1263 0
1262 -1705 1263 0
1263 1582 -2021 0
1263 -1582 -952 0
-1263 -1582 952 0
-1263 1582 2021 0
-1264 1706 1265 1266 1268 0
-1264 -1706 -1265 1266 1268 0
1264 -1268 0
1264 -1706 1265 0
1264 -1266 0
1264 1706 -1265 0
1265 1582 -2022 0
1265 -1582 -357 0
-1265 -1582 357 0
-1265 1582 2022 0
-1266 -1707 -1267 0
-1266 1707 1267 0
1266 1707 -1267 0
1266 -1707 1267 0
1267 1582 -2023 0
1267 -1582 -412 0
-1267 -1582 412 0
-1267 1582 2023 0
-1268 1708 1269 1270 1272 0
-1268 -1708 -1269 1270 1272 0
1268 -1272 0
1268 -1708 1269 0
1268 -1270 0
1268 1708 -1269 0
1269 1582 -2024 0
1269 -1582 -421 0
-1269 -1582 421 0
-1269 1582 2024 0
-1270 -1709 -1271 0
-1270 1709 1271 0
1270 1709 -1271 0
1270 -1709 1271 0
1271 1582 -2025 0
1271 -1582 -432 0
-1271 -1582 432 0
-1271 1582 2025 0
-1272 1710 1273 1274 1276 0
-1272 -1710 -1273 1274 1276 0
1272 -1276 0
1272 -1710 1273 0
1272 -1274 0
1272 1710 -1273 0
1273 1582 -2026 0
1273 -1582 -441 0
-1273 -1582 441 0
-1273 1582 2026 0
-1274 -1711 -1275 0
-1274 1711 1275 0
1274 1711 -1275 0
1274 -1711 1275 0
1275 1582 -2027 0
1275 -1582 -450 0
-1275 -1582 450 0
-1275 1582 2027 0
-1276 1712 1277 1278 1280 0
-1276 -1712 -1277 1278 1280 0
1276 -1280 0
1276 -1712 1277 0
1276 -1278 0
1276 1712 -1277 0
1277 1582 -2028 0
1277 -1582 -460 0
-1277 -1582 460 0
-1277 1582 2028 0
-1278 -1713 -1279 0
-1278 1713 1279 0
1278 1713 -1279 0
1278 -1713 1279 0
1279 1582 -2029 0
1279 -1582 -469 0
-1279 -1582 469 0
-1279 1582 2029 0
-1280 1714 1281 1282 1284 0
-1280 -1714 -1281 1282 1284 0
1280 -1284 0
1280 -1714 1281 0
1280 -1282 0
1280 1714 -1281 0
1281 1582 -2030 0
1281 -1582 -478 0
-1281 -1582 478 0
-1281 1582 2030 0
-1282 -1715 -1283 0
-1282 1715 1283 0
1282 1715 -1283 0
1282 -1715 1283 0
1283 1582 -2031 0
1283 -1582 -496 0
-1283 -1582 496 0
-1283 1582 2031 0
-1284 1716 1285 1286 1288 0
-1284 -1716 -1285 1286 1288 0
1284 -1288 0
1284 -1716 1285 0
1284 -1286 0
1284 1716 -1285 0
1285 1582 -2032 0
1285 -1582 1862 -488 0
-1285 -1582 -1862 0
-1285 1582 2032 0
-1285 -1582 488 0
-1286 -1717 -1287 0
-1286 1717 1287 0
1286 1717 -1287 0
1286 -1717 1287 0
1287 1582 -2033 0
1287 -1582 1862 -818 0
-1287 -1582 -1862 0
-1287 1582 2033 0
-1287 -1582 818 0
-1288 1718 1289 1290 1292 0
-1288 -1718 -1289 1290 1292 0
1288 -1292 0
1288 -1718 1289 0
1288 -1290 0
1288 1718 -1289 0
1289 1582 -2034 0
1289 -1582 1862 -828 0
-1289 -1582 -1862 0
-1289 1582 2034 0
-1289 -1582 828 0
-1290 -1719 -1291 0
-1290 1719 1291 0
1290 1719 -1291 0
1290 -1719 1291 0
1291 1582 -2035 0
1291 -1582 194 0
-1291 -1582 -194 0
-1291 1582 2035 0
-1292 1720 1293 1294 1296 0
-1292 -1720 -1293 1294 1296 0
1292 -1296 0
1292 -1720 1293 0
1292 -1294 0
1292 1720 -1293 0
1293 1582 -2036 0
1293 -1582 -200 0
-1293 -1582 200 0
-1293 1582 2036 0
-1294 -1721 -1295 0
-1294 1721 1295 0
1294 1721 -1295 0
1294 -1721 1295 0
1295 1582 -2037 0
1295 -1582 -208 0
-1295 -1582 208 0
-1295 1582 2037 0
-1296 1722 1297 1298 1300 0
-1296 -1722 -1297 1298 1300 0
1296 -1300 0
1296 -1722 1297 0
1296 -1298 0
1296 1722 -1297 0
1297 1582 -2038 0
1297 -1582 -216 0
-1297 -1582 216 0
-1297 1582 2038 0
-1298 -1723 -1299 0
-1298 1723 1299 0
1298 1723 -1299 0
1298 -1723 1299 0
1299 1582 -2039 0
1299 -1582 -224 0
-1299 -1582 224 0
-1299 1582 2039 0
-1300 1724 1301 1302 1304 0
-1300 -1724 -1301 1302 1304 0
1300 -1304 0
1300 -1724 1301 0
1300 -1302 0
1300 1724 -1301 0
1301 1582 -2040 0
1301 -1582 -232 0
-1301 -1582 232 0
-1301 1582 2040 0
-1302 -1725 -1303 0
-1302 1725 1303 0
1302 1725 -1303 0
1302 -1725 1303 0
1303 1582 -2041 0
1303 -1582 -240 0
-1303 -1582 240 0
-1303 1582 2041 0
-1304 1726 1305 1306 1308 0
-1304 -1726 -1305 1306 1308 0
1304 -1308 0
1304 -1726 1305 0
1304 -1306 0
1304 1726 -1305 0
1305 1582 -2042 0
1305 -1582 -248 0
-1305 -1582 248 0
-1305 1582 2042 0
-1306 -1727 -1307 0
-1306 1727 1307 0
1306 1727 -1307 0
1306 -1727 1307 0
1307 1582 -2043 0
1307 -1582 -256 0
-1307 -1582 256 0
-1307 1582 2043 0
-1308 1728 1309 1310 1312 0
-1308 -1728 -1309 1310 1312 0
1308 -1312 0
1308 -1728 1309 0
1308 -1310 0
1308 1728 -1309 0
1309 1582 -2044 0
1309 -1582 -264 0
-1309 -1582 264 0
-1309 1582 2044 0
-1310 -1729 -1311 0
-1310 1729 1311 0
1310 1729 -1311 0
1310 -1729 1311 0
1311 1582 -2045 0
1311 -1582 -272 0
-1311 -1582 272 0
-1311 1582 2045 0
-1312 1730 1313 1314 1316 0
-1312 -1730 -1313 1314 1316 0
1312 -1316 0
1312 -1730 1313 0
1312 -1314 0
1312 1730 -1313 0
1313 1582 -2046 0
1313 -1582 -280 0
-1313 -1582 280 0
-1313 1582 2046 0
-1314 -1731 -1315 0
-1314 1731 1315 0
1314 1731 -1315 0
1314 -1731 1315 0
1315 1582 -2047 0
1315 -1582 -288 0
-1315 -1582 288 0
-1315 1582 2047 0
-1316 1732 1317 1318 1320 0
-1316 -1732 -1317 1318 1320 0
1316 -1320 0
1316 -1732 1317 0
1316 -1318 0
1316 1732 -1317 0
1317 1582 -2048 0
1317 -1582 -296 0
-1317 -1582 296 0
-1317 1582 2048 0
-1318 -1733 -1319 0
-1318 1733 1319 0
1318 1733 -1319 0
1318 -1733 1319 0
1319 1582 -2049 0
1319 -1582 -304 0
-1319 -1582 304 0
-1319 1582 2049 0
-1320 1734 1321 1322 1324 0
-1320 -1734 -1321 1322 1324 0
1320 -1324 0
1320 -1734 1321 0
1320 -1322 0
1320 1734 -1321 0
1321 1582 -2050 0
1321 -1582 -312 0
-1321 -1582 312 0
-1321 1582 2050 0
-1322 -1735 -1323 0
-1322 1735 1323 0
1322 1735 -1323 0
1322 -1735 1323 0
1323 -1582 -1942 0
1323 1582 -2051 0
-1323 1582 2051 0
-1323 -1582 1942 0
-1324 1736 1325 1326 1328 0
-1324 -1736 -1325 1326 1328 0
1324 -1328 0
1324 -1736 1325 0
1324 -1326 0
1324 1736 -1325 0
1325 -1582 -1943 0
1325 1582 -2052 0
-1325 1582 2052 0
-1325 -1582 1943 0
-1326 -1737 -1327 0
-1326 1737 1327 0
1326 1737 -1327 0
1326 -1737 1327 0
1327 -1582 -1944 0
1327 1582 -2053 0
-1327 1582 2053 0
-1327 -1582 1944 0
-1328 1738 1329 1330 1332 0
-1328 -1738 -1329 1330 1332 0
1328 -1332 0
1328 -1738 1329 0
1328 -1330 0
1328 1738 -1329 0
1329 -1582 -1945 0
1329 1582 -2054 0
-1329 1582 2054 0
-1329 -1582 1945 0
-1330 -1739 -1331 0
-1330 1739 1331 0
1330 1739 -1331 0
1330 -1739 1331 0
1331 -1582 -1946 0
1331 1582 -2055 0
-1331 1582 2055 0
-1331 -1582 1946 0
-1332 1740 1333 1334 1336 0
-1332 -1740 -1333 1334 1336 0
1332 -1336 0
1332 -1740 1333 0
1332 -1334 0
1332 1740 -1333 0
1333 -1582 -1947 0
1333 1582 -2056 0
-1333 1582 2056 0
-1333 -1582 1947 0
-1334 -1741 -1335 0
-1334 1741 1335 0
1334 1741 -1335 0
1334 -1741 1335 0
1335 -1582 -1948 0
1335 1582 -2057 0
-1335 1582 2057 0
-1335 -1582 1948 0
-1336 1742 1337 1338 1340 0
-1336 -1742 -1337 1338 1340 0
1336 -1340 0
1336 -1742 1337 0
1336 -1338 0
1336 1742 -1337 0
1337 -1582 -1949 0
1337 1582 -2058 0
-1337 1582 2058 0
-1337 -1582 1949 0
-1338 -1743 -1339 0
-1338 1743 1339 0
1338 1743 -1339 0
1338 -1743 1339 0
1339 -1582 -1950 0
1339 1582 -2059 0
-1339 1582 2059 0
-1339 -1582 1950 0
-1340 1744 1341 1342 1344 0
-1340 -1744 -1341 1342 1344 0
1340 -1344 0
1340 -1744 1341 0
1340 -1342 0
1340 1744 -1341 0
1341 -1582 -1951 0
1341 1582 -2060 0
-1341 1582 2060 0
-1341 -1582 1951 0
-1342 -1745 -1343 0
-1342 1745 1343 0
1342 1745 -1343 0
1342 -1745 1343 0
1343 -1582 -1952 0
1343 1582 -2061 0
-1343 1582 2061 0
-1343 -1582 1952 0
-1344 1746 1345 1346 1348 0
-1344 -1746 -1345 1346 1348 0
1344 -1348 0
1344 -1746 1345 0
1344 -1346 0
1344 1746 -1345 0
1345 -1582 -1953 0
1345 1582 -2062 0
-1345 1582 2062 0
-1345 -1582 1953 0
-1346 -1747 -1347 0
-1346 1747 1347 0
1346 1747 -1347 0
1346 -1747 1347 0
1347 -1582 -1954 0
1347 1582 -2063 0
-1347 1582 2063 0
-1347 -1582 1954 0
-1348 1748 1349 1350 1352 0
-1348 -1748 -1349 1350 1352 0
1348 -1352 0
1348 -1748 1349 0
1348 -1350 0
1348 1748 -1349 0
1349 1582 -2064 0
1349 -1582 -2080 0
-1349 -1582 2080 0
-1349 1582 2064 0
-1350 -1749 -1351 0
-1350 1749 1351 0
1350 1749 -1351 0
1350 -1749 1351 0
1351 1582 -2065 0
1351 -1582 -2081 0
-1351 -1582 2081 0
-1351 1582 2065 0
-1352 1750 1353 1354 1356 0
-1352 -1750 -1353 1354 1356 0
1352 -1356 0
1352 -1750 1353 0
1352 -1354 0
1352 1750 -1353 0
1353 1582 -2066 0
1353 -1582 -2082 0
-1353 -1582 2082 0
-1353 1582 2066 0
-1354 -1751 -1355 0
-1354 1751 1355 0
1354 1751 -1355 0
1354 -1751 1355 0
1355 1582 -2067 0
1355 -1582 -2083 0
-1355 -1582 2083 0
-1355 1582 2067 0
-1356 1752 1357 1358 1360 0
-1356 -1752 -1357 1358 1360 0
1356 -1360 0
1356 -1752 1357 0
1356 -1358 0
1356 1752 -1357 0
1357 1582 -2068 0
1357 -1582 -2084 0
-1357 -1582 2084 0
-1357 1582 2068 0
-1358 -1753 -1359 0
-1358 1753 1359 0
1358 1753 -1359 0
1358 -1753 1359 0
1359 1582 -2069 0
1359 -1582 -2085 0
-1359 -1582 2085 0
-1359 1582 2069 0
-1360 1754 1361 1362 1364 0
-1360 -1754 -1361 1362 1364 0
1360 -1364 0
1360 -1754 1361 0
1360 -1362 0
1360 1754 -1361 0
1361 1582 -2070 0
1361 -1582 -2086 0
-1361 -1582 2086 0
-1361 1582 2070 0
-1362 -1755 -1363 0
-1362 1755 1363 0
1362 1755 -1363 0
1362 -1755 1363 0
1363 1582 -2071 0
1363 -1582 -2087 0
-1363 -1582 2087 0
-1363 1582 2071 0
-1364 1756 1365 1366 1368 0
-1364 -1756 -1365 1366 1368 0
1364 -1368 0
1364 -1756 1365 0
1364 -1366 0
1364 1756 -1365 0
1365 1582 -2072 0
1365 -1582 -2088 0
-1365 -1582 2088 0
-1365 1582 2072 0
-1366 -1757 -1367 0
-1366 1757 1367 0
1366 1757 -1367 0
1366 -1757 1367 0
1367 1582 -2073 0
1367 -1582 -2089 0
-1367 -1582 2089 0
-1367 1582 2073 0
-1368 1758 1369 1370 1372 0
-1368 -1758 -1369 1370 1372 0
1368 -1372 0
1368 -1758 1369 0
1368 -1370 0
1368 1758 -1369 0
1369 1582 -2074 0
1369 -1582 -2090 0
-1369 -1582 2090 0
-1369 1582 2074 0
-1370 -1759 -1371 0
-1370 1759 1371 0
1370 1759 -1371 0
1370 -1759 1371 0
1371 1582 -2075 0
1371 -1582 -2091 0
-1371 -1582 2091 0
-1371 1582 2075 0
-1372 1760 1373 1374 1376 0
-1372 -1760 -1373 1374 1376 0
1372 -1376 0
1372 -1760 1373 0
1372 -1374 0
1372 1760 -1373 0
1373 1582 -2076 0
1373 -1582 -2092 0
-1373 -1582 2092 0
-1373 1582 2076 0
-1374 -1761 -1375 0
-1374 1761 1375 0
1374 1761 -1375 0
1374 -1761 1375 0
1375 1582 -2077 0
1375 -1582 -2093 0
-1375 -1582 2093 0
-1375 1582 2077 0
-1376 1762 1377 1378 1380 0
-1376 -1762 -1377 1378 1380 0
1376 -1380 0
1376 -1762 1377 0
1376 -1378 0
1376 1762 -1377 0
1377 1582 -2078 0
1377 -1582 -2094 0
-1377 -1582 2094 0
-1377 1582 2078 0
-1378 -1763 -1379 0
-1378 1763 1379 0
1378 1763 -1379 0
1378 -1763 1379 0
1379 1582 -2079 0
1379 -1582 -2095 0
-1379 -1582 2095 0
-1379 1582 2079 0
-1380 1381 1384 0
-1380 -1779 -2095 1384 0
-1380 1779 2095 1384 0
1380 -1384 0
1380 1779 -2095 -1381 0
1380 -1779 2095 -1381 0
-1381 1889 1890 1891 1382 0
1381 -1382 0
1381 -1891 0
1381 -1889 0
1381 -1890 0
-1382 1887 1892 1893 1383 0
1382 -1383 0
1382 -1893 0
1382 -1887 0
1382 -1892 0
-1383 1886 1977 0
1383 -1886 0
1383 -1977 0
-1384 1381 1385 0
-1384 -1778 -2094 1385 0
-1384 1778 2094 1385 0
1384 -1385 0
1384 1778 -2094 -1381 0
1384 -1778 2094 -1381 0
-1385 1381 1386 0
-1385 -1777 -2093 1386 0
-1385 1777 2093 1386 0
1385 -1386 0
1385 1777 -2093 -1381 0
1385 -1777 2093 -1381 0
-1386 1381 1387 0
-1386 -1776 -2092 1387 0
-1386 1776 2092 1387 0
1386 -1387 0
1386 1776 -2092 -1381 0
1386 -1776 2092 -1381 0
-1387 1381 1388 0
-1387 -1775 -2091 1388 0
-1387 1775 2091 1388 0
1387 -1388 0
1387 1775 -2091 -1381 0
1387 -1775 2091 -1381 0
-1388 1381 1389 0
-1388 -1774 -2090 1389 0
-1388 1774 2090 1389 0
1388 -1389 0
1388 1774 -2090 -1381 0
1388 -1774 2090 -1381 0
-1389 1381 1390 0
-1389 -1773 -2089 1390 0
-1389 1773 2089 1390 0
1389 -1390 0
1389 1773 -2089 -1381 0
1389 -1773 2089 -1381 0
-1390 1381 1391 0
-1390 -1772 -2088 1391 0
-1390 1772 2088 1391 0
1390 -1391 0
1390 1772 -2088 -1381 0
1390 -1772 2088 -1381 0
-1391 1381 1392 0
-1391 -1771 -2087 1392 0
-1391 1771 2087 1392 0
1391 -1392 0
1391 1771 -2087 -1381 0
1391 -1771 2087 -1381 0
-1392 1381 1393 0
-1392 -1770 -2086 1393 0
-1392 1770 2086 1393 0
1392 -1393 0
1392 1770 -2086 -1381 0
1392 -1770 2086 -1381 0
-1393 1381 1394 0
-1393 -1769 -2085 1394 0
-1393 1769 2085 1394 0
1393 -1394 0
1393 1769 -2085 -1381 0
1393 -1769 2085 -1381 0
-1394 1381 1395 0
-1394 -1768 -2084 1395 0
-1394 1768 2084 1395 0
1394 -1395 0
1394 1768 -2084 -1381 0
1394 -1768 2084 -1381 0
-1395 1381 1396 0
-1395 -1767 -2083 1396 0
-1395 1767 2083 1396 0
1395 -1396 0
1395 1767 -2083 -1381 0
1395 -1767 2083 -1381 0
-1396 1381 1397 0
-1396 -1766 -2082 1397 0
-1396 1766 2082 1397 0
1396 -1397 0
1396 1766 -2082 -1381 0
1396 -1766 2082 -1381 0
-1397 1381 1398 0
-1397 -1765 -2081 1398 0
-1397 1765 2081 1398 0
1397 -1398 0
1397 1765 -2081 -1381 0
1397 -1765 2081 -1381 0
-1398 1381 1399 0
-1398 -1764 -2080 1399 0
-1398 1764 2080 1399 0
1398 -1399 0
1398 1764 -2080 -1381 0
1398 -1764 2080 -1381 0
-1399 1381 1400 0
-1399 -1583 -1895 1400 0
-1399 1583 1895 1400 0
1399 -1400 0
1399 1583 -1895 -1381 0
1399 -1583 1895 -1381 0
-1400 1381 1401 0
-1400 -1584 -1896 1401 0
-1400 1584 1896 1401 0
1400 -1401 0
1400 1584 -1896 -1381 0
1400 -1584 1896 -1381 0
-1401 1381 1402 0
-1401 -1585 -1897 1402 0
-1401 1585 1897 1402 0
1401 -1402 0
1401 1585 -1897 -1381 0
1401 -1585 1897 -1381 0
-1402 1381 1403 0
-1402 -1586 -1898 1403 0
-1402 1586 1898 1403 0
1402 -1403 0
1402 1586 -1898 -1381 0
1402 -1586 1898 -1381 0
-1403 1381 1404 0
-1403 -1587 -1899 1404 0
-1403 1587 1899 1404 0
1403 -1404 0
1403 1587 -1899 -1381 0
1403 -1587 1899 -1381 0
-1404 1381 1405 0
-1404 -1588 -1900 1405 0
-1404 1588 1900 1405 0
1404 -1405 0
1404 1588 -1900 -1381 0
1404 -1588 1900 -1381 0
-1405 1381 1406 0
-1405 -1589 -1901 1406 0
-1405 1589 1901 1406 0
1405 -1406 0
1405 1589 -1901 -1381 0
1405 -1589 1901 -1381 0
-1406 1381 1407 0
-1406 -1590 -1902 1407 0
-1406 1590 1902 1407 0
1406 -1407 0
1406 1590 -1902 -1381 0
1406 -1590 1902 -1381 0
-1407 1381 1408 0
-1407 -1591 -1903 1408 0
-1407 1591 1903 1408 0
1407 -1408 0
1407 1591 -1903 -1381 0
1407 -1591 1903 -1381 0
-1408 1381 1409 0
-1408 -1592 -1904 1409 0
-1408 1592 1904 1409 0
1408 -1409 0
1408 1592 -1904 -1381 0
1408 -1592 1904 -1381 0
-1409 1381 1410 0
-1409 -1593 -1905 1410 0
-1409 1593 1905 1410 0
1409 -1410 0
1409 1593 -1905 -1381 0
1409 -1593 1905 -1381 0
-1410 1381 1411 0
-1410 -1594 -1906 1411 0
-1410 1594 1906 1411 0
1410 -1411 0
1410 1594 -1906 -1381 0
1410 -1594 1906 -1381 0
-1411 1381 1412 0
-1411 -1595 -1907 1412 0
-1411 1595 1907 1412 0
1411 -1412 0
1411 1595 -1907 -1381 0
1411 -1595 1907 -1381 0
-1412 1381 1413 0
-1412 -1596 -1908 1413 0
-1412 1596 1908 1413 0
1412 -1413 0
1412 1596 -1908 -1381 0
1412 -1596 1908 -1381 0
-1413 1381 1414 0
-1413 -1597 -1909 1414 0
-1413 1597 1909 1414 0
1413 -1414 0
1413 1597 -1909 -1381 0
1413 -1597 1909 -1381 0
-1414 1381 1415 0
-1414 -1598 -1910 1415 0
-1414 1598 1910 1415 0
1414 -1415 0
1414 1598 -1910 -1381 0
1414 -1598 1910 -1381 0
-1415 1381 1416 0
-1415 -1599 -1911 1416 0
-1415 1599 1911 1416 0
1415 -1416 0
1415 1599 -1911 -1381 0
1415 -1599 1911 -1381 0
-1416 1381 1417 0
-1416 -1600 -1912 1417 0
-1416 1600 1912 1417 0
1416 -1417 0
1416 1600 -1912 -1381 0
1416 -1600 1912 -1381 0
-1417 1381 1418 0
-1417 -1601 -1913 1418 0
-1417 1601 1913 1418 0
1417 -1418 0
1417 1601 -1913 -1381 0
1417 -1601 1913 -1381 0
-1418 1381 1419 0
-1418 -1602 -1914 1419 0
-1418 1602 1914 1419 0
1418 -1419 0
1418 1602 -1914 -1381 0
1418 -1602 1914 -1381 0
-1419 1381 1420 0
-1419 -1603 -1915 1420 0
-1419 1603 1915 1420 0
1419 -1420 0
1419 1603 -1915 -1381 0
1419 -1603 1915 -1381 0
-1420 1381 1421 0
-1420 -1604 -1916 1421 0
-1420 1604 1916 1421 0
1420 -1421 0
1420 1604 -1916 -1381 0
1420 -1604 1916 -1381 0
-1421 1381 1422 0
-1421 -1605 -1917 1422 0
-1421 1605 1917 1422 0
1421 -1422 0
1421 1605 -1917 -1381 0
1421 -1605 1917 -1381 0
-1422 1381 1423 0
-1422 -1606 -1918 1423 0
-1422 1606 1918 1423 0
1422 -1423 0
1422 1606 -1918 -1381 0
1422 -1606 1918 -1381 0
-1423 1381 1424 0
-1423 -1607 -1919 1424 0
-1423 1607 1919 1424 0
1423 -1424 0
1423 1607 -1919 -1381 0
1423 -1607 1919 -1381 0
-1424 1381 1425 0
-1424 -1608 -1920 1425 0
-1424 1608 1920 1425 0
1424 -1425 0
1424 1608 -1920 -1381 0
1424 -1608 1920 -1381 0
-1425 1381 1426 0
-1425 -1609 -1921 1426 0
-1425 1609 1921 1426 0
1425 -1426 0
1425 1609 -1921 -1381 0
1425 -1609 1921 -1381 0
-1426 1381 1427 0
-1426 -1610 -1922 1427 0
-1426 1610 1922 1427 0
1426 -1427 0
1426 1610 -1922 -1381 0
1426 -1610 1922 -1381 0
-1427 1381 1428 0
-1427 -1611 -1923 1428 0
-1427 1611 1923 1428 0
1427 -1428 0
1427 1611 -1923 -1381 0
1427 -1611 1923 -1381 0
-1428 1381 1429 0
-1428 -1612 -1924 1429 0
-1428 1612 1924 1429 0
1428 -1429 0
1428 1612 -1924 -1381 0
1428 -1612 1924 -1381 0
-1429 1381 1430 0
-1429 -1613 -1925 1430 0
-1429 1613 1925 1430 0
1429 -1430 0
1429 1613 -1925 -1381 0
1429 -1613 1925 -1381 0
-1430 1381 1431 0
-1430 -1614 -1926 1431 0
-1430 1614 1926 1431 0
1430 -1431 0
1430 1614 -1926 -1381 0
1430 -1614 1926 -1381 0
-1431 1381 1432 0
-1431 -1615 -1927 1432 0
-1431 1615 1927 1432 0
1431 -1432 0
1431 1615 -1927 -1381 0
1431 -1615 1927 -1381 0
-1432 1381 1433 0
-1432 -1616 -1928 1433 0
-1432 1616 1928 1433 0
1432 -1433 0
1432 1616 -1928 -1381 0
1432 -1616 1928 -1381 0
-1433 1381 1434 0
-1433 -1617 -1929 1434 0
-1433 1617 1929 1434 0
1433 -1434 0
1433 1617 -1929 -1381 0
1433 -1617 1929 -1381 0
-1434 1381 1435 0
-1434 -1618 -1930 1435 0
-1434 1618 1930 1435 0
1434 -1435 0
1434 1618 -1930 -1381 0
1434 -1618 1930 -1381 0
-1435 1381 1436 0
-1435 -1619 -1931 1436 0
-1435 1619 1931 1436 0
1435 -1436 0
1435 1619 -1931 -1381 0
1435 -1619 1931 -1381 0
-1436 1381 1437 0
-1436 -1620 -1932 1437 0
-1436 1620 1932 1437 0
1436 -1437 0
1436 1620 -1932 -1381 0
1436 -1620 1932 -1381 0
-1437 1381 1438 0
-1437 -1621 -1933 1438 0
-1437 1621 1933 1438 0
1437 -1438 0
1437 1621 -1933 -1381 0
1437 -1621 1933 -1381 0
-1438 1381 1439 0
-1438 -1622 -1934 1439 0
-1438 1622 1934 1439 0
1438 -1439 0
1438 1622 -1934 -1381 0
1438 -1622 1934 -1381 0
-1439 1381 1440 0
-1439 -1623 -1935 1440 0
-1439 1623 1935 1440 0
1439 -1440 0
1439 1623 -1935 -1381 0
1439 -1623 1935 -1381 0
-1440 1381 1441 0
-1440 -1624 -1936 1441 0
-1440 1624 1936 1441 0
1440 -1441 0
1440 1624 -1936 -1381 0
1440 -1624 1936 -1381 0
-1441 1381 1442 0
-1441 -1625 -1937 1442 0
-1441 1625 1937 1442 0
1441 -1442 0
1441 1625 -1937 -1381 0
1441 -1625 1937 -1381 0
-1442 1381 1443 0
-1442 -1626 -1938 1443 0
-1442 1626 1938 1443 0
1442 -1443 0
1442 1626 -1938 -1381 0
1442 -1626 1938 -1381 0
-1443 1381 1444 0
-1443 -1627 -1939 1444 0
-1443 1627 1939 1444 0
1443 -1444 0
1443 1627 -1939 -1381 0
1443 -1627 1939 -1381 0
-1444 1381 1445 0
-1444 -1628 -1940 1445 0
-1444 1628 1940 1445 0
1444 -1445 0
1444 1628 -1940 -1381 0
1444 -1628 1940 -1381 0
-1445 1381 1446 0
-1445 -1629 -1941 1446 0
-1445 1629 1941 1446 0
1445 -1446 0
1445 1629 -1941 -1381 0
1445 -1629 1941 -1381 0
-1446 1381 1447 0
-1446 -1630 -1942 1447 0
-1446 1630 1942 1447 0
1446 -1447 0
1446 1630 -1942 -1381 0
1446 -1630 1942 -1381 0
-1447 1381 1448 0
-1447 -1631 -1943 1448 0
-1447 1631 1943 1448 0
1447 -1448 0
1447 1631 -1943 -1381 0
1447 -1631 1943 -1381 0
-1448 1381 1449 0
-1448 -1632 -1944 1449 0
-1448 1632 1944 1449 0
1448 -1449 0
1448 1632 -1944 -1381 0
1448 -1632 1944 -1381 0
-1449 1381 1450 0
-1449 -1633 -1945 1450 0
-1449 1633 1945 1450 0
1449 -1450 0
1449 1633 -1945 -1381 0
1449 -1633 1945 -1381 0
-1450 1381 1451 0
-1450 -1634 -1946 1451 0
-1450 1634 1946 1451 0
1450 -1451 0
1450 1634 -1946 -1381 0
1450 -1634 1946 -1381 0
-1451 1381 1452 0
-1451 -1635 -1947 1452 0
-1451 1635 1947 1452 0
1451 -1452 0
1451 1635 -1947 -1381 0
1451 -1635 1947 -1381 0
-1452 1381 1453 0
-1452 -1636 -1948 1453 0
-1452 1636 1948 1453 0
1452 -1453 0
1452 1636 -1948 -1381 0
1452 -1636 1948 -1381 0
-1453 1381 1454 0
-1453 -1637 -1949 1454 0
-1453 1637 1949 1454 0
1453 -1454 0
1453 1637 -1949 -1381 0
1453 -1637 1949 -1381 0
-1454 1381 1455 0
-1454 -1638 -1950 1455 0
-1454 1638 1950 1455 0
1454 -1455 0
1454 1638 -1950 -1381 0
1454 -1638 1950 -1381 0
-1455 1381 1456 0
-1455 -1639 -1951 1456 0
-1455 1639 1951 1456 0
1455 -1456 0
1455 1639 -1951 -1381 0
1455 -1639 1951 -1381 0
-1456 1381 1457 0
-1456 -1640 -1952 1457 0
-1456 1640 1952 1457 0
1456 -1457 0
1456 1640 -1952 -1381 0
1456 -1640 1952 -1381 0
-1457 1381 1458 0
-1457 -1641 -1953 1458 0
-1457 1641 1953 1458 0
1457 -1458 0
1457 1641 -1953 -1381 0
1457 -1641 1953 -1381 0
-1458 1381 1459 0
-1458 -1642 -1954 1459 0
-1458 1642 1954 1459 0
1458 -1459 0
1458 1642 -1954 -1381 0
1458 -1642 1954 -1381 0
-1459 1381 1460 0
-1459 1643 1644 1460 0
1459 -1460 0
1459 -1644 -1381 0
1459 -1643 -1381 0
-1460 1645 1461 1462 0
-1460 1381 1461 1462 0
1460 -1462 0
1460 -1461 0
1460 -1645 -1381 0
1461 1646 -1958 -1381 0
1461 -1646 1958 -1381 0
-1461 1381 0
-1461 1646 1958 0
-1461 -1646 -1958 0
-1462 1381 1463 0
-1462 -1647 -1959 1463 0
-1462 1647 1959 1463 0
1462 -1463 0
1462 1647 -1959 -1381 0
1462 -1647 1959 -1381 0
-1463 1648 1464 1481 0
-1463 1381 1464 1481 0
1463 -1481 0
1463 -1464 0
1463 -1648 -1381 0
1464 -1466 1475 0
1464 1649 -1465 1475 0
1464 -1649 1465 1475 0
-1464 -1475 0
-1464 1649 1465 1466 0
-1464 -1649 -1465 1466 0
1465 -1961 -1381 0
-1465 1961 0
-1465 1381 0
1466 1469 -1471 0
1466 -1467 1473 0
-1466 1467 1471 0
-1466 -1469 -1473 0
-1466 1467 -1469 0
-1466 1471 -1473 0
-1467 -1651 -1468 0
-1467 1651 1468 0
1467 1651 -1468 0
1467 -1651 1468 0
1468 -1963 -1381 0
-1468 1963 0
-1468 1381 0
1469 1650 -1470 0
1469 -1650 1470 0
-1469 -1650 -1470 0
-1469 1650 1470 0
1470 1962 -1381 0
-1470 -1962 0
-1470 1381 0
-1471 -1650 -1472 0
-1471 1650 1472 0
1471 1650 -1472 0
1471 -1650 1472 0
1472 -1962 -1381 0
-1472 1962 0
-1472 1381 0
1473 1651 -1474 0
1473 -1651 1474 0
-1473 -1651 -1474 0
-1473 1651 1474 0
1474 1963 -1381 0
-1474 -1963 0
-1474 1381 0
-1475 -1467 1479 0
-1475 1476 1479 1480 0
1475 -1479 0
1475 1467 -1480 0
1475 1467 -1476 0
1476 1471 -1477 0
-1476 -1471 0
-1476 1477 0
1477 1649 -1478 0
1477 -1649 1478 0
-1477 -1649 -1478 0
-1477 1649 1478 0
1478 1961 -1381 0
-1478 -1961 0
-1478 1381 0
1479 1471 -1473 -1477 0
-1479 -1471 0
-1479 1473 0
-1479 1477 0
1480 -1469 -1477 0
-1480 1469 0
-1480 1477 0
-1481 1493 1501 0
-1481 -1482 -1484 1501 0
1481 -1501 0
1481 1484 -1493 0
1481 1482 -1493 0
1482 1652 -1483 0
1482 -1652 1483 0
-1482 -1652 -1483 0
-1482 1652 1483 0
1483 1964 -1381 0
-1483 -1964 0
-1483 1381 0
-1484 -1487 1489 0
-1484 1485 -1491 0
-1484 1485 1489 0
1484 -1485 1487 0
1484 -1489 1491 0
1484 -1485 -1489 0
1485 1653 -1486 0
1485 -1653 1486 0
-1485 -1653 -1486 0
-1485 1653 1486 0
1486 1965 -1381 0
-1486 -1965 0
-1486 1381 0
-1487 -1654 -1488 0
-1487 1654 1488 0
1487 1654 -1488 0
1487 -1654 1488 0
1488 -1966 -1381 0
-1488 1966 0
-1488 1381 0
1489 1654 -1490 0
1489 -1654 1490 0
-1489 -1654 -1490 0
-1489 1654 1490 0
1490 1966 -1381 0
-1490 -1966 0
-1490 1381 0
-1491 -1653 -1492 0
-1491 1653 1492 0
1491 1653 -1492 0
1491 -1653 1492 0
1492 -1965 -1381 0
-1492 1965 0
-1492 1381 0
1493 -1494 1497 1498 0
1493 -1491 1497 1498 0
-1493 -1498 0
-1493 -1497 0
-1493 1491 1494 0
-1494 1487 1495 0
1494 -1487 0
1494 -1495 0
-1495 -1652 -1496 0
-1495 1652 1496 0
1495 1652 -1496 0
1495 -1652 1496 0
1496 -1964 -1381 0
-1496 1964 0
-1496 1381 0
1497 -1489 1491 1495 0
-1497 1489 0
-1497 -1491 0
-1497 -1495 0
-1498 1485 1499 1500 0
-1498 -1494 1499 1500 0
1498 -1500 0
1498 -1499 0
1498 -1485 1494 0
1499 -1485 -1489 1495 0
-1499 1485 0
-1499 1489 0
-1499 -1495 0
1500 -1482 1487 1491 0
-1500 1482 0
-1500 -1487 0
-1500 -1491 0
-1501 1502 1509 1510 1517 0
1501 -1517 0
1501 -1510 0
1501 -1502 0
1501 -1509 0
1502 -1503 -1505 0
1502 -1665 -1505 1508 0
1502 1665 -1505 -1508 0
-1502 1505 0
-1502 1665 1503 1508 0
-1502 -1665 1503 -1508 0
-1503 -1666 -1504 0
-1503 1666 1504 0
1503 1666 -1504 0
1503 -1666 1504 0
1504 1893 -1979 0
-1504 -1893 0
-1504 1979 0
-1505 -1893 1506 0
-1505 1666 1979 1506 0
-1505 -1666 -1979 1506 0
1505 -1506 0
1505 1666 1893 -1979 0
1505 -1666 1893 1979 0
-1506 -1665 -1507 0
-1506 1665 1507 0
1506 1665 -1507 0
1506 -1665 1507 0
1507 1893 -1978 0
-1507 -1893 0
-1507 1978 0
-1508 1893 1978 0
1508 -1893 0
1508 -1978 0
1509 -1667 1893 1980 0
1509 1667 1893 -1980 0
-1509 -1893 0
-1509 -1667 -1980 0
-1509 1667 1980 0
1510 -1511 -1514 0
1510 1669 -1513 -1514 0
1510 -1669 1513 -1514 0
-1510 1514 0
-1510 1669 1511 1513 0
-1510 -1669 1511 -1513 0
-1511 -1670 -1512 0
-1511 1670 1512 0
1511 1670 -1512 0
1511 -1670 1512 0
1512 1893 -1986 0
-1512 -1893 0
-1512 1986 0
-1513 1893 1985 0
1513 -1893 0
1513 -1985 0
1514 -1515 0
1514 1670 1893 -1986 0
1514 -1670 1893 1986 0
-1514 -1893 1515 0
-1514 1670 1986 1515 0
-1514 -1670 -1986 1515 0
-1515 -1669 -1516 0
-1515 1669 1516 0
1515 1669 -1516 0
1515 -1669 1516 0
1516 1893 -1985 0
-1516 -1893 0
-1516 1985 0
-1517 1518 1525 1526 1533 0
1517 -1533 0
1517 -1526 0
1517 -1518 0
1517 -1525 0
1518 -1519 -1521 0
1518 -1673 -1521 1524 0
1518 1673 -1521 -1524 0
-1518 1521 0
-1518 1673 1519 1524 0
-1518 -1673 1519 -1524 0
-1519 -1672 -1520 0
-1519 1672 1520 0
1519 1672 -1520 0
1519 -1672 1520 0
1520 1893 -1988 0
-1520 -1893 0
-1520 1988 0
-1521 -1893 1522 0
-1521 1672 1988 1522 0
-1521 -1672 -1988 1522 0
1521 -1522 0
1521 1672 1893 -1988 0
1521 -1672 1893 1988 0
-1522 -1673 -1523 0
-1522 1673 1523 0
1522 1673 -1523 0
1522 -1673 1523 0
1523 1893 -1989 0
-1523 -1893 0
-1523 1989 0
-1524 1893 1989 0
1524 -1893 0
1524 -1989 0
1525 -1668 1893 1984 0
1525 1668 1893 -1984 0
-1525 -1893 0
-1525 -1668 -1984 0
-1525 1668 1984 0
1526 -1527 -1529 0
1526 -1681 -1529 1532 0
1526 1681 -1529 -1532 0
-1526 1529 0
-1526 1681 1527 1532 0
-1526 -1681 1527 -1532 0
-1527 -1682 -1528 0
-1527 1682 1528 0
1527 1682 -1528 0
1527 -1682 1528 0
1528 1893 -1998 0
-1528 -1893 0
-1528 1998 0
-1529 -1893 1530 0
-1529 1682 1998 1530 0
-1529 -1682 -1998 1530 0
1529 -1530 0
1529 1682 1893 -1998 0
1529 -1682 1893 1998 0
-1530 -1681 -1531 0
-1530 1681 1531 0
1530 1681 -1531 0
1530 -1681 1531 0
1531 1893 -1997 0
-1531 -1893 0
-1531 1997 0
-1532 1893 1997 0
1532 -1893 0
1532 -1997 0
-1533 -1893 1534 0
-1533 1683 1999 1534 0
-1533 -1683 -1999 1534 0
1533 -1534 0
1533 1683 1893 -1999 0
1533 -1683 1893 1999 0
-1534 1535 1542 1549 1550 0
1534 -1550 0
1534 -1549 0
1534 -1535 0
1534 -1542 0
1535 -1536 -1539 0
1535 1688 -1538 -1539 0
1535 -1688 1538 -1539 0
-1535 1539 0
-1535 1688 1536 1538 0
-1535 -1688 1536 -1538 0
-1536 -1689 -1537 0
-1536 1689 1537 0
1536 1689 -1537 0
1536 -1689 1537 0
1537 1893 -2005 0
-1537 -1893 0
-1537 2005 0
-1538 1893 2004 0
1538 -1893 0
1538 -2004 0
1539 -1540 0
1539 1689 1893 -2005 0
1539 -1689 1893 2005 0
-1539 -1893 1540 0
-1539 1689 2005 1540 0
-1539 -1689 -2005 1540 0
-1540 -1688 -1541 0
-1540 1688 1541 0
1540 1688 -1541 0
1540 -1688 1541 0
1541 1893 -2004 0
-1541 -1893 0
-1541 2004 0
1542 -1543 -1545 0
1542 -1692 -1545 1548 0
1542 1692 -1545 -1548 0
-1542 1545 0
-1542 1692 1543 1548 0
-1542 -1692 1543 -1548 0
-1543 -1691 -1544 0
-1543 1691 1544 0
1543 1691 -1544 0
1543 -1691 1544 0
1544 1893 -2007 0
-1544 -1893 0
-1544 2007 0
-1545 -1893 1546 0
-1545 1691 2007 1546 0
-1545 -1691 -2007 1546 0
1545 -1546 0
1545 1691 1893 -2007 0
1545 -1691 1893 2007 0
-1546 -1692 -1547 0
-1546 1692 1547 0
1546 1692 -1547 0
1546 -1692 1547 0
1547 1893 -2008 0
-1547 -1893 0
-1547 2008 0
-1548 1893 2008 0
1548 -1893 0
1548 -2008 0
1549 -1687 1893 2003 0
1549 1687 1893 -2003 0
-1549 -1893 0
-1549 -1687 -2003 0
-1549 1687 2003 0
-1550 1381 1560 0
-1550 1582 1551 0
-1550 1381 1551 0
-1550 1582 1560 0
1550 -1551 -1560 0
1550 -1582 -1381 0
-1551 -1572 1573 1552 -1557 0
-1551 -1572 -1573 -1552 -1557 0
-1551 1572 1573 1552 1557 0
-1551 1572 -1573 -1552 1557 0
1551 1572 -1557 0
1551 -1572 1557 0
1551 -1573 1552 0
1551 1573 -1552 0
1552 979 -1553 0
1552 979 -1555 0
-1552 -979 0
-1552 1553 1555 0
1553 -1870 -1554 0
-1553 1870 0
-1553 1554 0
1554 -1871 -988 0
-1554 1871 0
-1554 988 0
-1555 988 1556 0
-1555 1870 -1871 -988 0
1555 988 -1556 0
1555 -1870 -988 0
1555 1871 -988 0
1556 990 992 -993 0
1556 -1874 990 992 0
-1556 -992 0
-1556 -990 0
-1556 1874 993 0
1557 979 1553 -1558 0
-1557 1558 0
-1557 -1553 0
-1557 -979 0
1558 988 -1559 0
1558 1870 -1871 -988 0
-1558 988 1559 0
-1558 -1870 -988 0
-1558 1871 -988 0
1559 990 -993 0
1559 -1873 990 0
1559 990 -992 0
-1559 -990 0
-1559 1873 992 993 0
-1560 -1572 1573 1561 -1562 0
-1560 -1572 -1573 -1561 -1562 0
-1560 1572 1573 1561 1562 0
-1560 1572 -1573 -1561 1562 0
1560 1572 -1562 0
1560 -1572 1562 0
1560 -1573 1561 0
1560 1573 -1561 0
1561 979 1553 -1555 0
-1561 -979 0
-1561 1555 0
-1561 -1553 0
1562 979 -1553 0
1562 979 -1558 0
-1562 -979 0
-1562 1553 1558 0
-1563 -1686 -1564 0
-1563 1686 1564 0
1563 1686 -1564 0
1563 -1686 1564 0
1564 -2002 1565 0
1564 -1893 1565 0
-1564 -1565 0
-1564 1893 2002 0
-1565 1893 0
-1565 1244 1567 0
-1565 -1244 -1566 0
1565 -1893 1244 -1567 0
1565 -1893 -1244 1566 0
1566 2156 -2157 0
-1566 -2156 0
-1566 2157 0
-1567 2147 2149 0
-1567 -2147 2156 -2157 0
1567 2147 -2149 0
1567 -2147 2157 0
1567 -2147 -2156 0
1568 -1858 1886 0
1568 1858 -1886 -1570 0
1568 -1858 1569 0
-1568 1858 1570 0
-1568 -1858 -1886 -1569 0
-1568 1858 1886 0
1569 -1956 -654 0
1569 -654 -670 0
-1569 654 0
-1569 1956 670 0
1570 1956 -654 670 0
-1570 -1956 0
-1570 654 0
-1570 -670 0
-2160 0
2 0
81 0
137 0
348 0
355 0
505 0
506 0
548 0
-598 0
-601 0
604 0
-607 0
-610 0
613 0
644 0
1571 0
-651 0
-671 0
-682 0
-684 0
-701 0
703 0
723 0
725 0
727 0
739 0
741 0
743 0
867 0
-978 0
1572 0
1573 0
994 0
-1017 0
-1019 0
1574 0
1575 0
1576 0
1577 0
1578 0
1579 0
1580 0
1581 0
1582 0
1021 0
1022 0
1023 0
1025 0
1026 0
1027 0
1028 0
1022 0
1583 0
1584 0
1585 0
1586 0
1587 0
1588 0
1589 0
1590 0
1591 0
1592 0
1593 0
1594 0
1595 0
1596 0
1597 0
1598 0
1599 0
1600 0
1601 0
1602 0
1603 0
1604 0
1605 0
1606 0
1607 0
1608 0
1609 0
1610 0
1611 0
1612 0
1613 0
1614 0
1615 0
1616 0
1617 0
1618 0
1619 0
1620 0
1621 0
1622 0
1623 0
1624 0
1625 0
1626 0
1627 0
1628 0
1629 0
1630 0
1631 0
1632 0
1633 0
1634 0
1635 0
1636 0
1637 0
1638 0
1639 0
1640 0
1641 0
1642 0
1643 0
1644 0
1645 0
1646 0
1647 0
1648 0
1649 0
1650 0
1651 0
1652 0
1653 0
1654 0
1655 0
1656 0
1657 0
1658 0
1659 0
1660 0
1661 0
1662 0
1663 0
1664 0
1029 0
1665 0
1666 0
1667 0
1030 0
1032 0
1034 0
1668 0
1669 0
1670 0
1671 0
1672 0
1673 0
1674 0
1675 0
1676 0
1677 0
1678 0
1679 0
1680 0
1681 0
1682 0
1683 0
1684 0
1685 0
1686 0
1687 0
1688 0
1689 0
1690 0
1691 0
1692 0
1693 0
1694 0
1695 0
1696 0
1697 0
1698 0
1699 0
1700 0
1701 0
1702 0
1703 0
1704 0
1705 0
1706 0
1707 0
1708 0
1709 0
1710 0
1711 0
1712 0
1713 0
1714 0
1715 0
1716 0
1717 0
1718 0
1719 0
1720 0
1721 0
1722 0
1723 0
1724 0
1725 0
1726 0
1727 0
1728 0
1729 0
1730 0
1731 0
1732 0
1733 0
1734 0
1735 0
1736 0
1737 0
1738 0
1739 0
1740 0
1741 0
1742 0
1743 0
1744 0
1745 0
1746 0
1747 0
1748 0
1749 0
1750 0
1751 0
1752 0
1753 0
1754 0
1755 0
1756 0
1757 0
1758 0
1759 0
1760 0
1761 0
1762 0
1763 0
1764 0
1765 0
1766 0
1767 0
1768 0
1769 0
1770 0
1771 0
1772 0
1773 0
1774 0
1775 0
1776 0
1777 0
1778 0
1779 0
1780 0
1781 0
1784 0
1785 0
1786 0
1787 0
1788 0
1791 0
1792 0
1797 0
1798 0
1799 0
1800 0
1801 0
1802 0
1803 0
1804 0
1805 0
1806 0
1807 0
1808 0
1809 0
1810 0
1811 0
1812 0
1813 0
1814 0
1815 0
1816 0
1817 0
1818 0
1819 0
1820 0
1821 0
1822 0
1823 0
1824 0
1825 0
1826 0
1827 0
1828 0
1829 0
1830 0
1831 0
1832 0
1833 0
1834 0
1835 0
1836 0
1837 0
1838 0
1839 0
1840 0
1841 0
1842 0
1843 0
1844 0
1845 0
1846 0
1847 0
1848 0
1849 0
1036 0
-2160 0

